created by fftool

3130 atoms
2682 bonds
4097 angles
4535 dihedrals
12 atom types
7 bond types
10 angle types
8 dihedral types
0.000000 36.510000 xlo xhi
0.000000 36.510000 ylo yhi
0.000000 36.510000 zlo zhi

Masses

   1   14.007  # N3
   2   12.011  # C1
   3    1.008  # H3
   4   12.011  # CE
   5    1.008  # H1
   6    1.008  # HC
   7   12.011  # CO2
   8   12.011  # CTA
   9   15.999  # O2
  10    1.008  # Hw
  11   15.999  # Ow
  12  144.242  # Nd

Bond Coeffs

   1   382.002868     1.448000  # NT-CT
   2   434.034417     1.010000  # HN-NT
   3   267.925430     1.529000  # CT-CT
   4   339.985660     1.090000  # HC-CT
   5   317.041109     1.522000  # CT-CO
   6   655.951243     1.250000  # CO-O2
   7   517.630258     1.000000  # Ow-Hw

Angle Coeffs

   1    51.804493   107.200000  # CT-NT-CT
   2    35.002390   109.500000  # HN-NT-CT
   3    56.202199   109.500000  # NT-CT-CT
   4    35.002390   109.500000  # HC-CT-NT
   5    37.500000   110.700000  # CT-CT-HC
   6    32.994742   107.800000  # HC-CT-HC
   7    70.004780   117.000000  # CT-CO-O2
   8    79.995220   126.000000  # O2-CO-O2
   9    35.002390   109.500000  # HC-CT-CO
  10    37.950526   109.470000  # Hw-Ow-Hw

Dihedral Coeffs

   1     0.415989    -0.128011     0.695005     0.000000  # CT-NT-CT-CT
   2    -0.190010    -0.416993     0.417997     0.000000  # HN-NT-CT-CT
   3     0.000000     0.000000     0.559990     0.000000  # HC-CT-NT-CT
   4     0.000000     0.000000     0.400000     0.000000  # HN-NT-CT-HC
   5    -1.013002    -0.709011     0.472992     0.000000  # HC-CT-CT-NT
   6     0.000000     0.000000     0.300000     0.000000  # HC-CT-CT-HC
   7     0.000000     0.000000     0.000000     0.000000  # HC-CT-CO-O2
   8     0.000000    21.000000     0.000000     0.000000  # CT-O2-CO-O2

Atoms

      1       1    1   0.030000  8.617359e+00  2.073896e+01  3.006621e+01  # N3 triethylammonium
      2       1    2  -0.170000  7.403101e+00  2.011820e+01  2.938815e+01  # C1 triethylammonium
      3       1    2  -0.170000  8.421073e+00  2.216400e+01  3.055727e+01  # C1 triethylammonium
      4       1    2  -0.170000  9.850015e+00  2.051726e+01  2.920316e+01  # C1 triethylammonium
      5       1    3   0.310000  8.770283e+00  2.018136e+01  3.091741e+01  # H3 triethylammonium
      6       1    4  -0.050000  6.160787e+00  2.018875e+01  3.025589e+01  # CE triethylammonium
      7       1    5   0.130000  7.656702e+00  1.906802e+01  2.920372e+01  # H1 triethylammonium
      8       1    5   0.130000  7.254172e+00  2.061934e+01  2.842716e+01  # H1 triethylammonium
      9       1    4  -0.050000  8.272653e+00  2.316249e+01  2.942758e+01  # CE triethylammonium
     10       1    5   0.130000  7.544283e+00  2.216757e+01  3.120818e+01  # H1 triethylammonium
     11       1    5   0.130000  9.277943e+00  2.240961e+01  3.119152e+01  # H1 triethylammonium
     12       1    4  -0.050000  1.112275e+01  2.098115e+01  2.988599e+01  # CE triethylammonium
     13       1    5   0.130000  9.910628e+00  1.943830e+01  2.902047e+01  # H1 triethylammonium
     14       1    5   0.130000  9.692231e+00  2.102972e+01  2.824843e+01  # H1 triethylammonium
     15       1    6   0.060000  5.378548e+00  1.954755e+01  2.983637e+01  # HC triethylammonium
     16       1    6   0.060000  6.361273e+00  1.985374e+01  3.127893e+01  # HC triethylammonium
     17       1    6   0.060000  5.755283e+00  2.120419e+01  3.029160e+01  # HC triethylammonium
     18       1    6   0.060000  7.512210e+00  2.286223e+01  2.870067e+01  # HC triethylammonium
     19       1    6   0.060000  7.972036e+00  2.413360e+01  2.983454e+01  # HC triethylammonium
     20       1    6   0.060000  9.218508e+00  2.331140e+01  2.889841e+01  # HC triethylammonium
     21       1    6   0.060000  1.122305e+01  2.054833e+01  3.088571e+01  # HC triethylammonium
     22       1    6   0.060000  1.199122e+01  2.067308e+01  2.929448e+01  # HC triethylammonium
     23       1    6   0.060000  1.116420e+01  2.207112e+01  2.997014e+01  # HC triethylammonium
     24       2    1   0.030000  1.105797e+01  5.291557e+00  2.010150e+01  # N3 triethylammonium
     25       2    2  -0.170000  9.724349e+00  4.808412e+00  2.065609e+01  # C1 triethylammonium
     26       2    2  -0.170000  1.095868e+01  6.380823e+00  1.904602e+01  # C1 triethylammonium
     27       2    2  -0.170000  1.191156e+01  4.093498e+00  1.971488e+01  # C1 triethylammonium
     28       2    3   0.310000  1.154121e+01  5.732137e+00  2.089599e+01  # H3 triethylammonium
     29       2    4  -0.050000  8.873221e+00  5.948412e+00  2.118266e+01  # CE triethylammonium
     30       2    5   0.130000  9.962524e+00  4.124515e+00  2.147875e+01  # H1 triethylammonium
     31       2    5   0.130000  9.209171e+00  4.248787e+00  1.986980e+01  # H1 triethylammonium
     32       2    4  -0.050000  1.035140e+01  5.890894e+00  1.774741e+01  # CE triethylammonium
     33       2    5   0.130000  1.037475e+01  7.198362e+00  1.947394e+01  # H1 triethylammonium
     34       2    5   0.130000  1.196800e+01  6.771889e+00  1.888732e+01  # H1 triethylammonium
     35       2    4  -0.050000  1.331150e+01  4.495896e+00  1.929118e+01  # CE triethylammonium
     36       2    5   0.130000  1.197245e+01  3.456184e+00  2.060445e+01  # H1 triethylammonium
     37       2    5   0.130000  1.138964e+01  3.546707e+00  1.892264e+01  # H1 triethylammonium
     38       2    6   0.060000  8.035898e+00  5.548249e+00  2.176385e+01  # HC triethylammonium
     39       2    6   0.060000  9.447880e+00  6.616945e+00  2.183216e+01  # HC triethylammonium
     40       2    6   0.060000  8.442562e+00  6.535834e+00  2.036638e+01  # HC triethylammonium
     41       2    6   0.060000  9.402274e+00  5.368646e+00  1.789989e+01  # HC triethylammonium
     42       2    6   0.060000  1.015421e+01  6.744528e+00  1.709056e+01  # HC triethylammonium
     43       2    6   0.060000  1.103338e+01  5.222080e+00  1.721409e+01  # HC triethylammonium
     44       2    6   0.060000  1.379083e+01  5.132366e+00  2.004084e+01  # HC triethylammonium
     45       2    6   0.060000  1.392866e+01  3.600673e+00  1.916188e+01  # HC triethylammonium
     46       2    6   0.060000  1.330969e+01  5.023542e+00  1.833284e+01  # HC triethylammonium
     47       3    1   0.030000  2.449828e+01  3.684714e+00  2.777686e+01  # N3 triethylammonium
     48       3    2  -0.170000  2.456722e+01  3.791684e+00  2.929453e+01  # C1 triethylammonium
     49       3    2  -0.170000  2.578534e+01  4.035799e+00  2.704844e+01  # C1 triethylammonium
     50       3    2  -0.170000  2.325487e+01  4.401230e+00  2.727288e+01  # C1 triethylammonium
     51       3    3   0.310000  2.434295e+01  2.686800e+00  2.757967e+01  # H3 triethylammonium
     52       3    4  -0.050000  2.571451e+01  2.987743e+00  2.987649e+01  # CE triethylammonium
     53       3    5   0.130000  2.361845e+01  3.395910e+00  2.967457e+01  # H1 triethylammonium
     54       3    5   0.130000  2.463965e+01  4.850475e+00  2.956015e+01  # H1 triethylammonium
     55       3    4  -0.050000  2.613531e+01  5.506727e+00  2.714393e+01  # CE triethylammonium
     56       3    5   0.130000  2.657790e+01  3.411129e+00  2.746569e+01  # H1 triethylammonium
     57       3    5   0.130000  2.566350e+01  3.725591e+00  2.600644e+01  # H1 triethylammonium
     58       3    4  -0.050000  2.304370e+01  4.210267e+00  2.578284e+01  # CE triethylammonium
     59       3    5   0.130000  2.240659e+01  3.969548e+00  2.781629e+01  # H1 triethylammonium
     60       3    5   0.130000  2.334295e+01  5.460135e+00  2.753744e+01  # H1 triethylammonium
     61       3    6   0.060000  2.559966e+01  2.910423e+00  3.096270e+01  # HC triethylammonium
     62       3    6   0.060000  2.574781e+01  1.973127e+00  2.946604e+01  # HC triethylammonium
     63       3    6   0.060000  2.667718e+01  3.473499e+00  2.969168e+01  # HC triethylammonium
     64       3    6   0.060000  2.612473e+01  5.873519e+00  2.817456e+01  # HC triethylammonium
     65       3    6   0.060000  2.714321e+01  5.669605e+00  2.674817e+01  # HC triethylammonium
     66       3    6   0.060000  2.545088e+01  6.120143e+00  2.655054e+01  # HC triethylammonium
     67       3    6   0.060000  2.306302e+01  3.151871e+00  2.550669e+01  # HC triethylammonium
     68       3    6   0.060000  2.206956e+01  4.618332e+00  2.549376e+01  # HC triethylammonium
     69       3    6   0.060000  2.379894e+01  4.739844e+00  2.519463e+01  # HC triethylammonium
     70       4    1   0.030000  2.703403e+01  1.695282e+01  3.232423e+01  # N3 triethylammonium
     71       4    2  -0.170000  2.756816e+01  1.598937e+01  3.127256e+01  # C1 triethylammonium
     72       4    2  -0.170000  2.577540e+01  1.649019e+01  3.303992e+01  # C1 triethylammonium
     73       4    2  -0.170000  2.696645e+01  1.835575e+01  3.174058e+01  # C1 triethylammonium
     74       4    3   0.310000  2.775840e+01  1.699020e+01  3.305412e+01  # H3 triethylammonium
     75       4    4  -0.050000  2.778430e+01  1.459408e+01  3.182730e+01  # CE triethylammonium
     76       4    5   0.130000  2.852840e+01  1.639907e+01  3.093894e+01  # H1 triethylammonium
     77       4    5   0.130000  2.687338e+01  1.598548e+01  3.042751e+01  # H1 triethylammonium
     78       4    4  -0.050000  2.455916e+01  1.646273e+01  3.213701e+01  # CE triethylammonium
     79       4    5   0.130000  2.598158e+01  1.550291e+01  3.345854e+01  # H1 triethylammonium
     80       4    5   0.130000  2.562080e+01  1.716051e+01  3.389057e+01  # H1 triethylammonium
     81       4    4  -0.050000  2.658165e+01  1.939365e+01  3.277788e+01  # CE triethylammonium
     82       4    5   0.130000  2.796860e+01  1.858117e+01  3.135838e+01  # H1 triethylammonium
     83       4    5   0.130000  2.626272e+01  1.834061e+01  3.090179e+01  # H1 triethylammonium
     84       4    6   0.060000  2.836668e+01  1.399855e+01  3.111653e+01  # HC triethylammonium
     85       4    6   0.060000  2.832819e+01  1.461530e+01  3.277744e+01  # HC triethylammonium
     86       4    6   0.060000  2.683466e+01  1.407207e+01  3.197743e+01  # HC triethylammonium
     87       4    6   0.060000  2.473899e+01  1.591185e+01  3.120910e+01  # HC triethylammonium
     88       4    6   0.060000  2.372964e+01  1.597042e+01  3.265522e+01  # HC triethylammonium
     89       4    6   0.060000  2.422771e+01  1.747351e+01  3.188148e+01  # HC triethylammonium
     90       4    6   0.060000  2.722229e+01  1.933413e+01  3.366268e+01  # HC triethylammonium
     91       4    6   0.060000  2.668531e+01  2.039673e+01  3.235112e+01  # HC triethylammonium
     92       4    6   0.060000  2.553922e+01  1.928654e+01  3.309205e+01  # HC triethylammonium
     93       5    1   0.030000  2.607479e+01  3.312175e+01  2.227861e+01  # N3 triethylammonium
     94       5    2  -0.170000  2.731200e+01  3.223537e+01  2.222240e+01  # C1 triethylammonium
     95       5    2  -0.170000  2.622160e+01  3.437795e+01  2.312171e+01  # C1 triethylammonium
     96       5    2  -0.170000  2.485410e+01  3.227105e+01  2.259434e+01  # C1 triethylammonium
     97       5    3   0.310000  2.593648e+01  3.345985e+01  2.131664e+01  # H3 triethylammonium
     98       5    4  -0.050000  2.854731e+01  3.299879e+01  2.178367e+01  # CE triethylammonium
     99       5    5   0.130000  2.709410e+01  3.144845e+01  2.149130e+01  # H1 triethylammonium
    100       5    5   0.130000  2.744868e+01  3.177560e+01  2.320564e+01  # H1 triethylammonium
    101       5    4  -0.050000  2.634211e+01  3.408397e+01  2.460302e+01  # CE triethylammonium
    102       5    5   0.130000  2.709480e+01  3.491952e+01  2.275201e+01  # H1 triethylammonium
    103       5    5   0.130000  2.535418e+01  3.501141e+01  2.291400e+01  # H1 triethylammonium
    104       5    4  -0.050000  2.356361e+01  3.306515e+01  2.252135e+01  # CE triethylammonium
    105       5    5   0.130000  2.483003e+01  3.147270e+01  2.184382e+01  # H1 triethylammonium
    106       5    5   0.130000  2.499924e+01  3.182331e+01  2.358302e+01  # H1 triethylammonium
    107       5    6   0.060000  2.935223e+01  3.229589e+01  2.154480e+01  # HC triethylammonium
    108       5    6   0.060000  2.835332e+01  3.360707e+01  2.089407e+01  # HC triethylammonium
    109       5    6   0.060000  2.891886e+01  3.364981e+01  2.258051e+01  # HC triethylammonium
    110       5    6   0.060000  2.711539e+01  3.334141e+01  2.482091e+01  # HC triethylammonium
    111       5    6   0.060000  2.660859e+01  3.500159e+01  2.513780e+01  # HC triethylammonium
    112       5    6   0.060000  2.539429e+01  3.372983e+01  2.501901e+01  # HC triethylammonium
    113       5    6   0.060000  2.347309e+01  3.359817e+01  2.157028e+01  # HC triethylammonium
    114       5    6   0.060000  2.270852e+01  3.238730e+01  2.261281e+01  # HC triethylammonium
    115       5    6   0.060000  2.348577e+01  3.378921e+01  2.333775e+01  # HC triethylammonium
    116       6    1   0.030000  8.998834e+00  2.365839e+01  1.232753e+01  # N3 triethylammonium
    117       6    2  -0.170000  1.049112e+01  2.396242e+01  1.234141e+01  # C1 triethylammonium
    118       6    2  -0.170000  8.094965e+00  2.486535e+01  1.251906e+01  # C1 triethylammonium
    119       6    2  -0.170000  8.711046e+00  2.248325e+01  1.324929e+01  # C1 triethylammonium
    120       6    3   0.310000  8.797096e+00  2.332134e+01  1.137646e+01  # H3 triethylammonium
    121       6    4  -0.050000  1.086784e+01  2.504125e+01  1.134366e+01  # CE triethylammonium
    122       6    5   0.130000  1.099819e+01  2.302846e+01  1.207342e+01  # H1 triethylammonium
    123       6    5   0.130000  1.077487e+01  2.423798e+01  1.336140e+01  # H1 triethylammonium
    124       6    4  -0.050000  8.181178e+00  2.545212e+01  1.391315e+01  # CE triethylammonium
    125       6    5   0.130000  8.368141e+00  2.560193e+01  1.176058e+01  # H1 triethylammonium
    126       6    5   0.130000  7.074464e+00  2.454662e+01  1.228705e+01  # H1 triethylammonium
    127       6    4  -0.050000  7.265042e+00  2.203108e+01  1.317247e+01  # CE triethylammonium
    128       6    5   0.130000  9.363214e+00  2.166548e+01  1.292196e+01  # H1 triethylammonium
    129       6    5   0.130000  8.991385e+00  2.277395e+01  1.426710e+01  # H1 triethylammonium
    130       6    6   0.060000  1.195604e+01  2.507427e+01  1.122645e+01  # HC triethylammonium
    131       6    6   0.060000  1.042633e+01  2.485493e+01  1.035909e+01  # HC triethylammonium
    132       6    6   0.060000  1.055428e+01  2.603120e+01  1.168791e+01  # HC triethylammonium
    133       6    6   0.060000  9.212223e+00  2.564871e+01  1.422159e+01  # HC triethylammonium
    134       6    6   0.060000  7.642508e+00  2.640499e+01  1.394317e+01  # HC triethylammonium
    135       6    6   0.060000  7.717265e+00  2.479388e+01  1.465366e+01  # HC triethylammonium
    136       6    6   0.060000  6.956996e+00  2.184370e+01  1.213959e+01  # HC triethylammonium
    137       6    6   0.060000  7.139387e+00  2.110166e+01  1.373764e+01  # HC triethylammonium
    138       6    6   0.060000  6.585679e+00  2.276684e+01  1.361287e+01  # HC triethylammonium
    139       7    1   0.030000  2.881768e+01  1.345541e+01  3.559035e+00  # N3 triethylammonium
    140       7    2  -0.170000  3.007363e+01  1.430795e+01  3.435418e+00  # C1 triethylammonium
    141       7    2  -0.170000  2.754470e+01  1.422681e+01  3.867057e+00  # C1 triethylammonium
    142       7    2  -0.170000  2.909413e+01  1.227319e+01  4.475203e+00  # C1 triethylammonium
    143       7    3   0.310000  2.866701e+01  1.305299e+01  2.624047e+00  # H3 triethylammonium
    144       7    4  -0.050000  2.990819e+01  1.543417e+01  2.432640e+00  # CE triethylammonium
    145       7    5   0.130000  3.087010e+01  1.363562e+01  3.096571e+00  # H1 triethylammonium
    146       7    5   0.130000  3.032998e+01  1.468598e+01  4.429507e+00  # H1 triethylammonium
    147       7    4  -0.050000  2.753764e+01  1.482207e+01  5.260197e+00  # CE triethylammonium
    148       7    5   0.130000  2.743875e+01  1.500073e+01  3.103986e+00  # H1 triethylammonium
    149       7    5   0.130000  2.670615e+01  1.353820e+01  3.727470e+00  # H1 triethylammonium
    150       7    4  -0.050000  2.793111e+01  1.130062e+01  4.528055e+00  # CE triethylammonium
    151       7    5   0.130000  2.997357e+01  1.176288e+01  4.066074e+00  # H1 triethylammonium
    152       7    5   0.130000  2.934134e+01  1.266386e+01  5.467819e+00  # H1 triethylammonium
    153       7    6   0.060000  3.088361e+01  1.587974e+01  2.211168e+00  # HC triethylammonium
    154       7    6   0.060000  2.947628e+01  1.507866e+01  1.491311e+00  # HC triethylammonium
    155       7    6   0.060000  2.927562e+01  1.623344e+01  2.829958e+00  # HC triethylammonium
    156       7    6   0.060000  2.844017e+01  1.540301e+01  5.471805e+00  # HC triethylammonium
    157       7    6   0.060000  2.668132e+01  1.549630e+01  5.365806e+00  # HC triethylammonium
    158       7    6   0.060000  2.743662e+01  1.404719e+01  6.025833e+00  # HC triethylammonium
    159       7    6   0.060000  2.761743e+01  1.099455e+01  3.525677e+00  # HC triethylammonium
    160       7    6   0.060000  2.822717e+01  1.040227e+01  5.079727e+00  # HC triethylammonium
    161       7    6   0.060000  2.706926e+01  1.172641e+01  5.050301e+00  # HC triethylammonium
    162       8    1   0.030000  2.174391e+01  2.481037e+01  2.886571e+01  # N3 triethylammonium
    163       8    2  -0.170000  2.200500e+01  2.587233e+01  2.780571e+01  # C1 triethylammonium
    164       8    2  -0.170000  2.031639e+01  2.429081e+01  2.891736e+01  # C1 triethylammonium
    165       8    2  -0.170000  2.231154e+01  2.527275e+01  3.019891e+01  # C1 triethylammonium
    166       8    3   0.310000  2.231363e+01  2.399998e+01  2.858728e+01  # H3 triethylammonium
    167       8    4  -0.050000  2.157965e+01  2.542042e+01  2.642147e+01  # CE triethylammonium
    168       8    5   0.130000  2.308589e+01  2.605364e+01  2.781112e+01  # H1 triethylammonium
    169       8    5   0.130000  2.149165e+01  2.679023e+01  2.810701e+01  # H1 triethylammonium
    170       8    4  -0.050000  1.932755e+01  2.532927e+01  2.940626e+01  # CE triethylammonium
    171       8    5   0.130000  2.006017e+01  2.393898e+01  2.791585e+01  # H1 triethylammonium
    172       8    5   0.130000  2.031528e+01  2.340879e+01  2.956456e+01  # H1 triethylammonium
    173       8    4  -0.050000  2.221737e+01  2.420094e+01  3.126832e+01  # CE triethylammonium
    174       8    5   0.130000  2.336579e+01  2.551334e+01  3.002033e+01  # H1 triethylammonium
    175       8    5   0.130000  2.178478e+01  2.618650e+01  3.049323e+01  # H1 triethylammonium
    176       8    6   0.060000  2.197925e+01  2.610726e+01  2.566807e+01  # HC triethylammonium
    177       8    6   0.060000  2.194746e+01  2.441478e+01  2.619245e+01  # HC triethylammonium
    178       8    6   0.060000  2.049087e+01  2.542922e+01  2.631509e+01  # HC triethylammonium
    179       8    6   0.060000  1.940911e+01  2.627430e+01  2.886118e+01  # HC triethylammonium
    180       8    6   0.060000  1.830717e+01  2.495725e+01  2.926686e+01  # HC triethylammonium
    181       8    6   0.060000  1.945567e+01  2.553244e+01  3.047357e+01  # HC triethylammonium
    182       8    6   0.060000  2.265111e+01  2.325564e+01  3.092904e+01  # HC triethylammonium
    183       8    6   0.060000  2.276288e+01  2.452304e+01  3.216146e+01  # HC triethylammonium
    184       8    6   0.060000  2.118221e+01  2.402202e+01  3.157371e+01  # HC triethylammonium
    185       9    1   0.030000  2.416273e+01  3.982703e+00  2.054261e+01  # N3 triethylammonium
    186       9    2  -0.170000  2.516735e+01  4.773698e+00  1.971520e+01  # C1 triethylammonium
    187       9    2  -0.170000  2.467111e+01  3.515580e+00  2.189677e+01  # C1 triethylammonium
    188       9    2  -0.170000  2.353480e+01  2.899031e+00  1.967959e+01  # C1 triethylammonium
    189       9    3   0.310000  2.340304e+01  4.643324e+00  2.075541e+01  # H3 triethylammonium
    190       9    4  -0.050000  2.573756e+01  5.954798e+00  2.047753e+01  # CE triethylammonium
    191       9    5   0.130000  2.462326e+01  5.138542e+00  1.883652e+01  # H1 triethylammonium
    192       9    5   0.130000  2.595329e+01  4.088430e+00  1.938423e+01  # H1 triethylammonium
    193       9    4  -0.050000  2.574488e+01  2.452225e+00  2.178947e+01  # CE triethylammonium
    194       9    5   0.130000  2.503579e+01  4.395770e+00  2.243038e+01  # H1 triethylammonium
    195       9    5   0.130000  2.380712e+01  3.149175e+00  2.245900e+01  # H1 triethylammonium
    196       9    4  -0.050000  2.241748e+01  2.165801e+00  2.039742e+01  # CE triethylammonium
    197       9    5   0.130000  2.312678e+01  3.403662e+00  1.879637e+01  # H1 triethylammonium
    198       9    5   0.130000  2.432927e+01  2.215857e+00  1.936161e+01  # H1 triethylammonium
    199       9    6   0.060000  2.627596e+01  6.615103e+00  1.978968e+01  # HC triethylammonium
    200       9    6   0.060000  2.495115e+01  6.540972e+00  2.096434e+01  # HC triethylammonium
    201       9    6   0.060000  2.645593e+01  5.631440e+00  2.123662e+01  # HC triethylammonium
    202       9    6   0.060000  2.655632e+01  2.743138e+00  2.111584e+01  # HC triethylammonium
    203       9    6   0.060000  2.618524e+01  2.275823e+00  2.277638e+01  # HC triethylammonium
    204       9    6   0.060000  2.533182e+01  1.500011e+00  2.144378e+01  # HC triethylammonium
    205       9    6   0.060000  2.167886e+01  2.861111e+00  2.080707e+01  # HC triethylammonium
    206       9    6   0.060000  2.190387e+01  1.500031e+00  1.969600e+01  # HC triethylammonium
    207       9    6   0.060000  2.279876e+01  1.540512e+00  2.121011e+01  # HC triethylammonium
    208      10    1   0.030000  1.730555e+01  5.152923e+00  1.274591e+01  # N3 triethylammonium
    209      10    2  -0.170000  1.793922e+01  5.229766e+00  1.136313e+01  # C1 triethylammonium
    210      10    2  -0.170000  1.619490e+01  4.124971e+00  1.288798e+01  # C1 triethylammonium
    211      10    2  -0.170000  1.695368e+01  6.553908e+00  1.322222e+01  # C1 triethylammonium
    212      10    3   0.310000  1.805396e+01  4.826419e+00  1.337210e+01  # H3 triethylammonium
    213      10    4  -0.050000  1.843388e+01  3.879148e+00  1.088102e+01  # CE triethylammonium
    214      10    5   0.130000  1.878913e+01  5.916089e+00  1.145156e+01  # H1 triethylammonium
    215      10    5   0.130000  1.720699e+01  5.661637e+00  1.067454e+01  # H1 triethylammonium
    216      10    4  -0.050000  1.495129e+01  4.487124e+00  1.210217e+01  # CE triethylammonium
    217      10    5   0.130000  1.659877e+01  3.161398e+00  1.257036e+01  # H1 triethylammonium
    218      10    5   0.130000  1.597428e+01  4.030995e+00  1.395537e+01  # H1 triethylammonium
    219      10    4  -0.050000  1.645251e+01  6.567033e+00  1.465398e+01  # CE triethylammonium
    220      10    5   0.130000  1.787476e+01  7.144237e+00  1.315639e+01  # H1 triethylammonium
    221      10    5   0.130000  1.621505e+01  6.971867e+00  1.253030e+01  # H1 triethylammonium
    222      10    6   0.060000  1.906965e+01  4.010281e+00  9.999189e+00  # HC triethylammonium
    223      10    6   0.060000  1.902113e+01  3.364773e+00  1.164887e+01  # HC triethylammonium
    224      10    6   0.060000  1.760346e+01  3.232835e+00  1.058183e+01  # HC triethylammonium
    225      10    6   0.060000  1.517074e+01  4.723859e+00  1.105687e+01  # HC triethylammonium
    226      10    6   0.060000  1.425556e+01  3.641581e+00  1.210787e+01  # HC triethylammonium
    227      10    6   0.060000  1.442996e+01  5.339059e+00  1.254855e+01  # HC triethylammonium
    228      10    6   0.060000  1.714528e+01  6.053133e+00  1.532690e+01  # HC triethylammonium
    229      10    6   0.060000  1.634962e+01  7.601290e+00  1.499859e+01  # HC triethylammonium
    230      10    6   0.060000  1.546667e+01  6.101215e+00  1.474330e+01  # HC triethylammonium
    231      11    1   0.030000  9.203830e+00  1.260173e+01  2.569789e+01  # N3 triethylammonium
    232      11    2  -0.170000  9.123332e+00  1.410242e+01  2.594483e+01  # C1 triethylammonium
    233      11    2  -0.170000  1.038073e+01  1.215229e+01  2.484740e+01  # C1 triethylammonium
    234      11    2  -0.170000  7.845934e+00  1.208774e+01  2.524471e+01  # C1 triethylammonium
    235      11    3   0.310000  9.365773e+00  1.218056e+01  2.662267e+01  # H3 triethylammonium
    236      11    4  -0.050000  1.040966e+01  1.466002e+01  2.652425e+01  # CE triethylammonium
    237      11    5   0.130000  8.308109e+00  1.425327e+01  2.666167e+01  # H1 triethylammonium
    238      11    5   0.130000  8.859294e+00  1.459079e+01  2.500216e+01  # H1 triethylammonium
    239      11    4  -0.050000  1.027200e+01  1.260138e+01  2.340459e+01  # CE triethylammonium
    240      11    5   0.130000  1.128867e+01  1.253776e+01  2.531594e+01  # H1 triethylammonium
    241      11    5   0.130000  1.043502e+01  1.106197e+01  2.491872e+01  # H1 triethylammonium
    242      11    4  -0.050000  7.813719e+00  1.057612e+01  2.512117e+01  # CE triethylammonium
    243      11    5   0.130000  7.124690e+00  1.240339e+01  2.600720e+01  # H1 triethylammonium
    244      11    5   0.130000  7.596832e+00  1.257732e+01  2.429746e+01  # H1 triethylammonium
    245      11    6   0.060000  1.024117e+01  1.567871e+01  2.688881e+01  # HC triethylammonium
    246      11    6   0.060000  1.077226e+01  1.405568e+01  2.736229e+01  # HC triethylammonium
    247      11    6   0.060000  1.119679e+01  1.471883e+01  2.576674e+01  # HC triethylammonium
    248      11    6   0.060000  1.007572e+01  1.367377e+01  2.331358e+01  # HC triethylammonium
    249      11    6   0.060000  1.121357e+01  1.239504e+01  2.288507e+01  # HC triethylammonium
    250      11    6   0.060000  9.483649e+00  1.205842e+01  2.287492e+01  # HC triethylammonium
    251      11    6   0.060000  8.165826e+00  1.009062e+01  2.603612e+01  # HC triethylammonium
    252      11    6   0.060000  6.787215e+00  1.024376e+01  2.493448e+01  # HC triethylammonium
    253      11    6   0.060000  8.420804e+00  1.022438e+01  2.428178e+01  # HC triethylammonium
    254      12    1   0.030000  1.753201e+01  2.040695e+01  1.847963e+01  # N3 triethylammonium
    255      12    2  -0.170000  1.690490e+01  1.902113e+01  1.855551e+01  # C1 triethylammonium
    256      12    2  -0.170000  1.703919e+01  2.139381e+01  1.952540e+01  # C1 triethylammonium
    257      12    2  -0.170000  1.748364e+01  2.090874e+01  1.704460e+01  # C1 triethylammonium
    258      12    3   0.310000  1.852925e+01  2.026801e+01  1.869186e+01  # H3 triethylammonium
    259      12    4  -0.050000  1.703608e+01  1.840498e+01  1.993552e+01  # CE triethylammonium
    260      12    5   0.130000  1.744160e+01  1.840006e+01  1.782925e+01  # H1 triethylammonium
    261      12    5   0.130000  1.585860e+01  1.910145e+01  1.824625e+01  # H1 triethylammonium
    262      12    4  -0.050000  1.559457e+01  2.180069e+01  1.931870e+01  # CE triethylammonium
    263      12    5   0.130000  1.718576e+01  2.093294e+01  2.050447e+01  # H1 triethylammonium
    264      12    5   0.130000  1.770317e+01  2.226257e+01  1.949017e+01  # H1 triethylammonium
    265      12    4  -0.050000  1.822279e+01  2.222164e+01  1.686785e+01  # CE triethylammonium
    266      12    5   0.130000  1.796365e+01  2.013832e+01  1.643040e+01  # H1 triethylammonium
    267      12    5   0.130000  1.643239e+01  2.099247e+01  1.674982e+01  # H1 triethylammonium
    268      12    6   0.060000  1.677747e+01  1.734180e+01  1.989304e+01  # HC triethylammonium
    269      12    6   0.060000  1.805694e+01  1.849036e+01  2.032227e+01  # HC triethylammonium
    270      12    6   0.060000  1.634988e+01  1.887155e+01  2.064846e+01  # HC triethylammonium
    271      12    6   0.060000  1.492861e+01  2.093961e+01  1.920969e+01  # HC triethylammonium
    272      12    6   0.060000  1.524870e+01  2.237529e+01  2.018428e+01  # HC triethylammonium
    273      12    6   0.060000  1.548112e+01  2.244037e+01  1.843849e+01  # HC triethylammonium
    274      12    6   0.060000  1.924175e+01  2.216529e+01  1.726202e+01  # HC triethylammonium
    275      12    6   0.060000  1.828443e+01  2.246899e+01  1.580293e+01  # HC triethylammonium
    276      12    6   0.060000  1.770252e+01  2.304965e+01  1.735831e+01  # HC triethylammonium
    277      13    1   0.030000  3.219942e+01  4.736642e+00  3.432474e+00  # N3 triethylammonium
    278      13    2  -0.170000  3.303067e+01  6.001595e+00  3.601114e+00  # C1 triethylammonium
    279      13    2  -0.170000  3.073165e+01  4.969592e+00  3.113442e+00  # C1 triethylammonium
    280      13    2  -0.170000  3.246570e+01  3.794623e+00  4.596575e+00  # C1 triethylammonium
    281      13    3   0.310000  3.258248e+01  4.266292e+00  2.601283e+00  # H3 triethylammonium
    282      13    4  -0.050000  3.291258e+01  6.931028e+00  2.408010e+00  # CE triethylammonium
    283      13    5   0.130000  3.407172e+01  5.674595e+00  3.703627e+00  # H1 triethylammonium
    284      13    5   0.130000  3.272209e+01  6.492892e+00  4.528604e+00  # H1 triethylammonium
    285      13    4  -0.050000  2.996522e+01  5.577018e+00  4.270526e+00  # CE triethylammonium
    286      13    5   0.130000  3.068680e+01  5.608007e+00  2.228637e+00  # H1 triethylammonium
    287      13    5   0.130000  3.030615e+01  4.005187e+00  2.820681e+00  # H1 triethylammonium
    288      13    4  -0.050000  3.178249e+01  2.451828e+00  4.419346e+00  # CE triethylammonium
    289      13    5   0.130000  3.355095e+01  3.645834e+00  4.633034e+00  # H1 triethylammonium
    290      13    5   0.130000  3.214566e+01  4.293978e+00  5.517034e+00  # H1 triethylammonium
    291      13    6   0.060000  3.368162e+01  7.708355e+00  2.465956e+00  # HC triethylammonium
    292      13    6   0.060000  3.304292e+01  6.395047e+00  1.462093e+00  # HC triethylammonium
    293      13    6   0.060000  3.194476e+01  7.440860e+00  2.392725e+00  # HC triethylammonium
    294      13    6   0.060000  3.045258e+01  6.470113e+00  4.672638e+00  # HC triethylammonium
    295      13    6   0.060000  2.896626e+01  5.872340e+00  3.933045e+00  # HC triethylammonium
    296      13    6   0.060000  2.983316e+01  4.857937e+00  5.084356e+00  # HC triethylammonium
    297      13    6   0.060000  3.202132e+01  2.004332e+00  3.450046e+00  # HC triethylammonium
    298      13    6   0.060000  3.211609e+01  1.762808e+00  5.202282e+00  # HC triethylammonium
    299      13    6   0.060000  3.069531e+01  2.534544e+00  4.508895e+00  # HC triethylammonium
    300      14    1   0.030000  2.973997e+01  2.084305e+01  6.429899e+00  # N3 triethylammonium
    301      14    2  -0.170000  3.111432e+01  2.031776e+01  6.036501e+00  # C1 triethylammonium
    302      14    2  -0.170000  2.933036e+01  2.214153e+01  5.754218e+00  # C1 triethylammonium
    303      14    2  -0.170000  2.960687e+01  2.083346e+01  7.945033e+00  # C1 triethylammonium
    304      14    3   0.310000  2.907035e+01  2.014062e+01  6.087768e+00  # H3 triethylammonium
    305      14    4  -0.050000  3.126832e+01  2.017779e+01  4.533843e+00  # CE triethylammonium
    306      14    5   0.130000  3.121234e+01  1.933128e+01  6.503905e+00  # H1 triethylammonium
    307      14    5   0.130000  3.187019e+01  2.098567e+01  6.460043e+00  # H1 triethylammonium
    308      14    4  -0.050000  3.015250e+01  2.332940e+01  6.210605e+00  # CE triethylammonium
    309      14    5   0.130000  2.941579e+01  2.199012e+01  4.676147e+00  # H1 triethylammonium
    310      14    5   0.130000  2.826707e+01  2.229395e+01  5.961669e+00  # H1 triethylammonium
    311      14    4  -0.050000  2.820955e+01  2.120604e+01  8.403264e+00  # CE triethylammonium
    312      14    5   0.130000  2.983307e+01  1.981138e+01  8.269688e+00  # H1 triethylammonium
    313      14    5   0.130000  3.036248e+01  2.151096e+01  8.356189e+00  # H1 triethylammonium
    314      14    6   0.060000  3.216965e+01  1.959933e+01  4.305750e+00  # HC triethylammonium
    315      14    6   0.060000  3.041250e+01  1.966306e+01  4.084787e+00  # HC triethylammonium
    316      14    6   0.060000  3.138487e+01  2.115274e+01  4.051431e+00  # HC triethylammonium
    317      14    6   0.060000  3.122863e+01  2.314437e+01  6.143302e+00  # HC triethylammonium
    318      14    6   0.060000  2.992825e+01  2.419452e+01  5.577908e+00  # HC triethylammonium
    319      14    6   0.060000  2.991266e+01  2.360995e+01  7.240461e+00  # HC triethylammonium
    320      14    6   0.060000  2.744830e+01  2.059609e+01  7.908000e+00  # HC triethylammonium
    321      14    6   0.060000  2.812157e+01  2.104712e+01  9.483092e+00  # HC triethylammonium
    322      14    6   0.060000  2.798906e+01  2.226125e+01  8.216872e+00  # HC triethylammonium
    323      15    1   0.030000  2.866096e+01  9.960539e+00  3.385988e+01  # N3 triethylammonium
    324      15    2  -0.170000  2.835364e+01  8.585247e+00  3.328225e+01  # C1 triethylammonium
    325      15    2  -0.170000  2.750519e+01  1.094701e+01  3.382132e+01  # C1 triethylammonium
    326      15    2  -0.170000  2.996894e+01  1.047513e+01  3.327866e+01  # C1 triethylammonium
    327      15    3   0.310000  2.884451e+01  9.802488e+00  3.485997e+01  # H3 triethylammonium
    328      15    4  -0.050000  2.712819e+01  7.955340e+00  3.391688e+01  # CE triethylammonium
    329      15    5   0.130000  2.923024e+01  7.961056e+00  3.349005e+01  # H1 triethylammonium
    330      15    5   0.130000  2.824120e+01  8.686355e+00  3.219875e+01  # H1 triethylammonium
    331      15    4  -0.050000  2.714590e+01  1.138068e+01  3.241488e+01  # CE triethylammonium
    332      15    5   0.130000  2.665617e+01  1.047544e+01  3.432057e+01  # H1 triethylammonium
    333      15    5   0.130000  2.778955e+01  1.180434e+01  3.443853e+01  # H1 triethylammonium
    334      15    4  -0.050000  3.041227e+01  1.177641e+01  3.392009e+01  # CE triethylammonium
    335      15    5   0.130000  3.072051e+01  9.701658e+00  3.347383e+01  # H1 triethylammonium
    336      15    5   0.130000  2.984123e+01  1.057961e+01  3.219617e+01  # H1 triethylammonium
    337      15    6   0.060000  2.707024e+01  6.897220e+00  3.364111e+01  # HC triethylammonium
    338      15    6   0.060000  2.715910e+01  8.019694e+00  3.500955e+01  # HC triethylammonium
    339      15    6   0.060000  2.620716e+01  8.427771e+00  3.356282e+01  # HC triethylammonium
    340      15    6   0.060000  2.699416e+01  1.053226e+01  3.174108e+01  # HC triethylammonium
    341      15    6   0.060000  2.621317e+01  1.195392e+01  3.243564e+01  # HC triethylammonium
    342      15    6   0.060000  2.791591e+01  1.202961e+01  3.198732e+01  # HC triethylammonium
    343      15    6   0.060000  3.043576e+01  1.169902e+01  3.501109e+01  # HC triethylammonium
    344      15    6   0.060000  3.142019e+01  1.203158e+01  3.357653e+01  # HC triethylammonium
    345      15    6   0.060000  2.975973e+01  1.260919e+01  3.364172e+01  # HC triethylammonium
    346      16    1   0.030000  2.877048e+01  2.778806e+01  2.811849e+01  # N3 triethylammonium
    347      16    2  -0.170000  2.749046e+01  2.848821e+01  2.768158e+01  # C1 triethylammonium
    348      16    2  -0.170000  2.864041e+01  2.693066e+01  2.936682e+01  # C1 triethylammonium
    349      16    2  -0.170000  2.991561e+01  2.878891e+01  2.813883e+01  # C1 triethylammonium
    350      16    3   0.310000  2.899271e+01  2.712702e+01  2.736187e+01  # H3 triethylammonium
    351      16    4  -0.050000  2.633397e+01  2.752089e+01  2.751390e+01  # CE triethylammonium
    352      16    5   0.130000  2.771105e+01  2.895943e+01  2.671695e+01  # H1 triethylammonium
    353      16    5   0.130000  2.726134e+01  2.926977e+01  2.841199e+01  # H1 triethylammonium
    354      16    4  -0.050000  2.840347e+01  2.774645e+01  3.062124e+01  # CE triethylammonium
    355      16    5   0.130000  2.782706e+01  2.622283e+01  2.919391e+01  # H1 triethylammonium
    356      16    5   0.130000  2.955519e+01  2.633632e+01  2.944907e+01  # H1 triethylammonium
    357      16    4  -0.050000  3.125204e+01  2.812997e+01  2.842352e+01  # CE triethylammonium
    358      16    5   0.130000  2.994379e+01  2.924808e+01  2.714405e+01  # H1 triethylammonium
    359      16    5   0.130000  2.967841e+01  2.956072e+01  2.887847e+01  # H1 triethylammonium
    360      16    6   0.060000  2.550750e+01  2.801744e+01  2.699485e+01  # HC triethylammonium
    361      16    6   0.060000  2.662249e+01  2.664162e+01  2.692853e+01  # HC triethylammonium
    362      16    6   0.060000  2.594803e+01  2.718766e+01  2.848181e+01  # HC triethylammonium
    363      16    6   0.060000  2.757543e+01  2.845287e+01  3.051103e+01  # HC triethylammonium
    364      16    6   0.060000  2.815532e+01  2.707721e+01  3.145165e+01  # HC triethylammonium
    365      16    6   0.060000  2.929892e+01  2.830427e+01  3.091078e+01  # HC triethylammonium
    366      16    6   0.060000  3.143727e+01  2.728908e+01  2.774867e+01  # HC triethylammonium
    367      16    6   0.060000  3.205820e+01  2.885831e+01  2.828685e+01  # HC triethylammonium
    368      16    6   0.060000  3.131663e+01  2.777215e+01  2.945533e+01  # HC triethylammonium
    369      17    1   0.030000  7.770330e+00  1.699149e+01  1.326637e+01  # N3 triethylammonium
    370      17    2  -0.170000  7.878645e+00  1.814663e+01  1.425300e+01  # C1 triethylammonium
    371      17    2  -0.170000  8.563074e+00  1.574977e+01  1.364066e+01  # C1 triethylammonium
    372      17    2  -0.170000  8.004237e+00  1.750573e+01  1.185418e+01  # C1 triethylammonium
    373      17    3   0.310000  6.784411e+00  1.669831e+01  1.329550e+01  # H3 triethylammonium
    374      17    4  -0.050000  7.528071e+00  1.772903e+01  1.566862e+01  # CE triethylammonium
    375      17    5   0.130000  7.167897e+00  1.890892e+01  1.391392e+01  # H1 triethylammonium
    376      17    5   0.130000  8.891330e+00  1.855587e+01  1.419112e+01  # H1 triethylammonium
    377      17    4  -0.050000  1.006135e+01  1.595972e+01  1.356118e+01  # CE triethylammonium
    378      17    5   0.130000  8.255946e+00  1.545685e+01  1.464681e+01  # H1 triethylammonium
    379      17    5   0.130000  8.240923e+00  1.494550e+01  1.297267e+01  # H1 triethylammonium
    380      17    4  -0.050000  7.766628e+00  1.643647e+01  1.080465e+01  # CE triethylammonium
    381      17    5   0.130000  7.293843e+00  1.832622e+01  1.170135e+01  # H1 triethylammonium
    382      17    5   0.130000  9.022589e+00  1.790493e+01  1.180291e+01  # H1 triethylammonium
    383      17    6   0.060000  7.403468e+00  1.861702e+01  1.629709e+01  # HC triethylammonium
    384      17    6   0.060000  6.595749e+00  1.715578e+01  1.570308e+01  # HC triethylammonium
    385      17    6   0.060000  8.325794e+00  1.713014e+01  1.611785e+01  # HC triethylammonium
    386      17    6   0.060000  1.038952e+01  1.684680e+01  1.411094e+01  # HC triethylammonium
    387      17    6   0.060000  1.057553e+01  1.509594e+01  1.399536e+01  # HC triethylammonium
    388      17    6   0.060000  1.039821e+01  1.605012e+01  1.252426e+01  # HC triethylammonium
    389      17    6   0.060000  6.786992e+00  1.596489e+01  1.092614e+01  # HC triethylammonium
    390      17    6   0.060000  7.805459e+00  1.688516e+01  9.806558e+00  # HC triethylammonium
    391      17    6   0.060000  8.535997e+00  1.565932e+01  1.083545e+01  # HC triethylammonium
    392      18    1   0.030000  2.346147e+01  1.647735e+01  2.104356e+01  # N3 triethylammonium
    393      18    2  -0.170000  2.434201e+01  1.771287e+01  2.117644e+01  # C1 triethylammonium
    394      18    2  -0.170000  2.344981e+01  1.556255e+01  2.225741e+01  # C1 triethylammonium
    395      18    2  -0.170000  2.374916e+01  1.578842e+01  1.971840e+01  # C1 triethylammonium
    396      18    3   0.310000  2.249920e+01  1.683397e+01  2.096809e+01  # H3 triethylammonium
    397      18    4  -0.050000  2.401513e+01  1.852163e+01  2.241755e+01  # CE triethylammonium
    398      18    5   0.130000  2.415239e+01  1.832337e+01  2.028619e+01  # H1 triethylammonium
    399      18    5   0.130000  2.538747e+01  1.739074e+01  2.116737e+01  # H1 triethylammonium
    400      18    4  -0.050000  2.477333e+01  1.485958e+01  2.247956e+01  # CE triethylammonium
    401      18    5   0.130000  2.317270e+01  1.616978e+01  2.312167e+01  # H1 triethylammonium
    402      18    5   0.130000  2.263925e+01  1.484215e+01  2.211308e+01  # H1 triethylammonium
    403      18    4  -0.050000  2.280394e+01  1.463200e+01  1.945282e+01  # CE triethylammonium
    404      18    5   0.130000  2.361856e+01  1.654808e+01  1.893925e+01  # H1 triethylammonium
    405      18    5   0.130000  2.479496e+01  1.546396e+01  1.972482e+01  # H1 triethylammonium
    406      18    6   0.060000  2.450556e+01  1.949914e+01  2.236297e+01  # HC triethylammonium
    407      18    6   0.060000  2.293781e+01  1.868814e+01  2.252085e+01  # HC triethylammonium
    408      18    6   0.060000  2.438337e+01  1.803054e+01  2.332313e+01  # HC triethylammonium
    409      18    6   0.060000  2.561959e+01  1.555287e+01  2.248656e+01  # HC triethylammonium
    410      18    6   0.060000  2.475892e+01  1.434984e+01  2.344857e+01  # HC triethylammonium
    411      18    6   0.060000  2.495517e+01  1.409821e+01  2.171530e+01  # HC triethylammonium
    412      18    6   0.060000  2.175804e+01  1.493689e+01  1.955264e+01  # HC triethylammonium
    413      18    6   0.060000  2.295316e+01  1.426117e+01  1.843339e+01  # HC triethylammonium
    414      18    6   0.060000  2.299021e+01  1.379203e+01  2.012854e+01  # HC triethylammonium
    415      19    1   0.030000  2.237197e+01  5.706239e+00  1.393576e+01  # N3 triethylammonium
    416      19    2  -0.170000  2.334875e+01  5.624560e+00  1.277010e+01  # C1 triethylammonium
    417      19    2  -0.170000  2.195221e+01  4.366372e+00  1.451796e+01  # C1 triethylammonium
    418      19    2  -0.170000  2.122741e+01  6.640776e+00  1.357513e+01  # C1 triethylammonium
    419      19    3   0.310000  2.288715e+01  6.176923e+00  1.469199e+01  # H3 triethylammonium
    420      19    4  -0.050000  2.458291e+01  4.810373e+00  1.310955e+01  # CE triethylammonium
    421      19    5   0.130000  2.364573e+01  6.655127e+00  1.254438e+01  # H1 triethylammonium
    422      19    5   0.130000  2.281769e+01  5.213125e+00  1.190665e+01  # H1 triethylammonium
    423      19    4  -0.050000  2.108985e+01  3.555853e+00  1.357212e+01  # CE triethylammonium
    424      19    5   0.130000  2.286292e+01  3.826773e+00  1.478611e+01  # H1 triethylammonium
    425      19    5   0.130000  2.142636e+01  4.570284e+00  1.545537e+01  # H1 triethylammonium
    426      19    4  -0.050000  2.029217e+01  6.884662e+00  1.474437e+01  # CE triethylammonium
    427      19    5   0.130000  2.168523e+01  7.590119e+00  1.327453e+01  # H1 triethylammonium
    428      19    5   0.130000  2.069942e+01  6.214517e+00  1.271573e+01  # H1 triethylammonium
    429      19    6   0.060000  2.534747e+01  4.957387e+00  1.233957e+01  # HC triethylammonium
    430      19    6   0.060000  2.501103e+01  5.105690e+00  1.407315e+01  # HC triethylammonium
    431      19    6   0.060000  2.436027e+01  3.739622e+00  1.313714e+01  # HC triethylammonium
    432      19    6   0.060000  2.153621e+01  3.458443e+00  1.257808e+01  # HC triethylammonium
    433      19    6   0.060000  2.095732e+01  2.545367e+00  1.397259e+01  # HC triethylammonium
    434      19    6   0.060000  2.009370e+01  3.994818e+00  1.346339e+01  # HC triethylammonium
    435      19    6   0.060000  2.083846e+01  7.209126e+00  1.563494e+01  # HC triethylammonium
    436      19    6   0.060000  1.957314e+01  7.668226e+00  1.448350e+01  # HC triethylammonium
    437      19    6   0.060000  1.971334e+01  5.990680e+00  1.499456e+01  # HC triethylammonium
    438      20    1   0.030000  6.609772e+00  1.341971e+01  9.290776e+00  # N3 triethylammonium
    439      20    2  -0.170000  6.901070e+00  1.279426e+01  1.064853e+01  # C1 triethylammonium
    440      20    2  -0.170000  5.475862e+00  1.277077e+01  8.513907e+00  # C1 triethylammonium
    441      20    2  -0.170000  7.909523e+00  1.358592e+01  8.518467e+00  # C1 triethylammonium
    442      20    3   0.310000  6.283166e+00  1.437419e+01  9.493605e+00  # H3 triethylammonium
    443      20    4  -0.050000  5.664760e+00  1.271869e+01  1.152438e+01  # CE triethylammonium
    444      20    5   0.130000  7.647049e+00  1.343689e+01  1.112995e+01  # H1 triethylammonium
    445      20    5   0.130000  7.340506e+00  1.180616e+01  1.048307e+01  # H1 triethylammonium
    446      20    4  -0.050000  5.811042e+00  1.137204e+01  8.038066e+00  # CE triethylammonium
    447      20    5   0.130000  4.595455e+00  1.277015e+01  9.159932e+00  # H1 triethylammonium
    448      20    5   0.130000  5.241066e+00  1.342876e+01  7.672025e+00  # H1 triethylammonium
    449      20    4  -0.050000  7.713658e+00  1.433764e+01  7.215455e+00  # CE triethylammonium
    450      20    5   0.130000  8.584592e+00  1.415627e+01  9.166692e+00  # H1 triethylammonium
    451      20    5   0.130000  8.334996e+00  1.259073e+01  8.352362e+00  # H1 triethylammonium
    452      20    6   0.060000  5.952788e+00  1.247399e+01  1.255209e+01  # HC triethylammonium
    453      20    6   0.060000  5.121508e+00  1.366927e+01  1.154177e+01  # HC triethylammonium
    454      20    6   0.060000  4.984183e+00  1.193094e+01  1.118808e+01  # HC triethylammonium
    455      20    6   0.060000  6.184443e+00  1.073380e+01  8.844326e+00  # HC triethylammonium
    456      20    6   0.060000  4.910783e+00  1.089727e+01  7.634142e+00  # HC triethylammonium
    457      20    6   0.060000  6.555654e+00  1.138975e+01  7.236770e+00  # HC triethylammonium
    458      20    6   0.060000  7.191279e+00  1.528583e+01  7.373228e+00  # HC triethylammonium
    459      20    6   0.060000  8.688209e+00  1.455794e+01  6.767408e+00  # HC triethylammonium
    460      20    6   0.060000  7.153216e+00  1.374589e+01  6.485683e+00  # HC triethylammonium
    461      21    1   0.030000  2.556129e+01  3.147811e+01  1.771307e+01  # N3 triethylammonium
    462      21    2  -0.170000  2.661715e+01  3.078676e+01  1.856555e+01  # C1 triethylammonium
    463      21    2  -0.170000  2.590900e+01  3.160802e+01  1.623908e+01  # C1 triethylammonium
    464      21    2  -0.170000  2.512662e+01  3.276879e+01  1.839029e+01  # C1 triethylammonium
    465      21    3   0.310000  2.473942e+01  3.085955e+01  1.774054e+01  # H3 triethylammonium
    466      21    4  -0.050000  2.700230e+01  2.942713e+01  1.801384e+01  # CE triethylammonium
    467      21    5   0.130000  2.617584e+01  3.066175e+01  1.956095e+01  # H1 triethylammonium
    468      21    5   0.130000  2.748263e+01  3.145129e+01  1.864410e+01  # H1 triethylammonium
    469      21    4  -0.050000  2.705251e+01  3.256871e+01  1.598475e+01  # CE triethylammonium
    470      21    5   0.130000  2.614115e+01  3.060737e+01  1.586859e+01  # H1 triethylammonium
    471      21    5   0.130000  2.500142e+01  3.192757e+01  1.571850e+01  # H1 triethylammonium
    472      21    4  -0.050000  2.397061e+01  3.343667e+01  1.766998e+01  # CE triethylammonium
    473      21    5   0.130000  2.481161e+01  3.249617e+01  1.940403e+01  # H1 triethylammonium
    474      21    5   0.130000  2.599864e+01  3.342784e+01  1.845570e+01  # H1 triethylammonium
    475      21    6   0.060000  2.758651e+01  2.887667e+01  1.875864e+01  # HC triethylammonium
    476      21    6   0.060000  2.612140e+01  2.882707e+01  1.776291e+01  # HC triethylammonium
    477      21    6   0.060000  2.762958e+01  2.952055e+01  1.712243e+01  # HC triethylammonium
    478      21    6   0.060000  2.792809e+01  3.235044e+01  1.660326e+01  # HC triethylammonium
    479      21    6   0.060000  2.736460e+01  3.249723e+01  1.493761e+01  # HC triethylammonium
    480      21    6   0.060000  2.675149e+01  3.360520e+01  1.616339e+01  # HC triethylammonium
    481      21    6   0.060000  2.314056e+01  3.274184e+01  1.751168e+01  # HC triethylammonium
    482      21    6   0.060000  2.360051e+01  3.427651e+01  1.826724e+01  # HC triethylammonium
    483      21    6   0.060000  2.427643e+01  3.384381e+01  1.670171e+01  # HC triethylammonium
    484      22    1   0.030000  3.236457e+00  2.173718e+01  1.782692e+01  # N3 triethylammonium
    485      22    2  -0.170000  2.518521e+00  2.062353e+01  1.857785e+01  # C1 triethylammonium
    486      22    2  -0.170000  3.566141e+00  2.296537e+01  1.865954e+01  # C1 triethylammonium
    487      22    2  -0.170000  2.510999e+00  2.201859e+01  1.652003e+01  # C1 triethylammonium
    488      22    3   0.310000  4.148396e+00  2.134287e+01  1.755909e+01  # H3 triethylammonium
    489      22    4  -0.050000  3.262610e+00  2.020177e+01  1.983074e+01  # CE triethylammonium
    490      22    5   0.130000  2.461041e+00  1.977406e+01  1.788770e+01  # H1 triethylammonium
    491      22    5   0.130000  1.503634e+00  2.096291e+01  1.880515e+01  # H1 triethylammonium
    492      22    4  -0.050000  2.335270e+00  2.374532e+01  1.907409e+01  # CE triethylammonium
    493      22    5   0.130000  4.133989e+00  2.262796e+01  1.952912e+01  # H1 triethylammonium
    494      22    5   0.130000  4.246062e+00  2.358552e+01  1.806797e+01  # H1 triethylammonium
    495      22    4  -0.050000  3.254184e+00  2.301580e+01  1.565139e+01  # CE triethylammonium
    496      22    5   0.130000  2.441104e+00  2.106086e+01  1.599175e+01  # H1 triethylammonium
    497      22    5   0.130000  1.500430e+00  2.236472e+01  1.676080e+01  # H1 triethylammonium
    498      22    6   0.060000  2.840930e+00  1.926738e+01  2.021561e+01  # HC triethylammonium
    499      22    6   0.060000  4.327223e+00  2.003760e+01  1.963409e+01  # HC triethylammonium
    500      22    6   0.060000  3.162729e+00  2.094738e+01  2.062505e+01  # HC triethylammonium
    501      22    6   0.060000  1.577335e+00  2.311221e+01  1.954476e+01  # HC triethylammonium
    502      22    6   0.060000  2.616970e+00  2.451480e+01  1.980043e+01  # HC triethylammonium
    503      22    6   0.060000  1.879210e+00  2.425616e+01  1.822092e+01  # HC triethylammonium
    504      22    6   0.060000  4.296481e+00  2.271936e+01  1.550115e+01  # HC triethylammonium
    505      22    6   0.060000  2.774378e+00  2.307780e+01  1.466906e+01  # HC triethylammonium
    506      22    6   0.060000  3.234288e+00  2.402195e+01  1.608047e+01  # HC triethylammonium
    507      23    1   0.030000  2.526812e+01  1.205961e+01  1.859216e+01  # N3 triethylammonium
    508      23    2  -0.170000  2.655516e+01  1.250904e+01  1.791312e+01  # C1 triethylammonium
    509      23    2  -0.170000  2.542101e+01  1.163670e+01  2.004411e+01  # C1 triethylammonium
    510      23    2  -0.170000  2.454549e+01  1.106087e+01  1.770124e+01  # C1 triethylammonium
    511      23    3   0.310000  2.466680e+01  1.289422e+01  1.861852e+01  # H3 triethylammonium
    512      23    4  -0.050000  2.726254e+01  1.360444e+01  1.868835e+01  # CE triethylammonium
    513      23    5   0.130000  2.626600e+01  1.289182e+01  1.692769e+01  # H1 triethylammonium
    514      23    5   0.130000  2.719483e+01  1.163200e+01  1.777728e+01  # H1 triethylammonium
    515      23    4  -0.050000  2.620807e+01  1.035224e+01  2.020510e+01  # CE triethylammonium
    516      23    5   0.130000  2.589615e+01  1.246301e+01  2.057694e+01  # H1 triethylammonium
    517      23    5   0.130000  2.441442e+01  1.153808e+01  2.046111e+01  # H1 triethylammonium
    518      23    4  -0.050000  2.318246e+01  1.068123e+01  1.824834e+01  # CE triethylammonium
    519      23    5   0.130000  2.442106e+01  1.154762e+01  1.672717e+01  # H1 triethylammonium
    520      23    5   0.130000  2.519171e+01  1.018531e+01  1.757955e+01  # H1 triethylammonium
    521      23    6   0.060000  2.804930e+01  1.404803e+01  1.806927e+01  # HC triethylammonium
    522      23    6   0.060000  2.657307e+01  1.440230e+01  1.898344e+01  # HC triethylammonium
    523      23    6   0.060000  2.774790e+01  1.320950e+01  1.958573e+01  # HC triethylammonium
    524      23    6   0.060000  2.716423e+01  1.037781e+01  1.967412e+01  # HC triethylammonium
    525      23    6   0.060000  2.642602e+01  1.018696e+01  2.126538e+01  # HC triethylammonium
    526      23    6   0.060000  2.563864e+01  9.487247e+00  1.985242e+01  # HC triethylammonium
    527      23    6   0.060000  2.257768e+01  1.156566e+01  1.846939e+01  # HC triethylammonium
    528      23    6   0.060000  2.264408e+01  1.007836e+01  1.750962e+01  # HC triethylammonium
    529      23    6   0.060000  2.326356e+01  1.007621e+01  1.915620e+01  # HC triethylammonium
    530      24    1   0.030000  1.054437e+01  2.895017e+01  1.833703e+01  # N3 triethylammonium
    531      24    2  -0.170000  9.240428e+00  2.862151e+01  1.905206e+01  # C1 triethylammonium
    532      24    2  -0.170000  1.150383e+01  2.778173e+01  1.818017e+01  # C1 triethylammonium
    533      24    2  -0.170000  1.115137e+01  3.020787e+01  1.893966e+01  # C1 triethylammonium
    534      24    3   0.310000  1.027362e+01  2.920468e+01  1.737747e+01  # H3 triethylammonium
    535      24    4  -0.050000  8.514401e+00  2.745133e+01  1.841577e+01  # CE triethylammonium
    536      24    5   0.130000  8.614815e+00  2.951848e+01  1.897941e+01  # H1 triethylammonium
    537      24    5   0.130000  9.465962e+00  2.843290e+01  2.010581e+01  # H1 triethylammonium
    538      24    4  -0.050000  1.209232e+01  2.732016e+01  1.949769e+01  # CE triethylammonium
    539      24    5   0.130000  1.095891e+01  2.697560e+01  1.768451e+01  # H1 triethylammonium
    540      24    5   0.130000  1.228838e+01  2.809700e+01  1.748597e+01  # H1 triethylammonium
    541      24    4  -0.050000  1.237719e+01  3.067760e+01  1.817940e+01  # CE triethylammonium
    542      24    5   0.130000  1.037638e+01  3.098120e+01  1.888886e+01  # H1 triethylammonium
    543      24    5   0.130000  1.137980e+01  3.000405e+01  1.999100e+01  # H1 triethylammonium
    544      24    6   0.060000  7.495107e+00  2.738821e+01  1.881085e+01  # HC triethylammonium
    545      24    6   0.060000  8.450336e+00  2.755710e+01  1.732778e+01  # HC triethylammonium
    546      24    6   0.060000  9.005619e+00  2.650189e+01  1.864837e+01  # HC triethylammonium
    547      24    6   0.060000  1.132609e+01  2.713315e+01  2.025581e+01  # HC triethylammonium
    548      24    6   0.060000  1.263926e+01  2.638371e+01  1.934620e+01  # HC triethylammonium
    549      24    6   0.060000  1.280322e+01  2.805014e+01  1.989592e+01  # HC triethylammonium
    550      24    6   0.060000  1.217244e+01  3.077769e+01  1.710940e+01  # HC triethylammonium
    551      24    6   0.060000  1.269231e+01  3.165585e+01  1.855724e+01  # HC triethylammonium
    552      24    6   0.060000  1.322295e+01  2.999651e+01  1.831224e+01  # HC triethylammonium
    553      25    1   0.030000  2.161735e+01  1.969037e+01  9.032866e+00  # N3 triethylammonium
    554      25    2  -0.170000  2.125945e+01  2.115280e+01  8.803213e+00  # C1 triethylammonium
    555      25    2  -0.170000  2.043622e+01  1.873373e+01  9.045716e+00  # C1 triethylammonium
    556      25    2  -0.170000  2.255281e+01  1.957759e+01  1.022687e+01  # C1 triethylammonium
    557      25    3   0.310000  2.217671e+01  1.941382e+01  8.214646e+00  # H3 triethylammonium
    558      25    4  -0.050000  2.043187e+01  2.135231e+01  7.547582e+00  # CE triethylammonium
    559      25    5   0.130000  2.220930e+01  2.168974e+01  8.699861e+00  # H1 triethylammonium
    560      25    5   0.130000  2.074031e+01  2.152193e+01  9.692638e+00  # H1 triethylammonium
    561      25    4  -0.050000  1.953462e+01  1.892509e+01  1.024811e+01  # CE triethylammonium
    562      25    5   0.130000  1.988874e+01  1.887779e+01  8.111914e+00  # H1 triethylammonium
    563      25    5   0.130000  2.084099e+01  1.771789e+01  9.013189e+00  # H1 triethylammonium
    564      25    4  -0.050000  2.306756e+01  1.816432e+01  1.042434e+01  # CE triethylammonium
    565      25    5   0.130000  2.339804e+01  2.024474e+01  1.002263e+01  # H1 triethylammonium
    566      25    5   0.130000  2.201963e+01  1.994211e+01  1.111109e+01  # H1 triethylammonium
    567      25    6   0.060000  2.038409e+01  2.241797e+01  7.300403e+00  # HC triethylammonium
    568      25    6   0.060000  2.086229e+01  2.082440e+01  6.690209e+00  # HC triethylammonium
    569      25    6   0.060000  1.940198e+01  2.101162e+01  7.689309e+00  # HC triethylammonium
    570      25    6   0.060000  1.923002e+01  1.996735e+01  1.038131e+01  # HC triethylammonium
    571      25    6   0.060000  1.862372e+01  1.833089e+01  1.012083e+01  # HC triethylammonium
    572      25    6   0.060000  2.001785e+01  1.858472e+01  1.116869e+01  # HC triethylammonium
    573      25    6   0.060000  2.350507e+01  1.776394e+01  9.505039e+00  # HC triethylammonium
    574      25    6   0.060000  2.384194e+01  1.815934e+01  1.119850e+01  # HC triethylammonium
    575      25    6   0.060000  2.227641e+01  1.748729e+01  1.075981e+01  # HC triethylammonium
    576      26    1   0.030000  2.354958e+01  1.960950e+01  1.486975e+01  # N3 triethylammonium
    577      26    2  -0.170000  2.415741e+01  2.000369e+01  1.353009e+01  # C1 triethylammonium
    578      26    2  -0.170000  2.353105e+01  1.811623e+01  1.515291e+01  # C1 triethylammonium
    579      26    2  -0.170000  2.221576e+01  2.031776e+01  1.505068e+01  # C1 triethylammonium
    580      26    3   0.310000  2.417521e+01  2.000916e+01  1.558227e+01  # H3 triethylammonium
    581      26    4  -0.050000  2.555077e+01  1.943451e+01  1.334068e+01  # CE triethylammonium
    582      26    5   0.130000  2.420989e+01  2.109842e+01  1.352591e+01  # H1 triethylammonium
    583      26    5   0.130000  2.347702e+01  1.967993e+01  1.273694e+01  # H1 triethylammonium
    584      26    4  -0.050000  2.257779e+01  1.735656e+01  1.425322e+01  # CE triethylammonium
    585      26    5   0.130000  2.455444e+01  1.775055e+01  1.504604e+01  # H1 triethylammonium
    586      26    5   0.130000  2.326576e+01  1.798899e+01  1.620660e+01  # H1 triethylammonium
    587      26    4  -0.050000  2.162230e+01  2.008626e+01  1.642745e+01  # CE triethylammonium
    588      26    5   0.130000  2.241222e+01  2.138771e+01  1.491715e+01  # H1 triethylammonium
    589      26    5   0.130000  2.154178e+01  1.997973e+01  1.425662e+01  # H1 triethylammonium
    590      26    6   0.060000  2.603305e+01  1.991268e+01  1.248173e+01  # HC triethylammonium
    591      26    6   0.060000  2.618063e+01  1.960314e+01  1.422037e+01  # HC triethylammonium
    592      26    6   0.060000  2.551908e+01  1.836116e+01  1.313153e+01  # HC triethylammonium
    593      26    6   0.060000  2.273487e+01  1.757933e+01  1.319373e+01  # HC triethylammonium
    594      26    6   0.060000  2.272699e+01  1.628014e+01  1.438767e+01  # HC triethylammonium
    595      26    6   0.060000  2.153467e+01  1.757293e+01  1.450208e+01  # HC triethylammonium
    596      26    6   0.060000  2.233867e+01  2.032495e+01  1.721908e+01  # HC triethylammonium
    597      26    6   0.060000  2.074329e+01  2.072528e+01  1.656169e+01  # HC triethylammonium
    598      26    6   0.060000  2.128830e+01  1.905257e+01  1.655697e+01  # HC triethylammonium
    599      27    1   0.030000  3.325617e+01  1.610907e+01  1.564988e+01  # N3 triethylammonium
    600      27    2  -0.170000  3.390382e+01  1.473959e+01  1.580674e+01  # C1 triethylammonium
    601      27    2  -0.170000  3.174058e+01  1.609420e+01  1.553511e+01  # C1 triethylammonium
    602      27    2  -0.170000  3.397846e+01  1.689139e+01  1.456374e+01  # C1 triethylammonium
    603      27    3   0.310000  3.345304e+01  1.660711e+01  1.652854e+01  # H3 triethylammonium
    604      27    4  -0.050000  3.331556e+01  1.395399e+01  1.696348e+01  # CE triethylammonium
    605      27    5   0.130000  3.496767e+01  1.492201e+01  1.599689e+01  # H1 triethylammonium
    606      27    5   0.130000  3.380171e+01  1.420209e+01  1.485937e+01  # H1 triethylammonium
    607      27    4  -0.050000  3.125263e+01  1.547682e+01  1.424051e+01  # CE triethylammonium
    608      27    5   0.130000  3.135234e+01  1.555645e+01  1.640261e+01  # H1 triethylammonium
    609      27    5   0.130000  3.139751e+01  1.712835e+01  1.563350e+01  # H1 triethylammonium
    610      27    4  -0.050000  3.348017e+01  1.832003e+01  1.445422e+01  # CE triethylammonium
    611      27    5   0.130000  3.503900e+01  1.689883e+01  1.484018e+01  # H1 triethylammonium
    612      27    5   0.130000  3.386231e+01  1.634806e+01  1.362017e+01  # H1 triethylammonium
    613      27    6   0.060000  3.394523e+01  1.308458e+01  1.717954e+01  # HC triethylammonium
    614      27    6   0.060000  3.325020e+01  1.455973e+01  1.787333e+01  # HC triethylammonium
    615      27    6   0.060000  3.231870e+01  1.357333e+01  1.672222e+01  # HC triethylammonium
    616      27    6   0.060000  3.169590e+01  1.449459e+01  1.405194e+01  # HC triethylammonium
    617      27    6   0.060000  3.016669e+01  1.534349e+01  1.428507e+01  # HC triethylammonium
    618      27    6   0.060000  3.146510e+01  1.612333e+01  1.338394e+01  # HC triethylammonium
    619      27    6   0.060000  3.349783e+01  1.882713e+01  1.542343e+01  # HC triethylammonium
    620      27    6   0.060000  3.412056e+01  1.888159e+01  1.376606e+01  # HC triethylammonium
    621      27    6   0.060000  3.246334e+01  1.836569e+01  1.405321e+01  # HC triethylammonium
    622      28    1   0.030000  1.643101e+01  1.753272e+01  2.955912e+01  # N3 triethylammonium
    623      28    2  -0.170000  1.675549e+01  1.777060e+01  3.102801e+01  # C1 triethylammonium
    624      28    2  -0.170000  1.665483e+01  1.872954e+01  2.864922e+01  # C1 triethylammonium
    625      28    2  -0.170000  1.506327e+01  1.687801e+01  2.944040e+01  # C1 triethylammonium
    626      28    3   0.310000  1.710647e+01  1.682469e+01  2.924087e+01  # H3 triethylammonium
    627      28    4  -0.050000  1.816183e+01  1.830317e+01  3.122768e+01  # CE triethylammonium
    628      28    5   0.130000  1.666258e+01  1.679834e+01  3.152529e+01  # H1 triethylammonium
    629      28    5   0.130000  1.600341e+01  1.845053e+01  3.143898e+01  # H1 triethylammonium
    630      28    4  -0.050000  1.567571e+01  1.985695e+01  2.890514e+01  # CE triethylammonium
    631      28    5   0.130000  1.768614e+01  1.905943e+01  2.879078e+01  # H1 triethylammonium
    632      28    5   0.130000  1.658373e+01  1.837105e+01  2.761807e+01  # H1 triethylammonium
    633      28    4  -0.050000  1.473756e+01  1.647808e+01  2.801377e+01  # CE triethylammonium
    634      28    5   0.130000  1.509334e+01  1.598087e+01  3.006924e+01  # H1 triethylammonium
    635      28    5   0.130000  1.431918e+01  1.757075e+01  2.984717e+01  # H1 triethylammonium
    636      28    6   0.060000  1.843083e+01  1.825160e+01  3.228787e+01  # HC triethylammonium
    637      28    6   0.060000  1.889895e+01  1.772348e+01  3.066232e+01  # HC triethylammonium
    638      28    6   0.060000  1.823753e+01  1.935331e+01  3.093049e+01  # HC triethylammonium
    639      28    6   0.060000  1.562753e+01  2.013791e+01  2.996134e+01  # HC triethylammonium
    640      28    6   0.060000  1.598467e+01  2.074465e+01  2.834338e+01  # HC triethylammonium
    641      28    6   0.060000  1.466782e+01  1.959540e+01  2.856960e+01  # HC triethylammonium
    642      28    6   0.060000  1.553574e+01  1.587283e+01  2.757398e+01  # HC triethylammonium
    643      28    6   0.060000  1.381606e+01  1.588679e+01  2.799841e+01  # HC triethylammonium
    644      28    6   0.060000  1.456760e+01  1.735073e+01  2.737627e+01  # HC triethylammonium
    645      29    1   0.030000  3.174991e+01  3.017643e+01  2.411980e+01  # N3 triethylammonium
    646      29    2  -0.170000  3.133724e+01  2.958075e+01  2.278025e+01  # C1 triethylammonium
    647      29    2  -0.170000  3.102520e+01  3.145577e+01  2.450516e+01  # C1 triethylammonium
    648      29    2  -0.170000  3.326727e+01  3.024454e+01  2.419984e+01  # C1 triethylammonium
    649      29    3   0.310000  3.146525e+01  2.948454e+01  2.482627e+01  # H3 triethylammonium
    650      29    4  -0.050000  2.983899e+01  2.936317e+01  2.268437e+01  # CE triethylammonium
    651      29    5   0.130000  3.184908e+01  2.861477e+01  2.270200e+01  # H1 triethylammonium
    652      29    5   0.130000  3.170200e+01  3.023880e+01  2.198605e+01  # H1 triethylammonium
    653      29    4  -0.050000  3.139495e+01  3.263184e+01  2.362460e+01  # CE triethylammonium
    654      29    5   0.130000  2.995363e+01  3.124973e+01  2.446325e+01  # H1 triethylammonium
    655      29    5   0.130000  3.126022e+01  3.165848e+01  2.555421e+01  # H1 triethylammonium
    656      29    4  -0.050000  3.375293e+01  3.069179e+01  2.556564e+01  # CE triethylammonium
    657      29    5   0.130000  3.363409e+01  2.923128e+01  2.399989e+01  # H1 triethylammonium
    658      29    5   0.130000  3.361919e+01  3.091158e+01  2.340597e+01  # H1 triethylammonium
    659      29    6   0.060000  2.960972e+01  2.874042e+01  2.181337e+01  # HC triethylammonium
    660      29    6   0.060000  2.944457e+01  2.886061e+01  2.357369e+01  # HC triethylammonium
    661      29    6   0.060000  2.930559e+01  3.030872e+01  2.254928e+01  # HC triethylammonium
    662      29    6   0.060000  3.130101e+01  3.240280e+01  2.255898e+01  # HC triethylammonium
    663      29    6   0.060000  3.072829e+01  3.347359e+01  2.383917e+01  # HC triethylammonium
    664      29    6   0.060000  3.241718e+01  3.297037e+01  2.381768e+01  # HC triethylammonium
    665      29    6   0.060000  3.331391e+01  3.008835e+01  2.636561e+01  # HC triethylammonium
    666      29    6   0.060000  3.484160e+01  3.058826e+01  2.562136e+01  # HC triethylammonium
    667      29    6   0.060000  3.352231e+01  3.174452e+01  2.575381e+01  # HC triethylammonium
    668      30    1   0.030000  1.160239e+01  1.623064e+01  1.811785e+01  # N3 triethylammonium
    669      30    2  -0.170000  1.025145e+01  1.553040e+01  1.818220e+01  # C1 triethylammonium
    670      30    2  -0.170000  1.273802e+01  1.538704e+01  1.756189e+01  # C1 triethylammonium
    671      30    2  -0.170000  1.189030e+01  1.690301e+01  1.945144e+01  # C1 triethylammonium
    672      30    3   0.310000  1.148175e+01  1.699630e+01  1.744105e+01  # H3 triethylammonium
    673      30    4  -0.050000  9.841224e+00  1.494731e+01  1.684317e+01  # CE triethylammonium
    674      30    5   0.130000  9.523616e+00  1.629245e+01  1.848346e+01  # H1 triethylammonium
    675      30    5   0.130000  1.030064e+01  1.476239e+01  1.895975e+01  # H1 triethylammonium
    676      30    4  -0.050000  1.313084e+01  1.424741e+01  1.847958e+01  # CE triethylammonium
    677      30    5   0.130000  1.242273e+01  1.501845e+01  1.658352e+01  # H1 triethylammonium
    678      30    5   0.130000  1.358287e+01  1.605833e+01  1.738177e+01  # H1 triethylammonium
    679      30    4  -0.050000  1.315281e+01  1.774316e+01  1.941269e+01  # CE triethylammonium
    680      30    5   0.130000  1.103186e+01  1.755040e+01  1.966399e+01  # H1 triethylammonium
    681      30    5   0.130000  1.194504e+01  1.612413e+01  2.021915e+01  # H1 triethylammonium
    682      30    6   0.060000  8.786981e+00  1.465298e+01  1.687422e+01  # HC triethylammonium
    683      30    6   0.060000  9.967596e+00  1.567012e+01  1.603039e+01  # HC triethylammonium
    684      30    6   0.060000  1.041639e+01  1.404745e+01  1.660596e+01  # HC triethylammonium
    685      30    6   0.060000  1.227258e+01  1.364275e+01  1.878718e+01  # HC triethylammonium
    686      30    6   0.060000  1.383031e+01  1.358389e+01  1.796044e+01  # HC triethylammonium
    687      30    6   0.060000  1.363694e+01  1.461332e+01  1.937780e+01  # HC triethylammonium
    688      30    6   0.060000  1.314008e+01  1.844922e+01  1.857714e+01  # HC triethylammonium
    689      30    6   0.060000  1.324140e+01  1.831763e+01  2.034068e+01  # HC triethylammonium
    690      30    6   0.060000  1.405075e+01  1.712319e+01  1.933407e+01  # HC triethylammonium
    691      31    1   0.030000  6.234086e+00  2.307798e+01  7.408124e+00  # N3 triethylammonium
    692      31    2  -0.170000  4.750865e+00  2.277191e+01  7.247176e+00  # C1 triethylammonium
    693      31    2  -0.170000  7.029313e+00  2.202610e+01  8.164137e+00  # C1 triethylammonium
    694      31    2  -0.170000  6.407287e+00  2.450317e+01  7.910395e+00  # C1 triethylammonium
    695      31    3   0.310000  6.620036e+00  2.307078e+01  6.454273e+00  # H3 triethylammonium
    696      31    4  -0.050000  4.508642e+00  2.140950e+01  6.625511e+00  # CE triethylammonium
    697      31    5   0.130000  4.346082e+00  2.354796e+01  6.587542e+00  # H1 triethylammonium
    698      31    5   0.130000  4.274884e+00  2.285916e+01  8.228332e+00  # H1 triethylammonium
    699      31    4  -0.050000  6.664926e+00  2.195319e+01  9.632854e+00  # CE triethylammonium
    700      31    5   0.130000  6.862177e+00  2.106906e+01  7.665530e+00  # H1 triethylammonium
    701      31    5   0.130000  8.089088e+00  2.226292e+01  8.031366e+00  # H1 triethylammonium
    702      31    4  -0.050000  7.863540e+00  2.492589e+01  7.954228e+00  # CE triethylammonium
    703      31    5   0.130000  5.865054e+00  2.514726e+01  7.208712e+00  # H1 triethylammonium
    704      31    5   0.130000  5.934320e+00  2.457551e+01  8.895329e+00  # H1 triethylammonium
    705      31    6   0.060000  3.459103e+00  2.131966e+01  6.326480e+00  # HC triethylammonium
    706      31    6   0.060000  5.128921e+00  2.125334e+01  5.736753e+00  # HC triethylammonium
    707      31    6   0.060000  4.706863e+00  2.060382e+01  7.338547e+00  # HC triethylammonium
    708      31    6   0.060000  5.586901e+00  2.185714e+01  9.792460e+00  # HC triethylammonium
    709      31    6   0.060000  7.142752e+00  2.107808e+01  1.008551e+01  # HC triethylammonium
    710      31    6   0.060000  7.018907e+00  2.283374e+01  1.017706e+01  # HC triethylammonium
    711      31    6   0.060000  8.361461e+00  2.475184e+01  6.995783e+00  # HC triethylammonium
    712      31    6   0.060000  7.929905e+00  2.599498e+01  8.181533e+00  # HC triethylammonium
    713      31    6   0.060000  8.416058e+00  2.439815e+01  8.737199e+00  # HC triethylammonium
    714      32    1   0.030000  2.882834e+01  2.215586e+01  3.151210e+01  # N3 triethylammonium
    715      32    2  -0.170000  2.885642e+01  2.143954e+01  3.016836e+01  # C1 triethylammonium
    716      32    2  -0.170000  2.935259e+01  2.358244e+01  3.149130e+01  # C1 triethylammonium
    717      32    2  -0.170000  2.943802e+01  2.125923e+01  3.257877e+01  # C1 triethylammonium
    718      32    3   0.310000  2.783234e+01  2.224040e+01  3.175635e+01  # H3 triethylammonium
    719      32    4  -0.050000  2.814549e+01  2.222506e+01  2.908262e+01  # CE triethylammonium
    720      32    5   0.130000  2.834279e+01  2.048305e+01  3.031847e+01  # H1 triethylammonium
    721      32    5   0.130000  2.990035e+01  2.124240e+01  2.990726e+01  # H1 triethylammonium
    722      32    4  -0.050000  3.084435e+01  2.365954e+01  3.123846e+01  # CE triethylammonium
    723      32    5   0.130000  2.879181e+01  2.412565e+01  3.072781e+01  # H1 triethylammonium
    724      32    5   0.130000  2.909043e+01  2.403854e+01  3.245051e+01  # H1 triethylammonium
    725      32    4  -0.050000  2.931011e+01  2.184982e+01  3.397022e+01  # CE triethylammonium
    726      32    5   0.130000  2.889007e+01  2.031096e+01  3.253697e+01  # H1 triethylammonium
    727      32    5   0.130000  3.048376e+01  2.107600e+01  3.231068e+01  # H1 triethylammonium
    728      32    6   0.060000  2.799561e+01  2.159004e+01  2.820323e+01  # HC triethylammonium
    729      32    6   0.060000  2.716463e+01  2.258028e+01  2.941541e+01  # HC triethylammonium
    730      32    6   0.060000  2.873894e+01  2.308467e+01  2.875746e+01  # HC triethylammonium
    731      32    6   0.060000  3.114948e+01  2.308902e+01  3.035628e+01  # HC triethylammonium
    732      32    6   0.060000  3.113381e+01  2.470222e+01  3.107099e+01  # HC triethylammonium
    733      32    6   0.060000  3.141518e+01  2.329877e+01  3.209918e+01  # HC triethylammonium
    734      32    6   0.060000  2.827677e+01  2.213079e+01  3.419402e+01  # HC triethylammonium
    735      32    6   0.060000  2.962961e+01  2.111242e+01  3.471398e+01  # HC triethylammonium
    736      32    6   0.060000  2.994805e+01  2.272931e+01  3.409815e+01  # HC triethylammonium
    737      33    1   0.030000  3.914399e+00  3.019321e+01  2.842159e+01  # N3 triethylammonium
    738      33    2  -0.170000  5.431591e+00  3.007895e+01  2.835375e+01  # C1 triethylammonium
    739      33    2  -0.170000  3.334339e+00  3.144263e+01  2.777905e+01  # C1 triethylammonium
    740      33    2  -0.170000  3.447440e+00  2.992196e+01  2.984350e+01  # C1 triethylammonium
    741      33    3   0.310000  3.555597e+00  2.941103e+01  2.785741e+01  # H3 triethylammonium
    742      33    4  -0.050000  5.955655e+00  3.020991e+01  2.693618e+01  # CE triethylammonium
    743      33    5   0.130000  5.683303e+00  2.908558e+01  2.874244e+01  # H1 triethylammonium
    744      33    5   0.130000  5.861865e+00  3.083636e+01  2.901559e+01  # H1 triethylammonium
    745      33    4  -0.050000  3.678688e+00  3.270951e+01  2.853515e+01  # CE triethylammonium
    746      33    5   0.130000  3.700666e+00  3.148169e+01  2.675107e+01  # H1 triethylammonium
    747      33    5   0.130000  2.251214e+00  3.130222e+01  2.771612e+01  # H1 triethylammonium
    748      33    4  -0.050000  1.935245e+00  2.987444e+01  2.995439e+01  # CE triethylammonium
    749      33    5   0.130000  3.861193e+00  2.894689e+01  3.012503e+01  # H1 triethylammonium
    750      33    5   0.130000  3.877707e+00  3.069039e+01  3.049420e+01  # H1 triethylammonium
    751      33    6   0.060000  7.007043e+00  2.990611e+01  2.689998e+01  # HC triethylammonium
    752      33    6   0.060000  5.396306e+00  2.957929e+01  2.623727e+01  # HC triethylammonium
    753      33    6   0.060000  5.911207e+00  3.124597e+01  2.658770e+01  # HC triethylammonium
    754      33    6   0.060000  4.750733e+00  3.280045e+01  2.873335e+01  # HC triethylammonium
    755      33    6   0.060000  3.379306e+00  3.358133e+01  2.794412e+01  # HC triethylammonium
    756      33    6   0.060000  3.144019e+00  3.276457e+01  2.948800e+01  # HC triethylammonium
    757      33    6   0.060000  1.500613e+00  2.918221e+01  2.922724e+01  # HC triethylammonium
    758      33    6   0.060000  1.649965e+00  2.953694e+01  3.095626e+01  # HC triethylammonium
    759      33    6   0.060000  1.486403e+00  3.086165e+01  2.981022e+01  # HC triethylammonium
    760      34    1   0.030000  1.684829e+01  2.289408e+01  3.683306e+00  # N3 triethylammonium
    761      34    2  -0.170000  1.591443e+01  2.265148e+01  2.504927e+00  # C1 triethylammonium
    762      34    2  -0.170000  1.772324e+01  2.413147e+01  3.566157e+00  # C1 triethylammonium
    763      34    2  -0.170000  1.758921e+01  2.160849e+01  4.017590e+00  # C1 triethylammonium
    764      34    3   0.310000  1.623259e+01  2.307693e+01  4.487245e+00  # H3 triethylammonium
    765      34    4  -0.050000  1.504739e+01  2.385834e+01  2.199921e+00  # CE triethylammonium
    766      34    5   0.130000  1.527428e+01  2.180804e+01  2.787858e+00  # H1 triethylammonium
    767      34    5   0.130000  1.652063e+01  2.236053e+01  1.641965e+00  # H1 triethylammonium
    768      34    4  -0.050000  1.877389e+01  2.401101e+01  2.481332e+00  # CE triethylammonium
    769      34    5   0.130000  1.706317e+01  2.498274e+01  3.386947e+00  # H1 triethylammonium
    770      34    5   0.130000  1.818316e+01  2.429756e+01  4.544791e+00  # H1 triethylammonium
    771      34    4  -0.050000  1.842870e+01  2.173721e+01  5.274559e+00  # CE triethylammonium
    772      34    5   0.130000  1.682297e+01  2.084020e+01  4.171950e+00  # H1 triethylammonium
    773      34    5   0.130000  1.819776e+01  2.133238e+01  3.150151e+00  # H1 triethylammonium
    774      34    6   0.060000  1.424972e+01  2.357575e+01  1.505026e+00  # HC triethylammonium
    775      34    6   0.060000  1.458141e+01  2.426189e+01  3.104922e+00  # HC triethylammonium
    776      34    6   0.060000  1.562388e+01  2.465292e+01  1.717089e+00  # HC triethylammonium
    777      34    6   0.060000  1.834998e+01  2.370610e+01  1.519996e+00  # HC triethylammonium
    778      34    6   0.060000  1.925948e+01  2.498114e+01  2.332741e+00  # HC triethylammonium
    779      34    6   0.060000  1.955473e+01  2.329655e+01  2.758206e+00  # HC triethylammonium
    780      34    6   0.060000  1.783899e+01  2.211608e+01  6.114518e+00  # HC triethylammonium
    781      34    6   0.060000  1.882560e+01  2.075577e+01  5.554338e+00  # HC triethylammonium
    782      34    6   0.060000  1.928766e+01  2.239761e+01  5.123198e+00  # HC triethylammonium
    783      35    1   0.030000  2.272618e+01  1.437026e+01  5.187028e+00  # N3 triethylammonium
    784      35    2  -0.170000  2.417030e+01  1.447466e+01  4.714634e+00  # C1 triethylammonium
    785      35    2  -0.170000  2.227491e+01  1.547781e+01  6.125159e+00  # C1 triethylammonium
    786      35    2  -0.170000  2.245302e+01  1.295680e+01  5.677920e+00  # C1 triethylammonium
    787      35    3   0.310000  2.215240e+01  1.448615e+01  4.340749e+00  # H3 triethylammonium
    788      35    4  -0.050000  2.447548e+01  1.582326e+01  4.090590e+00  # CE triethylammonium
    789      35    5   0.130000  2.430595e+01  1.368884e+01  3.962774e+00  # H1 triethylammonium
    790      35    5   0.130000  2.482490e+01  1.426549e+01  5.565856e+00  # H1 triethylammonium
    791      35    4  -0.050000  2.294886e+01  1.541454e+01  7.480521e+00  # CE triethylammonium
    792      35    5   0.130000  2.247326e+01  1.642912e+01  5.627049e+00  # H1 triethylammonium
    793      35    5   0.130000  2.118788e+01  1.539952e+01  6.220493e+00  # H1 triethylammonium
    794      35    4  -0.050000  2.099277e+01  1.274005e+01  6.027160e+00  # CE triethylammonium
    795      35    5   0.130000  2.273218e+01  1.228463e+01  4.858492e+00  # H1 triethylammonium
    796      35    5   0.130000  2.310773e+01  1.276257e+01  6.533871e+00  # H1 triethylammonium
    797      35    6   0.060000  2.543925e+01  1.578250e+01  3.572412e+00  # HC triethylammonium
    798      35    6   0.060000  2.371134e+01  1.611544e+01  3.362747e+00  # HC triethylammonium
    799      35    6   0.060000  2.455507e+01  1.660643e+01  4.850293e+00  # HC triethylammonium
    800      35    6   0.060000  2.403823e+01  1.534957e+01  7.403746e+00  # HC triethylammonium
    801      35    6   0.060000  2.271357e+01  1.632039e+01  8.048940e+00  # HC triethylammonium
    802      35    6   0.060000  2.259109e+01  1.456233e+01  8.065826e+00  # HC triethylammonium
    803      35    6   0.060000  2.033472e+01  1.303679e+01  5.205122e+00  # HC triethylammonium
    804      35    6   0.060000  2.081759e+01  1.167946e+01  6.235720e+00  # HC triethylammonium
    805      35    6   0.060000  2.070357e+01  1.329400e+01  6.925124e+00  # HC triethylammonium
    806      36    1   0.030000  1.059514e+01  2.396034e+01  3.868402e+00  # N3 triethylammonium
    807      36    2  -0.170000  1.063488e+01  2.531425e+01  4.564743e+00  # C1 triethylammonium
    808      36    2  -0.170000  9.400933e+00  2.374264e+01  2.953590e+00  # C1 triethylammonium
    809      36    2  -0.170000  1.083762e+01  2.285749e+01  4.887404e+00  # C1 triethylammonium
    810      36    3   0.310000  1.141452e+01  2.394858e+01  3.246061e+00  # H3 triethylammonium
    811      36    4  -0.050000  1.052937e+01  2.646817e+01  3.585647e+00  # CE triethylammonium
    812      36    5   0.130000  1.159940e+01  2.536598e+01  5.082669e+00  # H1 triethylammonium
    813      36    5   0.130000  9.833032e+00  2.534033e+01  5.308515e+00  # H1 triethylammonium
    814      36    4  -0.050000  8.091524e+00  2.363422e+01  3.707856e+00  # CE triethylammonium
    815      36    5   0.130000  9.380915e+00  2.456898e+01  2.239984e+00  # H1 triethylammonium
    816      36    5   0.130000  9.598173e+00  2.283701e+01  2.372413e+00  # H1 triethylammonium
    817      36    4  -0.050000  1.095752e+01  2.149079e+01  4.240065e+00  # CE triethylammonium
    818      36    5   0.130000  1.177959e+01  2.310253e+01  5.391255e+00  # H1 triethylammonium
    819      36    5   0.130000  1.002518e+01  2.288880e+01  5.620879e+00  # H1 triethylammonium
    820      36    6   0.060000  1.078070e+01  2.740686e+01  4.090336e+00  # HC triethylammonium
    821      36    6   0.060000  1.121256e+01  2.634509e+01  2.738813e+00  # HC triethylammonium
    822      36    6   0.060000  9.510284e+00  2.657537e+01  3.202482e+00  # HC triethylammonium
    823      36    6   0.060000  7.939282e+00  2.446449e+01  4.403777e+00  # HC triethylammonium
    824      36    6   0.060000  7.258104e+00  2.364449e+01  2.997694e+00  # HC triethylammonium
    825      36    6   0.060000  8.028864e+00  2.269650e+01  4.267845e+00  # HC triethylammonium
    826      36    6   0.060000  1.169692e+01  2.149159e+01  3.433764e+00  # HC triethylammonium
    827      36    6   0.060000  1.127224e+01  2.075550e+01  4.987939e+00  # HC triethylammonium
    828      36    6   0.060000  1.000020e+01  2.114692e+01  3.837425e+00  # HC triethylammonium
    829      37    1   0.030000  1.808615e+01  6.910678e+00  2.001574e+01  # N3 triethylammonium
    830      37    2  -0.170000  1.657860e+01  7.126372e+00  1.999865e+01  # C1 triethylammonium
    831      37    2  -0.170000  1.852755e+01  5.456183e+00  2.001959e+01  # C1 triethylammonium
    832      37    2  -0.170000  1.871139e+01  7.778211e+00  2.109736e+01  # C1 triethylammonium
    833      37    3   0.310000  1.842717e+01  7.291370e+00  1.912265e+01  # H3 triethylammonium
    834      37    4  -0.050000  1.590478e+01  6.389137e+00  1.885683e+01  # CE triethylammonium
    835      37    5   0.130000  1.642310e+01  8.204264e+00  1.987542e+01  # H1 triethylammonium
    836      37    5   0.130000  1.617802e+01  6.820731e+00  2.096971e+01  # H1 triethylammonium
    837      37    4  -0.050000  1.819412e+01  4.741510e+00  2.131315e+01  # CE triethylammonium
    838      37    5   0.130000  1.805559e+01  4.969109e+00  1.916374e+01  # H1 triethylammonium
    839      37    5   0.130000  1.960447e+01  5.443349e+00  1.982746e+01  # H1 triethylammonium
    840      37    4  -0.050000  2.022727e+01  7.724916e+00  2.107438e+01  # CE triethylammonium
    841      37    5   0.130000  1.838290e+01  8.804977e+00  2.089971e+01  # H1 triethylammonium
    842      37    5   0.130000  1.830906e+01  7.457635e+00  2.206401e+01  # H1 triethylammonium
    843      37    6   0.060000  1.487349e+01  6.740156e+00  1.874613e+01  # HC triethylammonium
    844      37    6   0.060000  1.642278e+01  6.553707e+00  1.790625e+01  # HC triethylammonium
    845      37    6   0.060000  1.585623e+01  5.313254e+00  1.904907e+01  # HC triethylammonium
    846      37    6   0.060000  1.714486e+01  4.860823e+00  2.159892e+01  # HC triethylammonium
    847      37    6   0.060000  1.838275e+01  3.669052e+00  2.119794e+01  # HC triethylammonium
    848      37    6   0.060000  1.882036e+01  5.094151e+00  2.213795e+01  # HC triethylammonium
    849      37    6   0.060000  2.062188e+01  7.942100e+00  2.007741e+01  # HC triethylammonium
    850      37    6   0.060000  2.063239e+01  8.468427e+00  2.176871e+01  # HC triethylammonium
    851      37    6   0.060000  2.060411e+01  6.749408e+00  2.139566e+01  # HC triethylammonium
    852      38    1   0.030000  3.229056e+01  3.258518e+01  1.249395e+01  # N3 triethylammonium
    853      38    2  -0.170000  3.288087e+01  3.264261e+01  1.389672e+01  # C1 triethylammonium
    854      38    2  -0.170000  3.330472e+01  3.240249e+01  1.137659e+01  # C1 triethylammonium
    855      38    2  -0.170000  3.132054e+01  3.374107e+01  1.230310e+01  # C1 triethylammonium
    856      38    3   0.310000  3.171437e+01  3.173286e+01  1.247424e+01  # H3 triethylammonium
    857      38    4  -0.050000  3.375960e+01  3.144399e+01  1.420071e+01  # CE triethylammonium
    858      38    5   0.130000  3.203075e+01  3.265297e+01  1.458839e+01  # H1 triethylammonium
    859      38    5   0.130000  3.343031e+01  3.358312e+01  1.399867e+01  # H1 triethylammonium
    860      38    4  -0.050000  3.419600e+01  3.361246e+01  1.118467e+01  # CE triethylammonium
    861      38    5   0.130000  3.389044e+01  3.151074e+01  1.160936e+01  # H1 triethylammonium
    862      38    5   0.130000  3.274516e+01  3.217539e+01  1.046437e+01  # H1 triethylammonium
    863      38    4  -0.050000  3.058397e+01  3.366282e+01  1.097923e+01  # CE triethylammonium
    864      38    5   0.130000  3.059674e+01  3.367712e+01  1.312361e+01  # H1 triethylammonium
    865      38    5   0.130000  3.188324e+01  3.467549e+01  1.239935e+01  # H1 triethylammonium
    866      38    6   0.060000  3.398141e+01  3.140910e+01  1.527244e+01  # HC triethylammonium
    867      38    6   0.060000  3.327184e+01  3.050328e+01  1.392468e+01  # HC triethylammonium
    868      38    6   0.060000  3.471887e+01  3.150897e+01  1.367877e+01  # HC triethylammonium
    869      38    6   0.060000  3.465844e+01  3.394420e+01  1.211898e+01  # HC triethylammonium
    870      38    6   0.060000  3.500416e+01  3.336503e+01  1.048848e+01  # HC triethylammonium
    871      38    6   0.060000  3.364294e+01  3.445248e+01  1.075416e+01  # HC triethylammonium
    872      38    6   0.060000  3.011088e+01  3.268632e+01  1.083976e+01  # HC triethylammonium
    873      38    6   0.060000  2.980014e+01  3.442680e+01  1.094829e+01  # HC triethylammonium
    874      38    6   0.060000  3.124967e+01  3.385396e+01  1.013238e+01  # HC triethylammonium
    875      39    1   0.030000  1.282106e+01  2.095583e+01  1.292267e+01  # N3 triethylammonium
    876      39    2  -0.170000  1.193457e+01  1.973099e+01  1.310553e+01  # C1 triethylammonium
    877      39    2  -0.170000  1.428905e+01  2.065482e+01  1.266810e+01  # C1 triethylammonium
    878      39    2  -0.170000  1.255023e+01  2.195066e+01  1.404088e+01  # C1 triethylammonium
    879      39    3   0.310000  1.248753e+01  2.140881e+01  1.206104e+01  # H3 triethylammonium
    880      39    4  -0.050000  1.205897e+01  1.875332e+01  1.195228e+01  # CE triethylammonium
    881      39    5   0.130000  1.090431e+01  2.010135e+01  1.315661e+01  # H1 triethylammonium
    882      39    5   0.130000  1.218939e+01  1.926358e+01  1.406126e+01  # H1 triethylammonium
    883      39    4  -0.050000  1.498807e+01  2.006254e+01  1.387466e+01  # CE triethylammonium
    884      39    5   0.130000  1.434066e+01  1.998220e+01  1.180939e+01  # H1 triethylammonium
    885      39    5   0.130000  1.476294e+01  2.159044e+01  1.235684e+01  # H1 triethylammonium
    886      39    4  -0.050000  1.329230e+01  2.325858e+01  1.384101e+01  # CE triethylammonium
    887      39    5   0.130000  1.147115e+01  2.214227e+01  1.403080e+01  # H1 triethylammonium
    888      39    5   0.130000  1.281643e+01  2.147450e+01  1.499032e+01  # H1 triethylammonium
    889      39    6   0.060000  1.125803e+01  1.800883e+01  1.200925e+01  # HC triethylammonium
    890      39    6   0.060000  1.198458e+01  1.925781e+01  1.098327e+01  # HC triethylammonium
    891      39    6   0.060000  1.300567e+01  1.820649e+01  1.199217e+01  # HC triethylammonium
    892      39    6   0.060000  1.445126e+01  1.920464e+01  1.429020e+01  # HC triethylammonium
    893      39    6   0.060000  1.598612e+01  1.971656e+01  1.358619e+01  # HC triethylammonium
    894      39    6   0.060000  1.511890e+01  2.080624e+01  1.466627e+01  # HC triethylammonium
    895      39    6   0.060000  1.310690e+01  2.367800e+01  1.284775e+01  # HC triethylammonium
    896      39    6   0.060000  1.295807e+01  2.398897e+01  1.458522e+01  # HC triethylammonium
    897      39    6   0.060000  1.437135e+01  2.313763e+01  1.397460e+01  # HC triethylammonium
    898      40    1   0.030000  1.380897e+01  1.135362e+01  9.576890e+00  # N3 triethylammonium
    899      40    2  -0.170000  1.339257e+01  1.151524e+01  8.120863e+00  # C1 triethylammonium
    900      40    2  -0.170000  1.468398e+01  1.014458e+01  9.864975e+00  # C1 triethylammonium
    901      40    2  -0.170000  1.258844e+01  1.149583e+01  1.047328e+01  # C1 triethylammonium
    902      40    3   0.310000  1.440214e+01  1.216856e+01  9.783922e+00  # H3 triethylammonium
    903      40    4  -0.050000  1.458162e+01  1.151405e+01  7.178823e+00  # CE triethylammonium
    904      40    5   0.130000  1.287796e+01  1.248054e+01  8.053059e+00  # H1 triethylammonium
    905      40    5   0.130000  1.268289e+01  1.071907e+01  7.877368e+00  # H1 triethylammonium
    906      40    4  -0.050000  1.394651e+01  8.830790e+00  9.705875e+00  # CE triethylammonium
    907      40    5   0.130000  1.554671e+01  1.019904e+01  9.197742e+00  # H1 triethylammonium
    908      40    5   0.130000  1.507165e+01  1.025937e+01  1.088152e+01  # H1 triethylammonium
    909      40    4  -0.050000  1.295145e+01  1.149204e+01  1.194620e+01  # CE triethylammonium
    910      40    5   0.130000  1.212613e+01  1.245608e+01  1.021755e+01  # H1 triethylammonium
    911      40    5   0.130000  1.189006e+01  1.068957e+01  1.022578e+01  # H1 triethylammonium
    912      40    6   0.060000  1.426748e+01  1.184898e+01  6.184759e+00  # HC triethylammonium
    913      40    6   0.060000  1.537532e+01  1.218330e+01  7.526920e+00  # HC triethylammonium
    914      40    6   0.060000  1.499643e+01  1.050874e+01  7.059978e+00  # HC triethylammonium
    915      40    6   0.060000  1.343071e+01  8.754033e+00  8.744158e+00  # HC triethylammonium
    916      40    6   0.060000  1.465944e+01  8.001627e+00  9.762778e+00  # HC triethylammonium
    917      40    6   0.060000  1.321387e+01  8.683939e+00  1.050495e+01  # HC triethylammonium
    918      40    6   0.060000  1.372883e+01  1.222844e+01  1.217031e+01  # HC triethylammonium
    919      40    6   0.060000  1.206785e+01  1.173930e+01  1.254380e+01  # HC triethylammonium
    920      40    6   0.060000  1.329534e+01  1.050760e+01  1.227702e+01  # HC triethylammonium
    921      41    1   0.030000  3.395028e+01  1.982136e+01  1.957128e+01  # N3 triethylammonium
    922      41    2  -0.170000  3.383472e+01  1.856136e+01  1.872359e+01  # C1 triethylammonium
    923      41    2  -0.170000  3.309688e+01  1.983059e+01  2.082906e+01  # C1 triethylammonium
    924      41    2  -0.170000  3.380392e+01  2.104697e+01  1.868250e+01  # C1 triethylammonium
    925      41    3   0.310000  3.492264e+01  1.983664e+01  1.990761e+01  # H3 triethylammonium
    926      41    4  -0.050000  3.410077e+01  1.730169e+01  1.952592e+01  # CE triethylammonium
    927      41    5   0.130000  3.458763e+01  1.865238e+01  1.793236e+01  # H1 triethylammonium
    928      41    5   0.130000  3.284133e+01  1.854685e+01  1.826553e+01  # H1 triethylammonium
    929      41    4  -0.050000  3.161262e+01  1.990562e+01  2.053485e+01  # CE triethylammonium
    930      41    5   0.130000  3.334397e+01  1.893205e+01  2.139831e+01  # H1 triethylammonium
    931      41    5   0.130000  3.342270e+01  2.068043e+01  2.143607e+01  # H1 triethylammonium
    932      41    4  -0.050000  3.405465e+01  2.233912e+01  1.943667e+01  # CE triethylammonium
    933      41    5   0.130000  3.454944e+01  2.094307e+01  1.788587e+01  # H1 triethylammonium
    934      41    5   0.130000  3.280401e+01  2.102521e+01  1.823672e+01  # H1 triethylammonium
    935      41    6   0.060000  3.422577e+01  1.645026e+01  1.884881e+01  # HC triethylammonium
    936      41    6   0.060000  3.500949e+01  1.739038e+01  2.013039e+01  # HC triethylammonium
    937      41    6   0.060000  3.326142e+01  1.706338e+01  2.018587e+01  # HC triethylammonium
    938      41    6   0.060000  3.128949e+01  1.914701e+01  1.981586e+01  # HC triethylammonium
    939      41    6   0.060000  3.104769e+01  1.974357e+01  2.145876e+01  # HC triethylammonium
    940      41    6   0.060000  3.133022e+01  2.089019e+01  2.015052e+01  # HC triethylammonium
    941      41    6   0.060000  3.500993e+01  2.231461e+01  1.996927e+01  # HC triethylammonium
    942      41    6   0.060000  3.408047e+01  2.317732e+01  1.873254e+01  # HC triethylammonium
    943      41    6   0.060000  3.325775e+01  2.255067e+01  2.015572e+01  # HC triethylammonium
    944      42    1   0.030000  2.275483e+01  1.156676e+01  3.258983e+01  # N3 triethylammonium
    945      42    2  -0.170000  2.133994e+01  1.136562e+01  3.206338e+01  # C1 triethylammonium
    946      42    2  -0.170000  2.354743e+01  1.028827e+01  3.280814e+01  # C1 triethylammonium
    947      42    2  -0.170000  2.272526e+01  1.251876e+01  3.377569e+01  # C1 triethylammonium
    948      42    3   0.310000  2.325574e+01  1.206795e+01  3.184368e+01  # H3 triethylammonium
    949      42    4  -0.050000  2.131018e+01  1.052856e+01  3.079858e+01  # CE triethylammonium
    950      42    5   0.130000  2.094752e+01  1.236542e+01  3.184512e+01  # H1 triethylammonium
    951      42    5   0.130000  2.073897e+01  1.091668e+01  3.285970e+01  # H1 triethylammonium
    952      42    4  -0.050000  2.301127e+01  9.448975e+00  3.394978e+01  # CE triethylammonium
    953      42    5   0.130000  2.353724e+01  9.732818e+00  3.186801e+01  # H1 triethylammonium
    954      42    5   0.130000  2.458757e+01  1.057749e+01  3.298506e+01  # H1 triethylammonium
    955      42    4  -0.050000  2.411686e+01  1.288018e+01  3.425953e+01  # CE triethylammonium
    956      42    5   0.130000  2.221514e+01  1.342600e+01  3.343232e+01  # H1 triethylammonium
    957      42    5   0.130000  2.212824e+01  1.205520e+01  3.456797e+01  # H1 triethylammonium
    958      42    6   0.060000  2.031985e+01  1.059127e+01  3.033562e+01  # HC triethylammonium
    959      42    6   0.060000  2.204876e+01  1.087279e+01  3.006712e+01  # HC triethylammonium
    960      42    6   0.060000  2.149482e+01  9.471996e+00  3.101405e+01  # HC triethylammonium
    961      42    6   0.060000  2.193614e+01  9.265148e+00  3.386526e+01  # HC triethylammonium
    962      42    6   0.060000  2.351123e+01  8.474787e+00  3.395411e+01  # HC triethylammonium
    963      42    6   0.060000  2.320767e+01  9.918575e+00  3.491815e+01  # HC triethylammonium
    964      42    6   0.060000  2.474505e+01  1.324370e+01  3.344096e+01  # HC triethylammonium
    965      42    6   0.060000  2.405058e+01  1.367170e+01  3.501327e+01  # HC triethylammonium
    966      42    6   0.060000  2.461573e+01  1.202943e+01  3.473302e+01  # HC triethylammonium
    967      43    1   0.030000  3.001300e+01  6.862045e+00  1.456167e+01  # N3 triethylammonium
    968      43    2  -0.170000  3.116442e+01  7.514592e+00  1.380805e+01  # C1 triethylammonium
    969      43    2  -0.170000  3.015356e+01  5.364219e+00  1.477884e+01  # C1 triethylammonium
    970      43    2  -0.170000  2.869137e+01  7.305190e+00  1.395311e+01  # C1 triethylammonium
    971      43    3   0.310000  3.003592e+01  7.272447e+00  1.550501e+01  # H3 triethylammonium
    972      43    4  -0.050000  3.250949e+01  7.218620e+00  1.444402e+01  # CE triethylammonium
    973      43    5   0.130000  3.097950e+01  8.594458e+00  1.383819e+01  # H1 triethylammonium
    974      43    5   0.130000  3.112641e+01  7.178913e+00  1.276751e+01  # H1 triethylammonium
    975      43    4  -0.050000  3.004676e+01  4.568827e+00  1.349386e+01  # CE triethylammonium
    976      43    5   0.130000  3.111256e+01  5.194106e+00  1.527263e+01  # H1 triethylammonium
    977      43    5   0.130000  2.938072e+01  5.065968e+00  1.549340e+01  # H1 triethylammonium
    978      43    4  -0.050000  2.749677e+01  6.809630e+00  1.474598e+01  # CE triethylammonium
    979      43    5   0.130000  2.869938e+01  8.401146e+00  1.395885e+01  # H1 triethylammonium
    980      43    5   0.130000  2.866202e+01  6.956761e+00  1.291544e+01  # H1 triethylammonium
    981      43    6   0.060000  3.327492e+01  7.873205e+00  1.401429e+01  # HC triethylammonium
    982      43    6   0.060000  3.249124e+01  7.383438e+00  1.552639e+01  # HC triethylammonium
    983      43    6   0.060000  3.282533e+01  6.189246e+00  1.425045e+01  # HC triethylammonium
    984      43    6   0.060000  3.071580e+01  4.942761e+00  1.271322e+01  # HC triethylammonium
    985      43    6   0.060000  3.031755e+01  3.525331e+00  1.368573e+01  # HC triethylammonium
    986      43    6   0.060000  2.902420e+01  4.572264e+00  1.310504e+01  # HC triethylammonium
    987      43    6   0.060000  2.758238e+01  7.068453e+00  1.580547e+01  # HC triethylammonium
    988      43    6   0.060000  2.658134e+01  7.268280e+00  1.435784e+01  # HC triethylammonium
    989      43    6   0.060000  2.737280e+01  5.726185e+00  1.465874e+01  # HC triethylammonium
    990      44    1   0.030000  8.952848e+00  3.182679e+01  2.561538e+00  # N3 triethylammonium
    991      44    2  -0.170000  9.966473e+00  3.268981e+01  3.301333e+00  # C1 triethylammonium
    992      44    2  -0.170000  7.657943e+00  3.253105e+01  2.190540e+00  # C1 triethylammonium
    993      44    2  -0.170000  8.782065e+00  3.050395e+01  3.292545e+00  # C1 triethylammonium
    994      44    3   0.310000  9.396798e+00  3.159250e+01  1.663287e+00  # H3 triethylammonium
    995      44    4  -0.050000  1.028272e+01  3.397269e+01  2.556017e+00  # CE triethylammonium
    996      44    5   0.130000  1.087811e+01  3.208772e+01  3.388628e+00  # H1 triethylammonium
    997      44    5   0.130000  9.578318e+00  3.288999e+01  4.304377e+00  # H1 triethylammonium
    998      44    4  -0.050000  6.807043e+00  3.287552e+01  3.395753e+00  # CE triethylammonium
    999      44    5   0.130000  7.923306e+00  3.342549e+01  1.623060e+00  # H1 triethylammonium
   1000      44    5   0.130000  7.118387e+00  3.187581e+01  1.500339e+00  # H1 triethylammonium
   1001      44    4  -0.050000  7.896595e+00  2.953516e+01  2.531839e+00  # CE triethylammonium
   1002      44    5   0.130000  9.785038e+00  3.007375e+01  3.393493e+00  # H1 triethylammonium
   1003      44    5   0.130000  8.385975e+00  3.071683e+01  4.290954e+00  # H1 triethylammonium
   1004      44    6   0.060000  1.116244e+01  3.445145e+01  2.998624e+00  # HC triethylammonium
   1005      44    6   0.060000  1.049494e+01  3.378526e+01  1.498258e+00  # HC triethylammonium
   1006      44    6   0.060000  9.459739e+00  3.468990e+01  2.627735e+00  # HC triethylammonium
   1007      44    6   0.060000  7.369289e+00  3.341233e+01  4.165523e+00  # HC triethylammonium
   1008      44    6   0.060000  5.977610e+00  3.351986e+01  3.086103e+00  # HC triethylammonium
   1009      44    6   0.060000  6.370647e+00  3.197938e+01  3.846675e+00  # HC triethylammonium
   1010      44    6   0.060000  8.235184e+00  2.940719e+01  1.499455e+00  # HC triethylammonium
   1011      44    6   0.060000  7.918774e+00  2.855517e+01  3.019850e+00  # HC triethylammonium
   1012      44    6   0.060000  6.852788e+00  2.986253e+01  2.520363e+00  # HC triethylammonium
   1013      45    1   0.030000  1.912597e+01  1.349723e+01  1.061043e+01  # N3 triethylammonium
   1014      45    2  -0.170000  1.951706e+01  1.496899e+01  1.058805e+01  # C1 triethylammonium
   1015      45    2  -0.170000  2.022807e+01  1.254566e+01  1.104665e+01  # C1 triethylammonium
   1016      45    2  -0.170000  1.843917e+01  1.313398e+01  9.302832e+00  # C1 triethylammonium
   1017      45    3   0.310000  1.840104e+01  1.341775e+01  1.133638e+01  # H3 triethylammonium
   1018      45    4  -0.050000  2.009123e+01  1.543199e+01  1.191366e+01  # CE triethylammonium
   1019      45    5   0.130000  1.859875e+01  1.552847e+01  1.037611e+01  # H1 triethylammonium
   1020      45    5   0.130000  2.022210e+01  1.512338e+01  9.765914e+00  # H1 triethylammonium
   1021      45    4  -0.050000  2.135860e+01  1.245175e+01  1.004251e+01  # CE triethylammonium
   1022      45    5   0.130000  2.058829e+01  1.288672e+01  1.201947e+01  # H1 triethylammonium
   1023      45    5   0.130000  1.976573e+01  1.156829e+01  1.121350e+01  # H1 triethylammonium
   1024      45    4  -0.050000  1.789115e+01  1.171947e+01  9.313154e+00  # CE triethylammonium
   1025      45    5   0.130000  1.761103e+01  1.384143e+01  9.180621e+00  # H1 triethylammonium
   1026      45    5   0.130000  1.915667e+01  1.328485e+01  8.489533e+00  # H1 triethylammonium
   1027      45    6   0.060000  2.015202e+01  1.652518e+01  1.192985e+01  # HC triethylammonium
   1028      45    6   0.060000  1.946998e+01  1.511447e+01  1.275761e+01  # HC triethylammonium
   1029      45    6   0.060000  2.110698e+01  1.505416e+01  1.206310e+01  # HC triethylammonium
   1030      45    6   0.060000  2.174430e+01  1.343380e+01  9.753294e+00  # HC triethylammonium
   1031      45    6   0.060000  2.218997e+01  1.188840e+01  1.047898e+01  # HC triethylammonium
   1032      45    6   0.060000  2.104709e+01  1.192139e+01  9.137792e+00  # HC triethylammonium
   1033      45    6   0.060000  1.725825e+01  1.154015e+01  1.018730e+01  # HC triethylammonium
   1034      45    6   0.060000  1.728559e+01  1.155267e+01  8.416212e+00  # HC triethylammonium
   1035      45    6   0.060000  1.869164e+01  1.097388e+01  9.301096e+00  # HC triethylammonium
   1036      46    1   0.030000  2.055694e+01  9.126191e+00  2.489073e+01  # N3 triethylammonium
   1037      46    2  -0.170000  2.013216e+01  1.037155e+01  2.412380e+01  # C1 triethylammonium
   1038      46    2  -0.170000  2.006347e+01  9.055878e+00  2.632668e+01  # C1 triethylammonium
   1039      46    2  -0.170000  2.205042e+01  8.902447e+00  2.470937e+01  # C1 triethylammonium
   1040      46    3   0.310000  2.009801e+01  8.339805e+00  2.441133e+01  # H3 triethylammonium
   1041      46    4  -0.050000  1.863011e+01  1.058178e+01  2.415448e+01  # CE triethylammonium
   1042      46    5   0.130000  2.045544e+01  1.022027e+01  2.308754e+01  # H1 triethylammonium
   1043      46    5   0.130000  2.066916e+01  1.122930e+01  2.453940e+01  # H1 triethylammonium
   1044      46    4  -0.050000  2.070968e+01  1.009118e+01  2.722433e+01  # CE triethylammonium
   1045      46    5   0.130000  1.897777e+01  9.171047e+00  2.630521e+01  # H1 triethylammonium
   1046      46    5   0.130000  2.025971e+01  8.042085e+00  2.668799e+01  # H1 triethylammonium
   1047      46    4  -0.050000  2.251669e+01  7.597009e+00  2.532558e+01  # CE triethylammonium
   1048      46    5   0.130000  2.223110e+01  8.876733e+00  2.362867e+01  # H1 triethylammonium
   1049      46    5   0.130000  2.257654e+01  9.762831e+00  2.513594e+01  # H1 triethylammonium
   1050      46    6   0.060000  1.834746e+01  1.134493e+01  2.342185e+01  # HC triethylammonium
   1051      46    6   0.060000  1.808701e+01  9.662187e+00  2.391279e+01  # HC triethylammonium
   1052      46    6   0.060000  1.829657e+01  1.094026e+01  2.513278e+01  # HC triethylammonium
   1053      46    6   0.060000  2.064776e+01  1.110176e+01  2.680991e+01  # HC triethylammonium
   1054      46    6   0.060000  2.020177e+01  1.010279e+01  2.819433e+01  # HC triethylammonium
   1055      46    6   0.060000  2.176178e+01  9.857246e+00  2.741195e+01  # HC triethylammonium
   1056      46    6   0.060000  2.191693e+01  6.751199e+00  2.497668e+01  # HC triethylammonium
   1057      46    6   0.060000  2.355941e+01  7.410596e+00  2.504806e+01  # HC triethylammonium
   1058      46    6   0.060000  2.247771e+01  7.627214e+00  2.641846e+01  # HC triethylammonium
   1059      47    1   0.030000  3.394799e+01  8.605742e+00  3.149299e+01  # N3 triethylammonium
   1060      47    2  -0.170000  3.320533e+01  7.576222e+00  3.065152e+01  # C1 triethylammonium
   1061      47    2  -0.170000  3.433088e+01  8.140188e+00  3.288836e+01  # C1 triethylammonium
   1062      47    2  -0.170000  3.321214e+01  9.935634e+00  3.143510e+01  # C1 triethylammonium
   1063      47    3   0.310000  3.484216e+01  8.761694e+00  3.100824e+01  # H3 triethylammonium
   1064      47    4  -0.050000  3.395432e+01  6.260262e+00  3.055911e+01  # CE triethylammonium
   1065      47    5   0.130000  3.310917e+01  8.009194e+00  2.964927e+01  # H1 triethylammonium
   1066      47    5   0.130000  3.220584e+01  7.443743e+00  3.107615e+01  # H1 triethylammonium
   1067      47    4  -0.050000  3.313300e+01  7.945970e+00  3.379532e+01  # CE triethylammonium
   1068      47    5   0.130000  3.490063e+01  7.214995e+00  3.277939e+01  # H1 triethylammonium
   1069      47    5   0.130000  3.502171e+01  8.882012e+00  3.329981e+01  # H1 triethylammonium
   1070      47    4  -0.050000  3.397437e+01  1.104694e+01  3.213173e+01  # CE triethylammonium
   1071      47    5   0.130000  3.310249e+01  1.018334e+01  3.037310e+01  # H1 triethylammonium
   1072      47    5   0.130000  3.221739e+01  9.792061e+00  3.186972e+01  # H1 triethylammonium
   1073      47    6   0.060000  3.350799e+01  5.633479e+00  2.978003e+01  # HC triethylammonium
   1074      47    6   0.060000  3.500977e+01  6.411152e+00  3.030952e+01  # HC triethylammonium
   1075      47    6   0.060000  3.389140e+01  5.697905e+00  3.149539e+01  # HC triethylammonium
   1076      47    6   0.060000  3.236192e+01  7.316507e+00  3.334140e+01  # HC triethylammonium
   1077      47    6   0.060000  3.345115e+01  7.457746e+00  3.472238e+01  # HC triethylammonium
   1078      47    6   0.060000  3.268095e+01  8.903157e+00  3.407151e+01  # HC triethylammonium
   1079      47    6   0.060000  3.500386e+01  1.111709e+01  3.176832e+01  # HC triethylammonium
   1080      47    6   0.060000  3.348177e+01  1.200631e+01  3.194204e+01  # HC triethylammonium
   1081      47    6   0.060000  3.399435e+01  1.090733e+01  3.321660e+01  # HC triethylammonium
   1082      48    1   0.030000  1.252479e+01  1.764363e+01  2.381108e+01  # N3 triethylammonium
   1083      48    2  -0.170000  1.212009e+01  1.688370e+01  2.255479e+01  # C1 triethylammonium
   1084      48    2  -0.170000  1.137654e+01  1.801790e+01  2.473403e+01  # C1 triethylammonium
   1085      48    2  -0.170000  1.345130e+01  1.878984e+01  2.343532e+01  # C1 triethylammonium
   1086      48    3   0.310000  1.310147e+01  1.698694e+01  2.435425e+01  # H3 triethylammonium
   1087      48    4  -0.050000  1.129909e+01  1.564749e+01  2.286951e+01  # CE triethylammonium
   1088      48    5   0.130000  1.305228e+01  1.658357e+01  2.206270e+01  # H1 triethylammonium
   1089      48    5   0.130000  1.157975e+01  1.757157e+01  2.189776e+01  # H1 triethylammonium
   1090      48    4  -0.050000  1.045679e+01  1.906378e+01  2.413786e+01  # CE triethylammonium
   1091      48    5   0.130000  1.083407e+01  1.709994e+01  2.496969e+01  # H1 triethylammonium
   1092      48    5   0.130000  1.181568e+01  1.836722e+01  2.567317e+01  # H1 triethylammonium
   1093      48    4  -0.050000  1.401141e+01  1.950102e+01  2.465261e+01  # CE triethylammonium
   1094      48    5   0.130000  1.427557e+01  1.834773e+01  2.286407e+01  # H1 triethylammonium
   1095      48    5   0.130000  1.289713e+01  1.947468e+01  2.278499e+01  # H1 triethylammonium
   1096      48    6   0.060000  1.121790e+01  1.501904e+01  2.197649e+01  # HC triethylammonium
   1097      48    6   0.060000  1.175580e+01  1.504913e+01  2.366475e+01  # HC triethylammonium
   1098      48    6   0.060000  1.027989e+01  1.590988e+01  2.316820e+01  # HC triethylammonium
   1099      48    6   0.060000  1.011585e+01  1.879758e+01  2.313301e+01  # HC triethylammonium
   1100      48    6   0.060000  9.567808e+00  1.917143e+01  2.476805e+01  # HC triethylammonium
   1101      48    6   0.060000  1.094182e+01  2.004328e+01  2.409129e+01  # HC triethylammonium
   1102      48    6   0.060000  1.447153e+01  1.879742e+01  2.535267e+01  # HC triethylammonium
   1103      48    6   0.060000  1.477759e+01  2.021812e+01  2.433996e+01  # HC triethylammonium
   1104      48    6   0.060000  1.324018e+01  2.006834e+01  2.518194e+01  # HC triethylammonium
   1105      49    1   0.030000  1.843593e+01  3.183286e+01  3.232647e+01  # N3 triethylammonium
   1106      49    2  -0.170000  1.725680e+01  3.087274e+01  3.224080e+01  # C1 triethylammonium
   1107      49    2  -0.170000  1.806538e+01  3.330697e+01  3.233619e+01  # C1 triethylammonium
   1108      49    2  -0.170000  1.948815e+01  3.143817e+01  3.130154e+01  # C1 triethylammonium
   1109      49    3   0.310000  1.886440e+01  3.165866e+01  3.324566e+01  # H3 triethylammonium
   1110      49    4  -0.050000  1.622609e+01  3.112919e+01  3.332393e+01  # CE triethylammonium
   1111      49    5   0.130000  1.767019e+01  2.986540e+01  3.236566e+01  # H1 triethylammonium
   1112      49    5   0.130000  1.682115e+01  3.095399e+01  3.124057e+01  # H1 triethylammonium
   1113      49    4  -0.050000  1.749802e+01  3.378177e+01  3.101411e+01  # CE triethylammonium
   1114      49    5   0.130000  1.735482e+01  3.346003e+01  3.315114e+01  # H1 triethylammonium
   1115      49    5   0.130000  1.896687e+01  3.386645e+01  3.260290e+01  # H1 triethylammonium
   1116      49    4  -0.050000  2.075531e+01  3.226229e+01  3.142970e+01  # CE triethylammonium
   1117      49    5   0.130000  1.972243e+01  3.038386e+01  3.148795e+01  # H1 triethylammonium
   1118      49    5   0.130000  1.904304e+01  3.153121e+01  3.030542e+01  # H1 triethylammonium
   1119      49    6   0.060000  1.551760e+01  3.029537e+01  3.336650e+01  # HC triethylammonium
   1120      49    6   0.060000  1.669092e+01  3.122978e+01  3.431026e+01  # HC triethylammonium
   1121      49    6   0.060000  1.564383e+01  3.203173e+01  3.311601e+01  # HC triethylammonium
   1122      49    6   0.060000  1.668114e+01  3.314762e+01  3.065720e+01  # HC triethylammonium
   1123      49    6   0.060000  1.710002e+01  3.479533e+01  3.112947e+01  # HC triethylammonium
   1124      49    6   0.060000  1.826929e+01  3.382248e+01  3.023930e+01  # HC triethylammonium
   1125      49    6   0.060000  2.113863e+01  3.225315e+01  3.245431e+01  # HC triethylammonium
   1126      49    6   0.060000  2.152997e+01  3.185084e+01  3.077424e+01  # HC triethylammonium
   1127      49    6   0.060000  2.059689e+01  3.330069e+01  3.112397e+01  # HC triethylammonium
   1128      50    1   0.030000  2.229442e+01  2.567712e+01  1.359593e+01  # N3 triethylammonium
   1129      50    2  -0.170000  2.165025e+01  2.440422e+01  1.306272e+01  # C1 triethylammonium
   1130      50    2  -0.170000  2.381409e+01  2.568950e+01  1.356695e+01  # C1 triethylammonium
   1131      50    2  -0.170000  2.167103e+01  2.603964e+01  1.493511e+01  # C1 triethylammonium
   1132      50    3   0.310000  2.200838e+01  2.642162e+01  1.294574e+01  # H3 triethylammonium
   1133      50    4  -0.050000  2.213349e+01  2.405562e+01  1.166765e+01  # CE triethylammonium
   1134      50    5   0.130000  2.057105e+01  2.459339e+01  1.303528e+01  # H1 triethylammonium
   1135      50    5   0.130000  2.184903e+01  2.359642e+01  1.377321e+01  # H1 triethylammonium
   1136      50    4  -0.050000  2.443117e+01  2.471101e+01  1.454521e+01  # CE triethylammonium
   1137      50    5   0.130000  2.412323e+01  2.547452e+01  1.254192e+01  # H1 triethylammonium
   1138      50    5   0.130000  2.413437e+01  2.671406e+01  1.377798e+01  # H1 triethylammonium
   1139      50    4  -0.050000  2.216131e+01  2.737746e+01  1.545584e+01  # CE triethylammonium
   1140      50    5   0.130000  2.058881e+01  2.609096e+01  1.476959e+01  # H1 triethylammonium
   1141      50    5   0.130000  2.188348e+01  2.522812e+01  1.563891e+01  # H1 triethylammonium
   1142      50    6   0.060000  2.149587e+01  2.327571e+01  1.123845e+01  # HC triethylammonium
   1143      50    6   0.060000  2.210423e+01  2.492297e+01  1.099992e+01  # HC triethylammonium
   1144      50    6   0.060000  2.315318e+01  2.365967e+01  1.168513e+01  # HC triethylammonium
   1145      50    6   0.060000  2.401924e+01  2.370253e+01  1.444467e+01  # HC triethylammonium
   1146      50    6   0.060000  2.550924e+01  2.464437e+01  1.436536e+01  # HC triethylammonium
   1147      50    6   0.060000  2.429470e+01  2.503975e+01  1.557968e+01  # HC triethylammonium
   1148      50    6   0.060000  2.204483e+01  2.816700e+01  1.470758e+01  # HC triethylammonium
   1149      50    6   0.060000  2.158370e+01  2.766189e+01  1.634155e+01  # HC triethylammonium
   1150      50    6   0.060000  2.321139e+01  2.733467e+01  1.575971e+01  # HC triethylammonium
   1151      51    1   0.030000  1.052434e+01  1.238576e+01  3.081183e+01  # N3 triethylammonium
   1152      51    2  -0.170000  1.060029e+01  1.376662e+01  3.017387e+01  # C1 triethylammonium
   1153      51    2  -0.170000  9.350781e+00  1.217692e+01  3.175499e+01  # C1 triethylammonium
   1154      51    2  -0.170000  1.188472e+01  1.201353e+01  3.138126e+01  # C1 triethylammonium
   1155      51    3   0.310000  1.036114e+01  1.173319e+01  3.003314e+01  # H3 triethylammonium
   1156      51    4  -0.050000  9.311046e+00  1.414739e+01  2.947092e+01  # CE triethylammonium
   1157      51    5   0.130000  1.141329e+01  1.372259e+01  2.944017e+01  # H1 triethylammonium
   1158      51    5   0.130000  1.086545e+01  1.448890e+01  3.095158e+01  # H1 triethylammonium
   1159      51    4  -0.050000  9.462005e+00  1.299426e+01  3.302574e+01  # CE triethylammonium
   1160      51    5   0.130000  8.440651e+00  1.242199e+01  3.120357e+01  # H1 triethylammonium
   1161      51    5   0.130000  9.299152e+00  1.110689e+01  3.197682e+01  # H1 triethylammonium
   1162      51    4  -0.050000  1.192119e+01  1.058948e+01  3.190284e+01  # CE triethylammonium
   1163      51    5   0.130000  1.260319e+01  1.211602e+01  3.055998e+01  # H1 triethylammonium
   1164      51    5   0.130000  1.213495e+01  1.273818e+01  3.216311e+01  # H1 triethylammonium
   1165      51    6   0.060000  9.475954e+00  1.503249e+01  2.884768e+01  # HC triethylammonium
   1166      51    6   0.060000  8.947891e+00  1.334101e+01  2.882524e+01  # HC triethylammonium
   1167      51    6   0.060000  8.525696e+00  1.440438e+01  3.018786e+01  # HC triethylammonium
   1168      51    6   0.060000  9.655718e+00  1.405252e+01  3.282722e+01  # HC triethylammonium
   1169      51    6   0.060000  8.522299e+00  1.293202e+01  3.358440e+01  # HC triethylammonium
   1170      51    6   0.060000  1.025311e+01  1.261345e+01  3.367840e+01  # HC triethylammonium
   1171      51    6   0.060000  1.156802e+01  9.877177e+00  3.115135e+01  # HC triethylammonium
   1172      51    6   0.060000  1.294903e+01  1.032074e+01  3.216808e+01  # HC triethylammonium
   1173      51    6   0.060000  1.131716e+01  1.047290e+01  3.280749e+01  # HC triethylammonium
   1174      52    1   0.030000  4.804341e+00  1.920044e+01  2.269723e+01  # N3 triethylammonium
   1175      52    2  -0.170000  5.042991e+00  1.784933e+01  2.203612e+01  # C1 triethylammonium
   1176      52    2  -0.170000  5.903193e+00  1.965636e+01  2.364331e+01  # C1 triethylammonium
   1177      52    2  -0.170000  3.397332e+00  1.924281e+01  2.327340e+01  # C1 triethylammonium
   1178      52    3   0.310000  4.810913e+00  1.988565e+01  2.192958e+01  # H3 triethylammonium
   1179      52    4  -0.050000  6.382132e+00  1.778458e+01  2.132633e+01  # CE triethylammonium
   1180      52    5   0.130000  4.238311e+00  1.771849e+01  2.130360e+01  # H1 triethylammonium
   1181      52    5   0.130000  4.953064e+00  1.707298e+01  2.280165e+01  # H1 triethylammonium
   1182      52    4  -0.050000  5.986929e+00  1.881459e+01  2.490014e+01  # CE triethylammonium
   1183      52    5   0.130000  6.842894e+00  1.963464e+01  2.308747e+01  # H1 triethylammonium
   1184      52    5   0.130000  5.710067e+00  2.070613e+01  2.388312e+01  # H1 triethylammonium
   1185      52    4  -0.050000  3.038869e+00  2.061218e+01  2.381893e+01  # CE triethylammonium
   1186      52    5   0.130000  2.717763e+00  1.899235e+01  2.245080e+01  # H1 triethylammonium
   1187      52    5   0.130000  3.322494e+00  1.846750e+01  2.404303e+01  # H1 triethylammonium
   1188      52    6   0.060000  6.421043e+00  1.689550e+01  2.068833e+01  # HC triethylammonium
   1189      52    6   0.060000  6.548823e+00  1.866301e+01  2.069420e+01  # HC triethylammonium
   1190      52    6   0.060000  7.208448e+00  1.770207e+01  2.203853e+01  # HC triethylammonium
   1191      52    6   0.060000  6.039136e+00  1.774344e+01  2.468389e+01  # HC triethylammonium
   1192      52    6   0.060000  6.889957e+00  1.908067e+01  2.545940e+01  # HC triethylammonium
   1193      52    6   0.060000  5.132541e+00  1.899396e+01  2.555945e+01  # HC triethylammonium
   1194      52    6   0.060000  3.216866e+00  2.139848e+01  2.307941e+01  # HC triethylammonium
   1195      52    6   0.060000  1.977953e+00  2.063472e+01  2.408907e+01  # HC triethylammonium
   1196      52    6   0.060000  3.604151e+00  2.084885e+01  2.472517e+01  # HC triethylammonium
   1197      53    1   0.030000  2.073597e+01  1.694351e+01  2.713951e+01  # N3 triethylammonium
   1198      53    2  -0.170000  2.189524e+01  1.748613e+01  2.796484e+01  # C1 triethylammonium
   1199      53    2  -0.170000  1.948583e+01  1.660173e+01  2.793371e+01  # C1 triethylammonium
   1200      53    2  -0.170000  2.123881e+01  1.584083e+01  2.622043e+01  # C1 triethylammonium
   1201      53    3   0.310000  2.045631e+01  1.771579e+01  2.651966e+01  # H3 triethylammonium
   1202      53    4  -0.050000  2.149062e+01  1.867834e+01  2.881113e+01  # CE triethylammonium
   1203      53    5   0.130000  2.266509e+01  1.779520e+01  2.724858e+01  # H1 triethylammonium
   1204      53    5   0.130000  2.229039e+01  1.667059e+01  2.857770e+01  # H1 triethylammonium
   1205      53    4  -0.050000  1.967505e+01  1.540854e+01  2.884788e+01  # CE triethylammonium
   1206      53    5   0.130000  1.920293e+01  1.749308e+01  2.849756e+01  # H1 triethylammonium
   1207      53    5   0.130000  1.868213e+01  1.642376e+01  2.721313e+01  # H1 triethylammonium
   1208      53    4  -0.050000  2.016679e+01  1.535439e+01  2.526365e+01  # CE triethylammonium
   1209      53    5   0.130000  2.206792e+01  1.626985e+01  2.564622e+01  # H1 triethylammonium
   1210      53    5   0.130000  2.162389e+01  1.502802e+01  2.684500e+01  # H1 triethylammonium
   1211      53    6   0.060000  2.238384e+01  1.916896e+01  2.921171e+01  # HC triethylammonium
   1212      53    6   0.060000  2.093024e+01  1.941729e+01  2.822894e+01  # HC triethylammonium
   1213      53    6   0.060000  2.088362e+01  1.837246e+01  2.966835e+01  # HC triethylammonium
   1214      53    6   0.060000  2.056077e+01  1.550395e+01  2.948287e+01  # HC triethylammonium
   1215      53    6   0.060000  1.880692e+01  1.531207e+01  2.950823e+01  # HC triethylammonium
   1216      53    6   0.060000  1.975487e+01  1.447745e+01  2.827907e+01  # HC triethylammonium
   1217      53    6   0.060000  1.970921e+01  1.618442e+01  2.471730e+01  # HC triethylammonium
   1218      53    6   0.060000  2.060912e+01  1.466997e+01  2.453225e+01  # HC triethylammonium
   1219      53    6   0.060000  1.937950e+01  1.480064e+01  2.578363e+01  # HC triethylammonium
   1220      54    1   0.030000  1.556750e+01  2.518500e+01  2.143846e+01  # N3 triethylammonium
   1221      54    2  -0.170000  1.620846e+01  2.514309e+01  2.005753e+01  # C1 triethylammonium
   1222      54    2  -0.170000  1.486105e+01  2.648675e+01  2.178016e+01  # C1 triethylammonium
   1223      54    2  -0.170000  1.656703e+01  2.470056e+01  2.247754e+01  # C1 triethylammonium
   1224      54    3   0.310000  1.482340e+01  2.447459e+01  2.141641e+01  # H3 triethylammonium
   1225      54    4  -0.050000  1.522503e+01  2.549044e+01  1.895594e+01  # CE triethylammonium
   1226      54    5   0.130000  1.656467e+01  2.411652e+01  1.991437e+01  # H1 triethylammonium
   1227      54    5   0.130000  1.706918e+01  2.581836e+01  2.005900e+01  # H1 triethylammonium
   1228      54    4  -0.050000  1.581680e+01  2.764959e+01  2.195213e+01  # CE triethylammonium
   1229      54    5   0.130000  1.413567e+01  2.668275e+01  2.098777e+01  # H1 triethylammonium
   1230      54    5   0.130000  1.428285e+01  2.631244e+01  2.269237e+01  # H1 triethylammonium
   1231      54    4  -0.050000  1.594942e+01  2.457662e+01  2.385757e+01  # CE triethylammonium
   1232      54    5   0.130000  1.690724e+01  2.371354e+01  2.214398e+01  # H1 triethylammonium
   1233      54    5   0.130000  1.741912e+01  2.538828e+01  2.247500e+01  # H1 triethylammonium
   1234      54    6   0.060000  1.565545e+01  2.523763e+01  1.798134e+01  # HC triethylammonium
   1235      54    6   0.060000  1.428433e+01  2.494050e+01  1.906403e+01  # HC triethylammonium
   1236      54    6   0.060000  1.500580e+01  2.656211e+01  1.893910e+01  # HC triethylammonium
   1237      54    6   0.060000  1.650331e+01  2.775575e+01  2.110697e+01  # HC triethylammonium
   1238      54    6   0.060000  1.524822e+01  2.858198e+01  2.203194e+01  # HC triethylammonium
   1239      54    6   0.060000  1.640702e+01  2.755028e+01  2.286789e+01  # HC triethylammonium
   1240      54    6   0.060000  1.503613e+01  2.397471e+01  2.383646e+01  # HC triethylammonium
   1241      54    6   0.060000  1.665907e+01  2.409223e+01  2.453639e+01  # HC triethylammonium
   1242      54    6   0.060000  1.571444e+01  2.555519e+01  2.428655e+01  # HC triethylammonium
   1243      55    1   0.030000  1.872943e+01  2.016417e+01  2.323253e+01  # N3 triethylammonium
   1244      55    2  -0.170000  1.973436e+01  2.059592e+01  2.217270e+01  # C1 triethylammonium
   1245      55    2  -0.170000  1.876505e+01  2.097225e+01  2.451945e+01  # C1 triethylammonium
   1246      55    2  -0.170000  1.879969e+01  1.865578e+01  2.341492e+01  # C1 triethylammonium
   1247      55    3   0.310000  1.780367e+01  2.035179e+01  2.282437e+01  # H3 triethylammonium
   1248      55    4  -0.050000  1.962751e+01  2.207358e+01  2.184651e+01  # CE triethylammonium
   1249      55    5   0.130000  1.950640e+01  2.000966e+01  2.127518e+01  # H1 triethylammonium
   1250      55    5   0.130000  2.073630e+01  2.033042e+01  2.252264e+01  # H1 triethylammonium
   1251      55    4  -0.050000  2.003106e+01  2.074985e+01  2.532130e+01  # CE triethylammonium
   1252      55    5   0.130000  1.864595e+01  2.202343e+01  2.424874e+01  # H1 triethylammonium
   1253      55    5   0.130000  1.787775e+01  2.069969e+01  2.509845e+01  # H1 triethylammonium
   1254      55    4  -0.050000  1.772362e+01  1.813753e+01  2.435022e+01  # CE triethylammonium
   1255      55    5   0.130000  1.865690e+01  1.821631e+01  2.242110e+01  # H1 triethylammonium
   1256      55    5   0.130000  1.980348e+01  1.840378e+01  2.377260e+01  # H1 triethylammonium
   1257      55    6   0.060000  2.020078e+01  2.229569e+01  2.094040e+01  # HC triethylammonium
   1258      55    6   0.060000  1.858955e+01  2.237661e+01  2.167378e+01  # HC triethylammonium
   1259      55    6   0.060000  2.004536e+01  2.269092e+01  2.264722e+01  # HC triethylammonium
   1260      55    6   0.060000  2.093572e+01  2.088070e+01  2.472022e+01  # HC triethylammonium
   1261      55    6   0.060000  2.007572e+01  2.147250e+01  2.614277e+01  # HC triethylammonium
   1262      55    6   0.060000  2.005220e+01  1.975085e+01  2.576671e+01  # HC triethylammonium
   1263      55    6   0.060000  1.672971e+01  1.848121e+01  2.404882e+01  # HC triethylammonium
   1264      55    6   0.060000  1.772173e+01  1.704260e+01  2.433851e+01  # HC triethylammonium
   1265      55    6   0.060000  1.790220e+01  1.844541e+01  2.538471e+01  # HC triethylammonium
   1266      56    1   0.030000  2.492746e+01  1.291861e+01  2.778267e+01  # N3 triethylammonium
   1267      56    2  -0.170000  2.613458e+01  1.384725e+01  2.778210e+01  # C1 triethylammonium
   1268      56    2  -0.170000  2.525765e+01  1.143494e+01  2.779307e+01  # C1 triethylammonium
   1269      56    2  -0.170000  2.394998e+01  1.335515e+01  2.670220e+01  # C1 triethylammonium
   1270      56    3   0.310000  2.444892e+01  1.309245e+01  2.867688e+01  # H3 triethylammonium
   1271      56    4  -0.050000  2.709073e+01  1.354872e+01  2.892138e+01  # CE triethylammonium
   1272      56    5   0.130000  2.574117e+01  1.486378e+01  2.789661e+01  # H1 triethylammonium
   1273      56    5   0.130000  2.662764e+01  1.376717e+01  2.680880e+01  # H1 triethylammonium
   1274      56    4  -0.050000  2.589120e+01  1.096209e+01  2.650069e+01  # CE triethylammonium
   1275      56    5   0.130000  2.591330e+01  1.125198e+01  2.864694e+01  # H1 triethylammonium
   1276      56    5   0.130000  2.432720e+01  1.089682e+01  2.799688e+01  # H1 triethylammonium
   1277      56    4  -0.050000  2.265604e+01  1.256429e+01  2.674187e+01  # CE triethylammonium
   1278      56    5   0.130000  2.373280e+01  1.441294e+01  2.688959e+01  # H1 triethylammonium
   1279      56    5   0.130000  2.445191e+01  1.326297e+01  2.573340e+01  # H1 triethylammonium
   1280      56    6   0.060000  2.781714e+01  1.436228e+01  2.901866e+01  # HC triethylammonium
   1281      56    6   0.060000  2.656459e+01  1.344802e+01  2.987640e+01  # HC triethylammonium
   1282      56    6   0.060000  2.766044e+01  1.263342e+01  2.873565e+01  # HC triethylammonium
   1283      56    6   0.060000  2.674466e+01  1.157832e+01  2.620286e+01  # HC triethylammonium
   1284      56    6   0.060000  2.625456e+01  9.936635e+00  2.662493e+01  # HC triethylammonium
   1285      56    6   0.060000  2.516741e+01  1.095252e+01  2.568040e+01  # HC triethylammonium
   1286      56    6   0.060000  2.221182e+01  1.257054e+01  2.774160e+01  # HC triethylammonium
   1287      56    6   0.060000  2.193360e+01  1.300520e+01  2.604710e+01  # HC triethylammonium
   1288      56    6   0.060000  2.280516e+01  1.152603e+01  2.643105e+01  # HC triethylammonium
   1289      57    1   0.030000  2.445099e+01  9.335677e+00  8.348503e+00  # N3 triethylammonium
   1290      57    2  -0.170000  2.500051e+01  8.101796e+00  9.052132e+00  # C1 triethylammonium
   1291      57    2  -0.170000  2.317923e+01  9.907770e+00  8.953267e+00  # C1 triethylammonium
   1292      57    2  -0.170000  2.439681e+01  9.083950e+00  6.849457e+00  # C1 triethylammonium
   1293      57    3   0.310000  2.516294e+01  1.006655e+01  8.481892e+00  # H3 triethylammonium
   1294      57    4  -0.050000  2.520373e+01  8.329481e+00  1.053812e+01  # CE triethylammonium
   1295      57    5   0.130000  2.596729e+01  7.885038e+00  8.583562e+00  # H1 triethylammonium
   1296      57    5   0.130000  2.432018e+01  7.266832e+00  8.860233e+00  # H1 triethylammonium
   1297      57    4  -0.050000  2.197845e+01  9.002783e+00  8.767950e+00  # CE triethylammonium
   1298      57    5   0.130000  2.337582e+01  1.009513e+01  1.001096e+01  # H1 triethylammonium
   1299      57    5   0.130000  2.301187e+01  1.088556e+01  8.492009e+00  # H1 triethylammonium
   1300      57    4  -0.050000  2.399702e+01  1.032308e+01  6.070989e+00  # CE triethylammonium
   1301      57    5   0.130000  2.540587e+01  8.778806e+00  6.549635e+00  # H1 triethylammonium
   1302      57    5   0.130000  2.370741e+01  8.252385e+00  6.669873e+00  # H1 triethylammonium
   1303      57    6   0.060000  2.579662e+01  7.511700e+00  1.096089e+01  # HC triethylammonium
   1304      57    6   0.060000  2.573145e+01  9.268299e+00  1.073599e+01  # HC triethylammonium
   1305      57    6   0.060000  2.425039e+01  8.342266e+00  1.107460e+01  # HC triethylammonium
   1306      57    6   0.060000  2.217264e+01  7.977207e+00  9.095545e+00  # HC triethylammonium
   1307      57    6   0.060000  2.113902e+01  9.382684e+00  9.359605e+00  # HC triethylammonium
   1308      57    6   0.060000  2.165389e+01  8.977563e+00  7.723505e+00  # HC triethylammonium
   1309      57    6   0.060000  2.462239e+01  1.118153e+01  6.333315e+00  # HC triethylammonium
   1310      57    6   0.060000  2.411041e+01  1.013632e+01  4.998007e+00  # HC triethylammonium
   1311      57    6   0.060000  2.294915e+01  1.058812e+01  6.239920e+00  # HC triethylammonium
   1312      58    1   0.030000  2.322616e+01  5.568305e+00  3.293844e+01  # N3 triethylammonium
   1313      58    2  -0.170000  2.473196e+01  5.370070e+00  3.282525e+01  # C1 triethylammonium
   1314      58    2  -0.170000  2.243890e+01  4.320085e+00  3.330253e+01  # C1 triethylammonium
   1315      58    2  -0.170000  2.271902e+01  6.318083e+00  3.171611e+01  # C1 triethylammonium
   1316      58    3   0.310000  2.309348e+01  6.209338e+00  3.373236e+01  # H3 triethylammonium
   1317      58    4  -0.050000  2.532506e+01  4.742555e+00  3.407255e+01  # CE triethylammonium
   1318      58    5   0.130000  2.516386e+01  6.367025e+00  3.268116e+01  # H1 triethylammonium
   1319      58    5   0.130000  2.493184e+01  4.766767e+00  3.193480e+01  # H1 triethylammonium
   1320      58    4  -0.050000  2.243602e+01  3.281351e+00  3.219970e+01  # CE triethylammonium
   1321      58    5   0.130000  2.286794e+01  3.920140e+00  3.422364e+01  # H1 triethylammonium
   1322      58    5   0.130000  2.142142e+01  4.638274e+00  3.354814e+01  # H1 triethylammonium
   1323      58    4  -0.050000  2.125016e+01  6.679672e+00  3.183011e+01  # CE triethylammonium
   1324      58    5   0.130000  2.331296e+01  7.236625e+00  3.164731e+01  # H1 triethylammonium
   1325      58    5   0.130000  2.291736e+01  5.701239e+00  3.083339e+01  # H1 triethylammonium
   1326      58    6   0.060000  2.641697e+01  4.819299e+00  3.404293e+01  # HC triethylammonium
   1327      58    6   0.060000  2.497479e+01  5.240488e+00  3.498271e+01  # HC triethylammonium
   1328      58    6   0.060000  2.508217e+01  3.677905e+00  3.413858e+01  # HC triethylammonium
   1329      58    6   0.060000  2.344287e+01  3.050435e+00  3.183947e+01  # HC triethylammonium
   1330      58    6   0.060000  2.200045e+01  2.349667e+00  3.257555e+01  # HC triethylammonium
   1331      58    6   0.060000  2.182859e+01  3.603131e+00  3.134863e+01  # HC triethylammonium
   1332      58    6   0.060000  2.103691e+01  7.203880e+00  3.276636e+01  # HC triethylammonium
   1333      58    6   0.060000  2.096746e+01  7.337222e+00  3.100141e+01  # HC triethylammonium
   1334      58    6   0.060000  2.060856e+01  5.795649e+00  3.176936e+01  # HC triethylammonium
   1335      59    1   0.030000  2.145269e+01  3.129713e+01  1.403187e+01  # N3 triethylammonium
   1336      59    2  -0.170000  2.029283e+01  3.031940e+01  1.389657e+01  # C1 triethylammonium
   1337      59    2  -0.170000  2.112197e+01  3.259039e+01  1.475885e+01  # C1 triethylammonium
   1338      59    2  -0.170000  2.213128e+01  3.147054e+01  1.268173e+01  # C1 triethylammonium
   1339      59    3   0.310000  2.214219e+01  3.082258e+01  1.463040e+01  # H3 triethylammonium
   1340      59    4  -0.050000  1.965095e+01  2.999958e+01  1.523335e+01  # CE triethylammonium
   1341      59    5   0.130000  2.071181e+01  2.940205e+01  1.346745e+01  # H1 triethylammonium
   1342      59    5   0.130000  1.957028e+01  3.074088e+01  1.319150e+01  # H1 triethylammonium
   1343      59    4  -0.050000  2.017961e+01  3.348264e+01  1.397715e+01  # CE triethylammonium
   1344      59    5   0.130000  2.070027e+01  3.232109e+01  1.572948e+01  # H1 triethylammonium
   1345      59    5   0.130000  2.206874e+01  3.309890e+01  1.496348e+01  # H1 triethylammonium
   1346      59    4  -0.050000  2.338627e+01  3.231799e+01  1.277201e+01  # CE triethylammonium
   1347      59    5   0.130000  2.239839e+01  3.046486e+01  1.233752e+01  # H1 triethylammonium
   1348      59    5   0.130000  2.140115e+01  3.190000e+01  1.198783e+01  # H1 triethylammonium
   1349      59    6   0.060000  1.897988e+01  2.914093e+01  1.512649e+01  # HC triethylammonium
   1350      59    6   0.060000  2.039925e+01  2.975245e+01  1.599361e+01  # HC triethylammonium
   1351      59    6   0.060000  1.904439e+01  3.083487e+01  1.559555e+01  # HC triethylammonium
   1352      59    6   0.060000  1.928445e+01  3.295213e+01  1.363939e+01  # HC triethylammonium
   1353      59    6   0.060000  1.984964e+01  3.431168e+01  1.461184e+01  # HC triethylammonium
   1354      59    6   0.060000  2.067390e+01  3.391929e+01  1.310431e+01  # HC triethylammonium
   1355      59    6   0.060000  2.406752e+01  3.194622e+01  1.354306e+01  # HC triethylammonium
   1356      59    6   0.060000  2.391498e+01  3.229621e+01  1.181336e+01  # HC triethylammonium
   1357      59    6   0.060000  2.315420e+01  3.336568e+01  1.298487e+01  # HC triethylammonium
   1358      60    1   0.030000  1.143108e+01  2.665013e+01  3.323987e+01  # N3 triethylammonium
   1359      60    2  -0.170000  1.187611e+01  2.804026e+01  3.280512e+01  # C1 triethylammonium
   1360      60    2  -0.170000  1.186131e+01  2.551998e+01  3.231896e+01  # C1 triethylammonium
   1361      60    2  -0.170000  9.949539e+00  2.667503e+01  3.358316e+01  # C1 triethylammonium
   1362      60    3   0.310000  1.191908e+01  2.647192e+01  3.412810e+01  # H3 triethylammonium
   1363      60    4  -0.050000  1.337302e+01  2.811847e+01  3.257180e+01  # CE triethylammonium
   1364      60    5   0.130000  1.160058e+01  2.872044e+01  3.361915e+01  # H1 triethylammonium
   1365      60    5   0.130000  1.131219e+01  2.831558e+01  3.190900e+01  # H1 triethylammonium
   1366      60    4  -0.050000  1.116510e+01  2.555700e+01  3.097392e+01  # CE triethylammonium
   1367      60    5   0.130000  1.294561e+01  2.558455e+01  3.220678e+01  # H1 triethylammonium
   1368      60    5   0.130000  1.166006e+01  2.458053e+01  3.284220e+01  # H1 triethylammonium
   1369      60    4  -0.050000  9.470364e+00  2.535833e+01  3.416451e+01  # CE triethylammonium
   1370      60    5   0.130000  9.817094e+00  2.746827e+01  3.432776e+01  # H1 triethylammonium
   1371      60    5   0.130000  9.395974e+00  2.694364e+01  3.267737e+01  # H1 triethylammonium
   1372      60    6   0.060000  1.367966e+01  2.916557e+01  3.247922e+01  # HC triethylammonium
   1373      60    6   0.060000  1.393600e+01  2.767215e+01  3.339816e+01  # HC triethylammonium
   1374      60    6   0.060000  1.365917e+01  2.761922e+01  3.164137e+01  # HC triethylammonium
   1375      60    6   0.060000  1.123455e+01  2.653737e+01  3.049342e+01  # HC triethylammonium
   1376      60    6   0.060000  1.162948e+01  2.482840e+01  3.030122e+01  # HC triethylammonium
   1377      60    6   0.060000  1.010828e+01  2.528860e+01  3.106294e+01  # HC triethylammonium
   1378      60    6   0.060000  1.009391e+01  2.503960e+01  3.500501e+01  # HC triethylammonium
   1379      60    6   0.060000  8.442969e+00  2.546810e+01  3.452705e+01  # HC triethylammonium
   1380      60    6   0.060000  9.460670e+00  2.456266e+01  3.341374e+01  # HC triethylammonium
   1381      61    1   0.030000  2.321703e+01  2.580160e+01  5.276970e+00  # N3 triethylammonium
   1382      61    2  -0.170000  2.249155e+01  2.711572e+01  5.534450e+00  # C1 triethylammonium
   1383      61    2  -0.170000  2.440055e+01  2.553065e+01  6.191441e+00  # C1 triethylammonium
   1384      61    2  -0.170000  2.350483e+01  2.566291e+01  3.789902e+00  # C1 triethylammonium
   1385      61    3   0.310000  2.253410e+01  2.506422e+01  5.497691e+00  # H3 triethylammonium
   1386      61    4  -0.050000  2.205783e+01  2.725970e+01  6.980980e+00  # CE triethylammonium
   1387      61    5   0.130000  2.160529e+01  2.710969e+01  4.889675e+00  # H1 triethylammonium
   1388      61    5   0.130000  2.314731e+01  2.793504e+01  5.225380e+00  # H1 triethylammonium
   1389      61    4  -0.050000  2.556384e+01  2.646947e+01  5.945272e+00  # CE triethylammonium
   1390      61    5   0.130000  2.404209e+01  2.560377e+01  7.220334e+00  # H1 triethylammonium
   1391      61    5   0.130000  2.469551e+01  2.448808e+01  6.040208e+00  # H1 triethylammonium
   1392      61    4  -0.050000  2.409556e+01  2.430994e+01  3.440867e+00  # CE triethylammonium
   1393      61    5   0.130000  2.254414e+01  2.578120e+01  3.275810e+00  # H1 triethylammonium
   1394      61    5   0.130000  2.416768e+01  2.648301e+01  3.494789e+00  # H1 triethylammonium
   1395      61    6   0.060000  2.135904e+01  2.809726e+01  7.076967e+00  # HC triethylammonium
   1396      61    6   0.060000  2.155705e+01  2.635687e+01  7.345871e+00  # HC triethylammonium
   1397      61    6   0.060000  2.290838e+01  2.747801e+01  7.633471e+00  # HC triethylammonium
   1398      61    6   0.060000  2.526197e+01  2.752098e+01  5.952483e+00  # HC triethylammonium
   1399      61    6   0.060000  2.631328e+01  2.633799e+01  6.732725e+00  # HC triethylammonium
   1400      61    6   0.060000  2.605503e+01  2.625629e+01  4.991268e+00  # HC triethylammonium
   1401      61    6   0.060000  2.348354e+01  2.349151e+01  3.831288e+00  # HC triethylammonium
   1402      61    6   0.060000  2.415138e+01  2.420224e+01  2.352607e+00  # HC triethylammonium
   1403      61    6   0.060000  2.511395e+01  2.420027e+01  3.825173e+00  # HC triethylammonium
   1404      62    1   0.030000  1.261506e+01  3.327690e+01  2.302719e+01  # N3 triethylammonium
   1405      62    2  -0.170000  1.271309e+01  3.405883e+01  2.433046e+01  # C1 triethylammonium
   1406      62    2  -0.170000  1.392961e+01  3.270851e+01  2.251797e+01  # C1 triethylammonium
   1407      62    2  -0.170000  1.182248e+01  3.408278e+01  2.200945e+01  # C1 triethylammonium
   1408      62    3   0.310000  1.203452e+01  3.245543e+01  2.324397e+01  # H3 triethylammonium
   1409      62    4  -0.050000  1.338018e+01  3.325834e+01  2.543296e+01  # CE triethylammonium
   1410      62    5   0.130000  1.168445e+01  3.429485e+01  2.462611e+01  # H1 triethylammonium
   1411      62    5   0.130000  1.324587e+01  3.499305e+01  2.412992e+01  # H1 triethylammonium
   1412      62    4  -0.050000  1.489522e+01  3.377942e+01  2.205326e+01  # CE triethylammonium
   1413      62    5   0.130000  1.435957e+01  3.210811e+01  2.332241e+01  # H1 triethylammonium
   1414      62    5   0.130000  1.369046e+01  3.201364e+01  2.170754e+01  # H1 triethylammonium
   1415      62    4  -0.050000  1.155951e+01  3.330277e+01  2.073519e+01  # CE triethylammonium
   1416      62    5   0.130000  1.086675e+01  3.432956e+01  2.248577e+01  # H1 triethylammonium
   1417      62    5   0.130000  1.236933e+01  3.501054e+01  2.181133e+01  # H1 triethylammonium
   1418      62    6   0.060000  1.323492e+01  3.376006e+01  2.639535e+01  # HC triethylammonium
   1419      62    6   0.060000  1.296282e+01  3.224897e+01  2.551046e+01  # HC triethylammonium
   1420      62    6   0.060000  1.445976e+01  3.318110e+01  2.527367e+01  # HC triethylammonium
   1421      62    6   0.060000  1.504088e+01  3.456473e+01  2.280085e+01  # HC triethylammonium
   1422      62    6   0.060000  1.587363e+01  3.332923e+01  2.185558e+01  # HC triethylammonium
   1423      62    6   0.060000  1.455846e+01  3.424507e+01  2.112235e+01  # HC triethylammonium
   1424      62    6   0.060000  1.110922e+01  3.232834e+01  2.094627e+01  # HC triethylammonium
   1425      62    6   0.060000  1.086978e+01  3.386364e+01  2.009589e+01  # HC triethylammonium
   1426      62    6   0.060000  1.247565e+01  3.314785e+01  2.015767e+01  # HC triethylammonium
   1427      63    1   0.030000  2.406192e+01  2.429872e+01  2.318846e+01  # N3 triethylammonium
   1428      63    2  -0.170000  2.453766e+01  2.572143e+01  2.345128e+01  # C1 triethylammonium
   1429      63    2  -0.170000  2.500905e+01  2.320685e+01  2.365875e+01  # C1 triethylammonium
   1430      63    2  -0.170000  2.360075e+01  2.417573e+01  2.174428e+01  # C1 triethylammonium
   1431      63    3   0.310000  2.321497e+01  2.418320e+01  2.376131e+01  # H3 triethylammonium
   1432      63    4  -0.050000  2.489095e+01  2.595000e+01  2.490876e+01  # CE triethylammonium
   1433      63    5   0.130000  2.370736e+01  2.638026e+01  2.317243e+01  # H1 triethylammonium
   1434      63    5   0.130000  2.538684e+01  2.592564e+01  2.279247e+01  # H1 triethylammonium
   1435      63    4  -0.050000  2.629392e+01  2.315459e+01  2.285775e+01  # CE triethylammonium
   1436      63    5   0.130000  2.520835e+01  2.338103e+01  2.471818e+01  # H1 triethylammonium
   1437      63    5   0.130000  2.446686e+01  2.225860e+01  2.359801e+01  # H1 triethylammonium
   1438      63    4  -0.050000  2.297649e+01  2.282445e+01  2.145165e+01  # CE triethylammonium
   1439      63    5   0.130000  2.285169e+01  2.496080e+01  2.159008e+01  # H1 triethylammonium
   1440      63    5   0.130000  2.446036e+01  2.437420e+01  2.109566e+01  # H1 triethylammonium
   1441      63    6   0.060000  2.501287e+01  2.702177e+01  2.509708e+01  # HC triethylammonium
   1442      63    6   0.060000  2.411042e+01  2.557471e+01  2.557879e+01  # HC triethylammonium
   1443      63    6   0.060000  2.583899e+01  2.547070e+01  2.517017e+01  # HC triethylammonium
   1444      63    6   0.060000  2.678311e+01  2.413056e+01  2.278698e+01  # HC triethylammonium
   1445      63    6   0.060000  2.699830e+01  2.246886e+01  2.334008e+01  # HC triethylammonium
   1446      63    6   0.060000  2.611894e+01  2.278019e+01  2.184481e+01  # HC triethylammonium
   1447      63    6   0.060000  2.218733e+01  2.258247e+01  2.216965e+01  # HC triethylammonium
   1448      63    6   0.060000  2.253304e+01  2.283279e+01  2.045050e+01  # HC triethylammonium
   1449      63    6   0.060000  2.372025e+01  2.202228e+01  2.146470e+01  # HC triethylammonium
   1450      64    1   0.030000  2.971295e+01  2.598272e+01  1.002120e+01  # N3 triethylammonium
   1451      64    2  -0.170000  2.881943e+01  2.715048e+01  9.624361e+00  # C1 triethylammonium
   1452      64    2  -0.170000  3.012264e+01  2.595499e+01  1.148469e+01  # C1 triethylammonium
   1453      64    2  -0.170000  3.085780e+01  2.585828e+01  9.027578e+00  # C1 triethylammonium
   1454      64    3   0.310000  2.913720e+01  2.514025e+01  9.888562e+00  # H3 triethylammonium
   1455      64    4  -0.050000  2.758392e+01  2.725265e+01  1.049864e+01  # CE triethylammonium
   1456      64    5   0.130000  2.851510e+01  2.696693e+01  8.587585e+00  # H1 triethylammonium
   1457      64    5   0.130000  2.941692e+01  2.806622e+01  9.659957e+00  # H1 triethylammonium
   1458      64    4  -0.050000  3.106523e+01  2.708166e+01  1.185529e+01  # CE triethylammonium
   1459      64    5   0.130000  2.920835e+01  2.598983e+01  1.208078e+01  # H1 triethylammonium
   1460      64    5   0.130000  3.057906e+01  2.497922e+01  1.167548e+01  # H1 triethylammonium
   1461      64    4  -0.050000  3.170596e+01  2.462550e+01  9.276892e+00  # CE triethylammonium
   1462      64    5   0.130000  3.039994e+01  2.578702e+01  8.034349e+00  # H1 triethylammonium
   1463      64    5   0.130000  3.145229e+01  2.677644e+01  9.078363e+00  # H1 triethylammonium
   1464      64    6   0.060000  2.687010e+01  2.795235e+01  1.005152e+01  # HC triethylammonium
   1465      64    6   0.060000  2.708496e+01  2.628434e+01  1.061014e+01  # HC triethylammonium
   1466      64    6   0.060000  2.782843e+01  2.763866e+01  1.149264e+01  # HC triethylammonium
   1467      64    6   0.060000  3.068951e+01  2.806107e+01  1.154474e+01  # HC triethylammonium
   1468      64    6   0.060000  3.119325e+01  2.710913e+01  1.294244e+01  # HC triethylammonium
   1469      64    6   0.060000  3.205624e+01  2.693514e+01  1.141567e+01  # HC triethylammonium
   1470      64    6   0.060000  3.109340e+01  2.372073e+01  9.331765e+00  # HC triethylammonium
   1471      64    6   0.060000  3.242302e+01  2.450034e+01  8.458857e+00  # HC triethylammonium
   1472      64    6   0.060000  3.228666e+01  2.471216e+01  1.019999e+01  # HC triethylammonium
   1473      65    1   0.030000  1.588268e+01  3.606032e+00  3.333540e+01  # N3 triethylammonium
   1474      65    2  -0.170000  1.535927e+01  2.348431e+00  3.401658e+01  # C1 triethylammonium
   1475      65    2  -0.170000  1.529786e+01  3.883114e+00  3.196004e+01  # C1 triethylammonium
   1476      65    2  -0.170000  1.740180e+01  3.628356e+00  3.340770e+01  # C1 triethylammonium
   1477      65    3   0.310000  1.556506e+01  4.388246e+00  3.392370e+01  # H3 triethylammonium
   1478      65    4  -0.050000  1.384452e+01  2.324925e+00  3.409574e+01  # CE triethylammonium
   1479      65    5   0.130000  1.577477e+01  2.351887e+00  3.503077e+01  # H1 triethylammonium
   1480      65    5   0.130000  1.574965e+01  1.479765e+00  3.347819e+01  # H1 triethylammonium
   1481      65    4  -0.050000  1.573793e+01  2.875751e+00  3.091756e+01  # CE triethylammonium
   1482      65    5   0.130000  1.421091e+01  3.897942e+00  3.206398e+01  # H1 triethylammonium
   1483      65    5   0.130000  1.559542e+01  4.897736e+00  3.167927e+01  # H1 triethylammonium
   1484      65    4  -0.050000  1.798507e+01  4.924721e+00  3.287806e+01  # CE triethylammonium
   1485      65    5   0.130000  1.766342e+01  3.520426e+00  3.446653e+01  # H1 triethylammonium
   1486      65    5   0.130000  1.778027e+01  2.759536e+00  3.285913e+01  # H1 triethylammonium
   1487      65    6   0.060000  1.352102e+01  1.529854e+00  3.477562e+01  # HC triethylammonium
   1488      65    6   0.060000  1.344322e+01  3.273335e+00  3.446790e+01  # HC triethylammonium
   1489      65    6   0.060000  1.339654e+01  2.112141e+00  3.312061e+01  # HC triethylammonium
   1490      65    6   0.060000  1.557753e+01  1.842649e+00  3.123975e+01  # HC triethylammonium
   1491      65    6   0.060000  1.516265e+01  3.025595e+00  2.999798e+01  # HC triethylammonium
   1492      65    6   0.060000  1.679464e+01  2.999387e+00  3.066277e+01  # HC triethylammonium
   1493      65    6   0.060000  1.752617e+01  5.796040e+00  3.335456e+01  # HC triethylammonium
   1494      65    6   0.060000  1.906068e+01  4.954548e+00  3.308103e+01  # HC triethylammonium
   1495      65    6   0.060000  1.786210e+01  5.012409e+00  3.179453e+01  # HC triethylammonium
   1496      66    1   0.030000  4.173044e+00  1.600794e+01  4.772042e+00  # N3 triethylammonium
   1497      66    2  -0.170000  5.379534e+00  1.510094e+01  4.975165e+00  # C1 triethylammonium
   1498      66    2  -0.170000  4.359409e+00  1.710314e+01  3.734640e+00  # C1 triethylammonium
   1499      66    2  -0.170000  3.658380e+00  1.647929e+01  6.123482e+00  # C1 triethylammonium
   1500      66    3   0.310000  3.435324e+00  1.540059e+01  4.390292e+00  # H3 triethylammonium
   1501      66    4  -0.050000  5.865384e+00  1.448976e+01  3.674510e+00  # CE triethylammonium
   1502      66    5   0.130000  5.053897e+00  1.430205e+01  5.651151e+00  # H1 triethylammonium
   1503      66    5   0.130000  6.165234e+00  1.568151e+01  5.467546e+00  # H1 triethylammonium
   1504      66    4  -0.050000  5.353324e+00  1.816201e+01  4.166107e+00  # CE triethylammonium
   1505      66    5   0.130000  4.669690e+00  1.662279e+01  2.804345e+00  # H1 triethylammonium
   1506      66    5   0.130000  3.374817e+00  1.754005e+01  3.543518e+00  # H1 triethylammonium
   1507      66    4  -0.050000  2.368374e+00  1.726876e+01  6.005575e+00  # CE triethylammonium
   1508      66    5   0.130000  3.476548e+00  1.557668e+01  6.717997e+00  # H1 triethylammonium
   1509      66    5   0.130000  4.449907e+00  1.706515e+01  6.602309e+00  # H1 triethylammonium
   1510      66    6   0.060000  6.578846e+00  1.368647e+01  3.885994e+00  # HC triethylammonium
   1511      66    6   0.060000  5.040303e+00  1.406586e+01  3.092637e+00  # HC triethylammonium
   1512      66    6   0.060000  6.388568e+00  1.522634e+01  3.057609e+00  # HC triethylammonium
   1513      66    6   0.060000  6.303931e+00  1.773370e+01  4.497375e+00  # HC triethylammonium
   1514      66    6   0.060000  5.569116e+00  1.882666e+01  3.323084e+00  # HC triethylammonium
   1515      66    6   0.060000  4.952273e+00  1.878190e+01  4.973399e+00  # HC triethylammonium
   1516      66    6   0.060000  1.613530e+00  1.672186e+01  5.432909e+00  # HC triethylammonium
   1517      66    6   0.060000  1.962337e+00  1.746188e+01  7.004006e+00  # HC triethylammonium
   1518      66    6   0.060000  2.529839e+00  1.824206e+01  5.532862e+00  # HC triethylammonium
   1519      67    1   0.030000  7.968552e+00  2.749493e+01  2.358216e+01  # N3 triethylammonium
   1520      67    2  -0.170000  7.659197e+00  2.684177e+01  2.492277e+01  # C1 triethylammonium
   1521      67    2  -0.170000  9.183270e+00  2.840863e+01  2.357720e+01  # C1 triethylammonium
   1522      67    2  -0.170000  6.698736e+00  2.810558e+01  2.300935e+01  # C1 triethylammonium
   1523      67    3   0.310000  8.213761e+00  2.672046e+01  2.295057e+01  # H3 triethylammonium
   1524      67    4  -0.050000  8.854156e+00  2.609947e+01  2.549053e+01  # CE triethylammonium
   1525      67    5   0.130000  6.845580e+00  2.613092e+01  2.473854e+01  # H1 triethylammonium
   1526      67    5   0.130000  7.302278e+00  2.761712e+01  2.560707e+01  # H1 triethylammonium
   1527      67    4  -0.050000  8.975405e+00  2.967143e+01  2.438796e+01  # CE triethylammonium
   1528      67    5   0.130000  1.002923e+01  2.782976e+01  2.395366e+01  # H1 triethylammonium
   1529      67    5   0.130000  9.409131e+00  2.864255e+01  2.253264e+01  # H1 triethylammonium
   1530      67    4  -0.050000  6.901084e+00  2.864600e+01  2.160639e+01  # CE triethylammonium
   1531      67    5   0.130000  5.953059e+00  2.730277e+01  2.298325e+01  # H1 triethylammonium
   1532      67    5   0.130000  6.356279e+00  2.888464e+01  2.369842e+01  # H1 triethylammonium
   1533      67    6   0.060000  8.535861e+00  2.546973e+01  2.632787e+01  # HC triethylammonium
   1534      67    6   0.060000  9.324377e+00  2.545452e+01  2.474090e+01  # HC triethylammonium
   1535      67    6   0.060000  9.606346e+00  2.679163e+01  2.588036e+01  # HC triethylammonium
   1536      67    6   0.060000  8.611734e+00  2.946480e+01  2.539884e+01  # HC triethylammonium
   1537      67    6   0.060000  9.926600e+00  3.020525e+01  2.448433e+01  # HC triethylammonium
   1538      67    6   0.060000  8.270915e+00  3.035001e+01  2.389799e+01  # HC triethylammonium
   1539      67    6   0.060000  7.343937e+00  2.789435e+01  2.094628e+01  # HC triethylammonium
   1540      67    6   0.060000  5.935623e+00  2.894229e+01  2.118316e+01  # HC triethylammonium
   1541      67    6   0.060000  7.538079e+00  2.953541e+01  2.160191e+01  # HC triethylammonium
   1542      68    1   0.030000  1.852456e+01  2.789167e+01  9.817287e+00  # N3 triethylammonium
   1543      68    2  -0.170000  1.737749e+01  2.881920e+01  9.438567e+00  # C1 triethylammonium
   1544      68    2  -0.170000  1.867517e+01  2.666238e+01  8.936056e+00  # C1 triethylammonium
   1545      68    2  -0.170000  1.848077e+01  2.761339e+01  1.131197e+01  # C1 triethylammonium
   1546      68    3   0.310000  1.938187e+01  2.843906e+01  9.661642e+00  # H3 triethylammonium
   1547      68    4  -0.050000  1.743674e+01  2.924301e+01  7.983173e+00  # CE triethylammonium
   1548      68    5   0.130000  1.747345e+01  2.970445e+01  1.007759e+01  # H1 triethylammonium
   1549      68    5   0.130000  1.643638e+01  2.831383e+01  9.674643e+00  # H1 triethylammonium
   1550      68    4  -0.050000  1.753791e+01  2.567508e+01  9.100719e+00  # CE triethylammonium
   1551      68    5   0.130000  1.875438e+01  2.700826e+01  7.903314e+00  # H1 triethylammonium
   1552      68    5   0.130000  1.963658e+01  2.620219e+01  9.182546e+00  # H1 triethylammonium
   1553      68    4  -0.050000  1.968026e+01  2.681407e+01  1.178484e+01  # CE triethylammonium
   1554      68    5   0.130000  1.847862e+01  2.859008e+01  1.180926e+01  # H1 triethylammonium
   1555      68    5   0.130000  1.753895e+01  2.710089e+01  1.153411e+01  # H1 triethylammonium
   1556      68    6   0.060000  1.673889e+01  3.006859e+01  7.808663e+00  # HC triethylammonium
   1557      68    6   0.060000  1.843906e+01  2.958070e+01  7.699725e+00  # HC triethylammonium
   1558      68    6   0.060000  1.713893e+01  2.842789e+01  7.317045e+00  # HC triethylammonium
   1559      68    6   0.060000  1.655608e+01  2.614631e+01  8.996816e+00  # HC triethylammonium
   1560      68    6   0.060000  1.761243e+01  2.489930e+01  8.331537e+00  # HC triethylammonium
   1561      68    6   0.060000  1.758084e+01  2.517375e+01  1.007215e+01  # HC triethylammonium
   1562      68    6   0.060000  2.062046e+01  2.727490e+01  1.146785e+01  # HC triethylammonium
   1563      68    6   0.060000  1.968004e+01  2.676204e+01  1.287861e+01  # HC triethylammonium
   1564      68    6   0.060000  1.965282e+01  2.578439e+01  1.141626e+01  # HC triethylammonium
   1565      69    1   0.030000  1.626477e+01  2.804765e+01  4.263329e+00  # N3 triethylammonium
   1566      69    2  -0.170000  1.547913e+01  2.683283e+01  4.739253e+00  # C1 triethylammonium
   1567      69    2  -0.170000  1.543484e+01  2.912357e+01  3.582141e+00  # C1 triethylammonium
   1568      69    2  -0.170000  1.748956e+01  2.758855e+01  3.487084e+00  # C1 triethylammonium
   1569      69    3   0.310000  1.662769e+01  2.849086e+01  5.118134e+00  # H3 triethylammonium
   1570      69    4  -0.050000  1.431354e+01  2.721494e+01  5.631817e+00  # CE triethylammonium
   1571      69    5   0.130000  1.618295e+01  2.621434e+01  5.307873e+00  # H1 triethylammonium
   1572      69    5   0.130000  1.514829e+01  2.627297e+01  3.859517e+00  # H1 triethylammonium
   1573      69    4  -0.050000  1.488566e+01  2.868434e+01  2.240238e+00  # CE triethylammonium
   1574      69    5   0.130000  1.463187e+01  2.940048e+01  4.268459e+00  # H1 triethylammonium
   1575      69    5   0.130000  1.607131e+01  3.000729e+01  3.478366e+00  # H1 triethylammonium
   1576      69    4  -0.050000  1.839779e+01  2.874297e+01  3.107958e+00  # CE triethylammonium
   1577      69    5   0.130000  1.803397e+01  2.690148e+01  4.144923e+00  # H1 triethylammonium
   1578      69    5   0.130000  1.714554e+01  2.703706e+01  2.605873e+00  # H1 triethylammonium
   1579      69    6   0.060000  1.391541e+01  2.632176e+01  6.124516e+00  # HC triethylammonium
   1580      69    6   0.060000  1.461395e+01  2.792537e+01  6.409032e+00  # HC triethylammonium
   1581      69    6   0.060000  1.349396e+01  2.765201e+01  5.053799e+00  # HC triethylammonium
   1582      69    6   0.060000  1.436248e+01  2.772515e+01  2.295670e+00  # HC triethylammonium
   1583      69    6   0.060000  1.416906e+01  2.942826e+01  1.876772e+00  # HC triethylammonium
   1584      69    6   0.060000  1.567825e+01  2.860416e+01  1.490439e+00  # HC triethylammonium
   1585      69    6   0.060000  1.865340e+01  2.935546e+01  3.977638e+00  # HC triethylammonium
   1586      69    6   0.060000  1.932853e+01  2.835449e+01  2.681530e+00  # HC triethylammonium
   1587      69    6   0.060000  1.794235e+01  2.938532e+01  2.348486e+00  # HC triethylammonium
   1588      70    1   0.030000  2.490954e+01  3.250806e+01  2.593964e+00  # N3 triethylammonium
   1589      70    2  -0.170000  2.549952e+01  3.128591e+01  3.285182e+00  # C1 triethylammonium
   1590      70    2  -0.170000  2.588876e+01  3.364517e+01  2.352045e+00  # C1 triethylammonium
   1591      70    2  -0.170000  2.361454e+01  3.290693e+01  3.284850e+00  # C1 triethylammonium
   1592      70    3   0.310000  2.463608e+01  3.218631e+01  1.655594e+00  # H3 triethylammonium
   1593      70    4  -0.050000  2.672576e+01  3.075476e+01  2.567198e+00  # CE triethylammonium
   1594      70    5   0.130000  2.471575e+01  3.051983e+01  3.278188e+00  # H1 triethylammonium
   1595      70    5   0.130000  2.572232e+01  3.155343e+01  4.322305e+00  # H1 triethylammonium
   1596      70    4  -0.050000  2.633860e+01  3.431922e+01  3.632092e+00  # CE triethylammonium
   1597      70    5   0.130000  2.673687e+01  3.323436e+01  1.800311e+00  # H1 triethylammonium
   1598      70    5   0.130000  2.539948e+01  3.435761e+01  1.681319e+00  # H1 triethylammonium
   1599      70    4  -0.050000  2.289553e+01  3.402815e+01  2.558781e+00  # CE triethylammonium
   1600      70    5   0.130000  2.297868e+01  3.201425e+01  3.290936e+00  # H1 triethylammonium
   1601      70    5   0.130000  2.385165e+01  3.317979e+01  4.318458e+00  # H1 triethylammonium
   1602      70    6   0.060000  2.698473e+01  2.976522e+01  2.958048e+00  # HC triethylammonium
   1603      70    6   0.060000  2.655527e+01  3.065970e+01  1.489738e+00  # HC triethylammonium
   1604      70    6   0.060000  2.759475e+01  3.139909e+01  2.730119e+00  # HC triethylammonium
   1605      70    6   0.060000  2.670322e+01  3.360451e+01  4.375788e+00  # HC triethylammonium
   1606      70    6   0.060000  2.715836e+01  3.501127e+01  3.412792e+00  # HC triethylammonium
   1607      70    6   0.060000  2.553100e+01  3.490500e+01  4.080944e+00  # HC triethylammonium
   1608      70    6   0.060000  2.275521e+01  3.379553e+01  1.499050e+00  # HC triethylammonium
   1609      70    6   0.060000  2.190786e+01  3.418234e+01  3.005705e+00  # HC triethylammonium
   1610      70    6   0.060000  2.343475e+01  3.497647e+01  2.641070e+00  # HC triethylammonium
   1611      71    1   0.030000  5.565664e+00  3.154325e+01  8.929827e+00  # N3 triethylammonium
   1612      71    2  -0.170000  6.074609e+00  3.010780e+01  8.931747e+00  # C1 triethylammonium
   1613      71    2  -0.170000  4.784400e+00  3.194676e+01  7.689987e+00  # C1 triethylammonium
   1614      71    2  -0.170000  6.697048e+00  3.248407e+01  9.314879e+00  # C1 triethylammonium
   1615      71    3   0.310000  4.887233e+00  3.159405e+01  9.701832e+00  # H3 triethylammonium
   1616      71    4  -0.050000  4.965177e+00  2.910363e+01  8.682582e+00  # CE triethylammonium
   1617      71    5   0.130000  6.503393e+00  2.993442e+01  9.925375e+00  # H1 triethylammonium
   1618      71    5   0.130000  6.869803e+00  3.002554e+01  8.184931e+00  # H1 triethylammonium
   1619      71    4  -0.050000  5.647651e+00  3.202379e+01  6.447373e+00  # CE triethylammonium
   1620      71    5   0.130000  3.973206e+00  3.122631e+01  7.565952e+00  # H1 triethylammonium
   1621      71    5   0.130000  4.312197e+00  3.291028e+01  7.903266e+00  # H1 triethylammonium
   1622      71    4  -0.050000  6.225557e+00  3.391689e+01  9.476176e+00  # CE triethylammonium
   1623      71    5   0.130000  7.088559e+00  3.212254e+01  1.027260e+01  # H1 triethylammonium
   1624      71    5   0.130000  7.482224e+00  3.239859e+01  8.556447e+00  # H1 triethylammonium
   1625      71    6   0.060000  5.321966e+00  2.809327e+01  8.908218e+00  # HC triethylammonium
   1626      71    6   0.060000  4.090137e+00  2.930219e+01  9.310198e+00  # HC triethylammonium
   1627      71    6   0.060000  4.653227e+00  2.910460e+01  7.634001e+00  # HC triethylammonium
   1628      71    6   0.060000  6.239501e+00  3.111693e+01  6.291917e+00  # HC triethylammonium
   1629      71    6   0.060000  5.010428e+00  3.215457e+01  5.566541e+00  # HC triethylammonium
   1630      71    6   0.060000  6.328056e+00  3.287962e+01  6.485345e+00  # HC triethylammonium
   1631      71    6   0.060000  5.370011e+00  3.398437e+01  1.015465e+01  # HC triethylammonium
   1632      71    6   0.060000  7.035441e+00  3.452661e+01  9.890130e+00  # HC triethylammonium
   1633      71    6   0.060000  5.948148e+00  3.436341e+01  8.516754e+00  # HC triethylammonium
   1634      72    1   0.030000  3.171001e+01  1.147711e+01  7.763194e+00  # N3 triethylammonium
   1635      72    2  -0.170000  3.220743e+01  1.147092e+01  6.323725e+00  # C1 triethylammonium
   1636      72    2  -0.170000  3.273390e+01  1.104249e+01  8.799136e+00  # C1 triethylammonium
   1637      72    2  -0.170000  3.036952e+01  1.076262e+01  7.840710e+00  # C1 triethylammonium
   1638      72    3   0.310000  3.151208e+01  1.246334e+01  7.980058e+00  # H3 triethylammonium
   1639      72    4  -0.050000  3.347863e+01  1.228051e+01  6.150733e+00  # CE triethylammonium
   1640      72    5   0.130000  3.140897e+01  1.191732e+01  5.720065e+00  # H1 triethylammonium
   1641      72    5   0.130000  3.234495e+01  1.043088e+01  6.013523e+00  # H1 triethylammonium
   1642      72    4  -0.050000  3.308609e+01  9.572310e+00  8.700408e+00  # CE triethylammonium
   1643      72    5   0.130000  3.361688e+01  1.167190e+01  8.670090e+00  # H1 triethylammonium
   1644      72    5   0.130000  3.232264e+01  1.128492e+01  9.783478e+00  # H1 triethylammonium
   1645      72    4  -0.050000  2.974422e+01  1.085835e+01  9.219525e+00  # CE triethylammonium
   1646      72    5   0.130000  2.971415e+01  1.125310e+01  7.111917e+00  # H1 triethylammonium
   1647      72    5   0.130000  3.052172e+01  9.721962e+00  7.535944e+00  # H1 triethylammonium
   1648      72    6   0.060000  3.367833e+01  1.243405e+01  5.085104e+00  # HC triethylammonium
   1649      72    6   0.060000  3.340091e+01  1.326382e+01  6.626204e+00  # HC triethylammonium
   1650      72    6   0.060000  3.434535e+01  1.175715e+01  6.565140e+00  # HC triethylammonium
   1651      72    6   0.060000  3.336675e+01  9.276313e+00  7.685298e+00  # HC triethylammonium
   1652      72    6   0.060000  3.393841e+01  9.355502e+00  9.352756e+00  # HC triethylammonium
   1653      72    6   0.060000  3.225669e+01  8.939274e+00  9.029346e+00  # HC triethylammonium
   1654      72    6   0.060000  2.969166e+01  1.189477e+01  9.565789e+00  # HC triethylammonium
   1655      72    6   0.060000  2.872522e+01  1.045860e+01  9.190238e+00  # HC triethylammonium
   1656      72    6   0.060000  3.029695e+01  1.026977e+01  9.957695e+00  # HC triethylammonium
   1657      73    1   0.030000  1.663872e+01  5.478075e+00  2.652185e+01  # N3 triethylammonium
   1658      73    2  -0.170000  1.586329e+01  6.780316e+00  2.637217e+01  # C1 triethylammonium
   1659      73    2  -0.170000  1.815021e+01  5.631577e+00  2.656902e+01  # C1 triethylammonium
   1660      73    2  -0.170000  1.612393e+01  4.461431e+00  2.551445e+01  # C1 triethylammonium
   1661      73    3   0.310000  1.637829e+01  5.109276e+00  2.744652e+01  # H3 triethylammonium
   1662      73    4  -0.050000  1.623660e+01  7.797566e+00  2.743384e+01  # CE triethylammonium
   1663      73    5   0.130000  1.480339e+01  6.521269e+00  2.647580e+01  # H1 triethylammonium
   1664      73    5   0.130000  1.603510e+01  7.167034e+00  2.536333e+01  # H1 triethylammonium
   1665      73    4  -0.050000  1.873943e+01  6.081206e+00  2.524770e+01  # CE triethylammonium
   1666      73    5   0.130000  1.838218e+01  6.338500e+00  2.736834e+01  # H1 triethylammonium
   1667      73    5   0.130000  1.856478e+01  4.667734e+00  2.687881e+01  # H1 triethylammonium
   1668      73    4  -0.050000  1.675085e+01  3.093190e+00  2.570462e+01  # CE triethylammonium
   1669      73    5   0.130000  1.504193e+01  4.388304e+00  2.567303e+01  # H1 triethylammonium
   1670      73    5   0.130000  1.630867e+01  4.855936e+00  2.450983e+01  # H1 triethylammonium
   1671      73    6   0.060000  1.551396e+01  8.620240e+00  2.742953e+01  # HC triethylammonium
   1672      73    6   0.060000  1.624075e+01  7.355233e+00  2.843551e+01  # HC triethylammonium
   1673      73    6   0.060000  1.721977e+01  8.236089e+00  2.723911e+01  # HC triethylammonium
   1674      73    6   0.060000  1.824123e+01  6.969266e+00  2.484773e+01  # HC triethylammonium
   1675      73    6   0.060000  1.979650e+01  6.331900e+00  2.538471e+01  # HC triethylammonium
   1676      73    6   0.060000  1.868912e+01  5.287505e+00  2.449647e+01  # HC triethylammonium
   1677      73    6   0.060000  1.665729e+01  2.748573e+00  2.673870e+01  # HC triethylammonium
   1678      73    6   0.060000  1.624954e+01  2.365410e+00  2.505805e+01  # HC triethylammonium
   1679      73    6   0.060000  1.780941e+01  3.089736e+00  2.542842e+01  # HC triethylammonium
   1680      74    1   0.030000  1.609654e+01  2.205134e+01  3.298517e+01  # N3 triethylammonium
   1681      74    2  -0.170000  1.486753e+01  2.295081e+01  3.298576e+01  # C1 triethylammonium
   1682      74    2  -0.170000  1.580211e+01  2.056038e+01  3.295791e+01  # C1 triethylammonium
   1683      74    2  -0.170000  1.705547e+01  2.250043e+01  3.407706e+01  # C1 triethylammonium
   1684      74    3   0.310000  1.657721e+01  2.224539e+01  3.209627e+01  # H3 triethylammonium
   1685      74    4  -0.050000  1.392705e+01  2.264077e+01  3.183655e+01  # CE triethylammonium
   1686      74    5   0.130000  1.523727e+01  2.397753e+01  3.288405e+01  # H1 triethylammonium
   1687      74    5   0.130000  1.436953e+01  2.284936e+01  3.395454e+01  # H1 triethylammonium
   1688      74    4  -0.050000  1.517078e+01  2.005977e+01  3.424090e+01  # CE triethylammonium
   1689      74    5   0.130000  1.515720e+01  2.037024e+01  3.209745e+01  # H1 triethylammonium
   1690      74    5   0.130000  1.674664e+01  2.004670e+01  3.275582e+01  # H1 triethylammonium
   1691      74    4  -0.050000  1.836824e+01  2.174116e+01  3.403935e+01  # CE triethylammonium
   1692      74    5   0.130000  1.724856e+01  2.356491e+01  3.390156e+01  # H1 triethylammonium
   1693      74    5   0.130000  1.654891e+01  2.238671e+01  3.504116e+01  # H1 triethylammonium
   1694      74    6   0.060000  1.318206e+01  2.343766e+01  3.174176e+01  # HC triethylammonium
   1695      74    6   0.060000  1.446232e+01  2.256211e+01  3.088454e+01  # HC triethylammonium
   1696      74    6   0.060000  1.337813e+01  2.171032e+01  3.200914e+01  # HC triethylammonium
   1697      74    6   0.060000  1.430066e+01  2.065246e+01  3.453833e+01  # HC triethylammonium
   1698      74    6   0.060000  1.483302e+01  1.902720e+01  3.410401e+01  # HC triethylammonium
   1699      74    6   0.060000  1.588866e+01  2.005940e+01  3.506642e+01  # HC triethylammonium
   1700      74    6   0.060000  1.881939e+01  2.176791e+01  3.304307e+01  # HC triethylammonium
   1701      74    6   0.060000  1.907488e+01  2.219233e+01  3.474372e+01  # HC triethylammonium
   1702      74    6   0.060000  1.824182e+01  2.069661e+01  3.433897e+01  # HC triethylammonium
   1703      75    7   0.700000  2.763303e+01  7.966497e+00  6.854178e+00  # CO2 acetate
   1704      75    8  -0.280000  2.907363e+01  7.523021e+00  6.666110e+00  # CTA acetate
   1705      75    9  -0.800000  2.676692e+01  7.059648e+00  6.712325e+00  # O2 acetate
   1706      75    9  -0.800000  2.748739e+01  9.190513e+00  7.129395e+00  # O2 acetate
   1707      75    6   0.060000  2.913447e+01  6.456433e+00  6.430479e+00  # HC acetate
   1708      75    6   0.060000  2.953052e+01  8.084976e+00  5.846173e+00  # HC acetate
   1709      75    6   0.060000  2.964109e+01  7.707604e+00  7.583036e+00  # HC acetate
   1710      76    7   0.700000  3.162096e+01  3.031997e+01  3.525754e+00  # CO2 acetate
   1711      76    8  -0.280000  3.020990e+01  3.059990e+01  3.038005e+00  # CTA acetate
   1712      76    9  -0.800000  3.228857e+01  3.133820e+01  3.857633e+00  # O2 acetate
   1713      76    9  -0.800000  3.194522e+01  2.909935e+01  3.536275e+00  # O2 acetate
   1714      76    6   0.060000  2.998892e+01  3.167126e+01  3.051857e+00  # HC acetate
   1715      76    6   0.060000  3.009285e+01  3.023584e+01  2.013020e+00  # HC acetate
   1716      76    6   0.060000  2.948714e+01  3.008931e+01  3.681244e+00  # HC acetate
   1717      77    7   0.700000  4.157202e+00  2.634897e+01  1.720492e+01  # CO2 acetate
   1718      77    8  -0.280000  4.831703e+00  2.624133e+01  1.584816e+01  # CTA acetate
   1719      77    9  -0.800000  2.958676e+00  2.674346e+01  1.718134e+01  # O2 acetate
   1720      77    9  -0.800000  4.885871e+00  2.602843e+01  1.818547e+01  # O2 acetate
   1721      77    6   0.060000  4.152082e+00  2.653131e+01  1.504139e+01  # HC acetate
   1722      77    6   0.060000  5.706586e+00  2.689736e+01  1.581595e+01  # HC acetate
   1723      77    6   0.060000  5.154014e+00  2.521031e+01  1.567509e+01  # HC acetate
   1724      78    7   0.700000  2.684655e+01  1.734391e+01  2.808424e+01  # CO2 acetate
   1725      78    8  -0.280000  2.536405e+01  1.736221e+01  2.841474e+01  # CTA acetate
   1726      78    9  -0.800000  2.712626e+01  1.712412e+01  2.687342e+01  # O2 acetate
   1727      78    9  -0.800000  2.761099e+01  1.755191e+01  2.906788e+01  # O2 acetate
   1728      78    6   0.060000  2.475531e+01  1.717649e+01  2.752492e+01  # HC acetate
   1729      78    6   0.060000  2.513964e+01  1.658856e+01  2.915497e+01  # HC acetate
   1730      78    6   0.060000  2.508775e+01  1.833785e+01  2.882539e+01  # HC acetate
   1731      79    7   0.700000  1.823848e+01  7.547702e+00  6.166220e+00  # CO2 acetate
   1732      79    8  -0.280000  1.864799e+01  7.278460e+00  4.728452e+00  # CTA acetate
   1733      79    9  -0.800000  1.717326e+01  8.209290e+00  6.308475e+00  # O2 acetate
   1734      79    9  -0.800000  1.902008e+01  7.072737e+00  7.037245e+00  # O2 acetate
   1735      79    6   0.060000  1.793395e+01  7.713361e+00  4.022869e+00  # HC acetate
   1736      79    6   0.060000  1.963314e+01  7.713462e+00  4.535876e+00  # HC acetate
   1737      79    6   0.060000  1.869514e+01  6.199785e+00  4.552172e+00  # HC acetate
   1738      80    7   0.700000  1.606772e+01  1.381350e+01  1.399973e+01  # CO2 acetate
   1739      80    8  -0.280000  1.738579e+01  1.317815e+01  1.440762e+01  # CTA acetate
   1740      80    9  -0.800000  1.603407e+01  1.507345e+01  1.406346e+01  # O2 acetate
   1741      80    9  -0.800000  1.517198e+01  1.299551e+01  1.364801e+01  # O2 acetate
   1742      80    6   0.060000  1.811902e+01  1.393529e+01  1.470078e+01  # HC acetate
   1743      80    6   0.060000  1.722627e+01  1.250480e+01  1.525497e+01  # HC acetate
   1744      80    6   0.060000  1.779590e+01  1.260525e+01  1.357070e+01  # HC acetate
   1745      81    7   0.700000  2.855760e+01  1.725159e+01  2.183020e+01  # CO2 acetate
   1746      81    8  -0.280000  2.834600e+01  1.829340e+01  2.291520e+01  # CTA acetate
   1747      81    9  -0.800000  2.968861e+01  1.669174e+01  2.183362e+01  # O2 acetate
   1748      81    9  -0.800000  2.757029e+01  1.707942e+01  2.106160e+01  # O2 acetate
   1749      81    6   0.060000  2.923344e+01  1.839683e+01  2.354654e+01  # HC acetate
   1750      81    6   0.060000  2.813044e+01  1.926448e+01  2.245980e+01  # HC acetate
   1751      81    6   0.060000  2.750274e+01  1.800292e+01  2.354873e+01  # HC acetate
   1752      82    7   0.700000  2.955749e+01  2.122317e+01  1.365919e+01  # CO2 acetate
   1753      82    8  -0.280000  2.931227e+01  2.246264e+01  1.281601e+01  # CTA acetate
   1754      82    9  -0.800000  3.069108e+01  2.068792e+01  1.351387e+01  # O2 acetate
   1755      82    9  -0.800000  2.859133e+01  2.088694e+01  1.439989e+01  # O2 acetate
   1756      82    6   0.060000  3.018250e+01  2.270242e+01  1.219791e+01  # HC acetate
   1757      82    6   0.060000  2.845450e+01  2.229901e+01  1.215700e+01  # HC acetate
   1758      82    6   0.060000  2.910331e+01  2.331766e+01  1.346571e+01  # HC acetate
   1759      83    7   0.700000  2.266679e+01  2.647837e+00  9.286087e+00  # CO2 acetate
   1760      83    8  -0.280000  2.375644e+01  3.141444e+00  1.022224e+01  # CTA acetate
   1761      83    9  -0.800000  2.235149e+01  3.443632e+00  8.358758e+00  # O2 acetate
   1762      83    9  -0.800000  2.221518e+01  1.500034e+00  9.557700e+00  # O2 acetate
   1763      83    6   0.060000  2.410587e+01  4.137932e+00  9.936319e+00  # HC acetate
   1764      83    6   0.060000  2.337224e+01  3.190029e+00  1.124540e+01  # HC acetate
   1765      83    6   0.060000  2.460796e+01  2.455164e+00  1.019454e+01  # HC acetate
   1766      84    7   0.700000  6.548575e+00  2.774045e+01  1.241772e+01  # CO2 acetate
   1767      84    8  -0.280000  5.471360e+00  2.878653e+01  1.218818e+01  # CTA acetate
   1768      84    9  -0.800000  7.698956e+00  2.819657e+01  1.266516e+01  # O2 acetate
   1769      84    9  -0.800000  6.152277e+00  2.654437e+01  1.233100e+01  # O2 acetate
   1770      84    6   0.060000  5.874805e+00  2.979961e+01  1.227615e+01  # HC acetate
   1771      84    6   0.060000  5.047642e+00  2.866877e+01  1.118646e+01  # HC acetate
   1772      84    6   0.060000  4.674174e+00  2.866626e+01  1.292768e+01  # HC acetate
   1773      85    7   0.700000  3.233751e+01  3.028046e+01  1.704382e+01  # CO2 acetate
   1774      85    8  -0.280000  3.382167e+01  3.002829e+01  1.724640e+01  # CTA acetate
   1775      85    9  -0.800000  3.198738e+01  3.149251e+01  1.707545e+01  # O2 acetate
   1776      85    9  -0.800000  3.164265e+01  2.924035e+01  1.686914e+01  # O2 acetate
   1777      85    6   0.060000  3.436849e+01  3.096457e+01  1.739200e+01  # HC acetate
   1778      85    6   0.060000  3.397379e+01  2.939826e+01  1.812774e+01  # HC acetate
   1779      85    6   0.060000  3.423426e+01  2.951942e+01  1.637024e+01  # HC acetate
   1780      86    7   0.700000  3.160204e+01  2.870250e+00  9.804723e+00  # CO2 acetate
   1781      86    8  -0.280000  3.085992e+01  2.561366e+00  1.109360e+01  # CTA acetate
   1782      86    9  -0.800000  3.179599e+01  1.881988e+00  9.044220e+00  # O2 acetate
   1783      86    9  -0.800000  3.193048e+01  4.081173e+00  9.659943e+00  # O2 acetate
   1784      86    6   0.060000  3.060339e+01  1.499998e+00  1.116091e+01  # HC acetate
   1785      86    6   0.060000  3.148520e+01  2.821232e+00  1.195286e+01  # HC acetate
   1786      86    6   0.060000  2.993515e+01  3.144201e+00  1.113776e+01  # HC acetate
   1787      87    7   0.700000  1.672136e+01  1.673542e+01  1.146795e+01  # CO2 acetate
   1788      87    8  -0.280000  1.561929e+01  1.728308e+01  1.057751e+01  # CTA acetate
   1789      87    9  -0.800000  1.754353e+01  1.759155e+01  1.189656e+01  # O2 acetate
   1790      87    9  -0.800000  1.667237e+01  1.548889e+01  1.166526e+01  # O2 acetate
   1791      87    6   0.060000  1.571529e+01  1.836472e+01  1.044454e+01  # HC acetate
   1792      87    6   0.060000  1.566745e+01  1.680799e+01  9.593229e+00  # HC acetate
   1793      87    6   0.060000  1.464306e+01  1.707492e+01  1.102525e+01  # HC acetate
   1794      88    7   0.700000  2.659006e+00  4.732956e+00  3.556523e+00  # CO2 acetate
   1795      88    8  -0.280000  2.835824e+00  6.196239e+00  3.923807e+00  # CTA acetate
   1796      88    9  -0.800000  3.688233e+00  4.015178e+00  3.691170e+00  # O2 acetate
   1797      88    9  -0.800000  1.500053e+00  4.422255e+00  3.162235e+00  # O2 acetate
   1798      88    6   0.060000  3.857297e+00  6.402688e+00  4.256685e+00  # HC acetate
   1799      88    6   0.060000  2.621523e+00  6.825160e+00  3.054685e+00  # HC acetate
   1800      88    6   0.060000  2.148293e+00  6.461223e+00  4.732461e+00  # HC acetate
   1801      89    7   0.700000  2.431083e+00  3.141630e+01  2.401068e+00  # CO2 acetate
   1802      89    8  -0.280000  3.831309e+00  3.200510e+01  2.394247e+00  # CTA acetate
   1803      89    9  -0.800000  2.376464e+00  3.015550e+01  2.406696e+00  # O2 acetate
   1804      89    9  -0.800000  1.498470e+00  3.226801e+01  2.400263e+00  # O2 acetate
   1805      89    6   0.060000  4.593408e+00  3.122022e+01  2.395270e+00  # HC acetate
   1806      89    6   0.060000  3.970223e+00  3.262089e+01  1.500751e+00  # HC acetate
   1807      89    6   0.060000  3.975678e+00  3.262855e+01  3.281548e+00  # HC acetate
   1808      90    7   0.700000  1.033597e+01  2.539267e+01  2.211111e+01  # CO2 acetate
   1809      90    8  -0.280000  1.175676e+01  2.485579e+01  2.213315e+01  # CTA acetate
   1810      90    9  -0.800000  9.428498e+00  2.451579e+01  2.209638e+01  # O2 acetate
   1811      90    9  -0.800000  1.024587e+01  2.665245e+01  2.211040e+01  # O2 acetate
   1812      90    6   0.060000  1.176920e+01  2.376186e+01  2.213271e+01  # HC acetate
   1813      90    6   0.060000  1.230000e+01  2.520821e+01  2.125137e+01  # HC acetate
   1814      90    6   0.060000  1.227199e+01  2.520720e+01  2.303197e+01  # HC acetate
   1815      91    7   0.700000  1.280853e+01  2.820450e+01  2.420490e+01  # CO2 acetate
   1816      91    8  -0.280000  1.242172e+01  2.706801e+01  2.513556e+01  # CTA acetate
   1817      91    9  -0.800000  1.400522e+01  2.818980e+01  2.380445e+01  # O2 acetate
   1818      91    9  -0.800000  1.187880e+01  2.902075e+01  2.395093e+01  # O2 acetate
   1819      91    6   0.060000  1.326633e+01  2.639677e+01  2.531696e+01  # HC acetate
   1820      91    6   0.060000  1.208876e+01  2.747232e+01  2.609604e+01  # HC acetate
   1821      91    6   0.060000  1.160717e+01  2.648718e+01  2.469286e+01  # HC acetate
   1822      92    7   0.700000  2.518226e+01  1.921399e+01  1.809634e+01  # CO2 acetate
   1823      92    8  -0.280000  2.595671e+01  1.790724e+01  1.809764e+01  # CTA acetate
   1824      92    9  -0.800000  2.588903e+01  2.025950e+01  1.809130e+01  # O2 acetate
   1825      92    9  -0.800000  2.392588e+01  1.908496e+01  1.810044e+01  # O2 acetate
   1826      92    6   0.060000  2.703631e+01  1.808411e+01  1.809396e+01  # HC acetate
   1827      92    6   0.060000  2.570425e+01  1.732754e+01  1.899042e+01  # HC acetate
   1828      92    6   0.060000  2.569895e+01  1.732261e+01  1.720961e+01  # HC acetate
   1829      93    7   0.700000  1.613443e+01  1.720288e+01  1.531640e+01  # CO2 acetate
   1830      93    8  -0.280000  1.698691e+01  1.642961e+01  1.630771e+01  # CTA acetate
   1831      93    9  -0.800000  1.509565e+01  1.773378e+01  1.579778e+01  # O2 acetate
   1832      93    9  -0.800000  1.657708e+01  1.721476e+01  1.413357e+01  # O2 acetate
   1833      93    6   0.060000  1.655297e+01  1.645585e+01  1.731162e+01  # HC acetate
   1834      93    6   0.060000  1.706654e+01  1.538503e+01  1.599253e+01  # HC acetate
   1835      93    6   0.060000  1.798967e+01  1.686466e+01  1.635286e+01  # HC acetate
   1836      94    7   0.700000  1.566867e+01  3.150051e+01  1.243507e+01  # CO2 acetate
   1837      94    8  -0.280000  1.663695e+01  3.033703e+01  1.256190e+01  # CTA acetate
   1838      94    9  -0.800000  1.613704e+01  3.253387e+01  1.188241e+01  # O2 acetate
   1839      94    9  -0.800000  1.451512e+01  3.128264e+01  1.290095e+01  # O2 acetate
   1840      94    6   0.060000  1.761594e+01  3.058603e+01  1.214188e+01  # HC acetate
   1841      94    6   0.060000  1.676887e+01  3.007772e+01  1.361650e+01  # HC acetate
   1842      94    6   0.060000  1.624291e+01  2.946691e+01  1.202855e+01  # HC acetate
   1843      95    7   0.700000  2.209628e+01  2.785513e+01  3.365595e+01  # CO2 acetate
   1844      95    8  -0.280000  2.065916e+01  2.747558e+01  3.334293e+01  # CTA acetate
   1845      95    9  -0.800000  2.233456e+01  2.811024e+01  3.486871e+01  # O2 acetate
   1846      95    9  -0.800000  2.287037e+01  2.786642e+01  3.265803e+01  # O2 acetate
   1847      95    6   0.060000  2.003968e+01  2.748364e+01  3.424460e+01  # HC acetate
   1848      95    6   0.060000  2.023590e+01  2.818548e+01  3.262617e+01  # HC acetate
   1849      95    6   0.060000  2.062678e+01  2.647142e+01  3.290998e+01  # HC acetate
   1850      96    7   0.700000  1.189635e+01  4.863813e+00  8.350718e+00  # CO2 acetate
   1851      96    8  -0.280000  1.254066e+01  5.038290e+00  6.986245e+00  # CTA acetate
   1852      96    9  -0.800000  1.237508e+01  5.584921e+00  9.269123e+00  # O2 acetate
   1853      96    9  -0.800000  1.096087e+01  4.016173e+00  8.390113e+00  # O2 acetate
   1854      96    6   0.060000  1.334131e+01  5.783214e+00  7.016193e+00  # HC acetate
   1855      96    6   0.060000  1.296561e+01  4.087036e+00  6.652522e+00  # HC acetate
   1856      96    6   0.060000  1.179009e+01  5.366176e+00  6.261004e+00  # HC acetate
   1857      97    7   0.700000  2.105879e+01  2.262438e+01  1.850339e+01  # CO2 acetate
   1858      97    8  -0.280000  2.175143e+01  2.326686e+01  1.731392e+01  # CTA acetate
   1859      97    9  -0.800000  2.154953e+01  2.152584e+01  1.888422e+01  # O2 acetate
   1860      97    9  -0.800000  2.007720e+01  2.327518e+01  1.895958e+01  # O2 acetate
   1861      97    6   0.060000  2.259072e+01  2.265795e+01  1.696514e+01  # HC acetate
   1862      97    6   0.060000  2.104166e+01  2.338221e+01  1.648944e+01  # HC acetate
   1863      97    6   0.060000  2.213282e+01  2.425291e+01  1.759515e+01  # HC acetate
   1864      98    7   0.700000  3.243926e+01  1.945018e+01  3.416625e+01  # CO2 acetate
   1865      98    8  -0.280000  3.231716e+01  1.869700e+01  3.285279e+01  # CTA acetate
   1866      98    9  -0.800000  3.175239e+01  2.050570e+01  3.424828e+01  # O2 acetate
   1867      98    9  -0.800000  3.321555e+01  1.892066e+01  3.501014e+01  # O2 acetate
   1868      98    6   0.060000  3.163314e+01  1.920341e+01  3.216539e+01  # HC acetate
   1869      98    6   0.060000  3.329821e+01  1.862511e+01  3.237404e+01  # HC acetate
   1870      98    6   0.060000  3.193724e+01  1.768794e+01  3.303795e+01  # HC acetate
   1871      99    7   0.700000  2.969919e+01  3.287002e+01  3.101667e+01  # CO2 acetate
   1872      99    8  -0.280000  2.970093e+01  3.436729e+01  3.127266e+01  # CTA acetate
   1873      99    9  -0.800000  3.072461e+01  3.242162e+01  3.043348e+01  # O2 acetate
   1874      99    9  -0.800000  2.866757e+01  3.226465e+01  3.142220e+01  # O2 acetate
   1875      99    6   0.060000  3.061757e+01  3.483397e+01  3.090009e+01  # HC acetate
   1876      99    6   0.060000  2.884749e+01  3.483056e+01  3.076881e+01  # HC acetate
   1877      99    6   0.060000  2.962676e+01  3.455983e+01  3.234703e+01  # HC acetate
   1878     100    7   0.700000  3.524315e+00  2.843788e+01  2.020815e+01  # CO2 acetate
   1879     100    8  -0.280000  2.443410e+00  2.739088e+01  2.041502e+01  # CTA acetate
   1880     100    9  -0.800000  4.059915e+00  2.844127e+01  1.906545e+01  # O2 acetate
   1881     100    9  -0.800000  3.748375e+00  2.917289e+01  2.121051e+01  # O2 acetate
   1882     100    6   0.060000  2.295766e+00  2.678756e+01  1.951444e+01  # HC acetate
   1883     100    6   0.060000  2.725048e+00  2.672434e+01  2.123553e+01  # HC acetate
   1884     100    6   0.060000  1.496551e+00  2.787951e+01  2.066308e+01  # HC acetate
   1885     101    7   0.700000  3.352397e+01  2.725551e+01  1.982477e+01  # CO2 acetate
   1886     101    8  -0.280000  3.292197e+01  2.609040e+01  2.059124e+01  # CTA acetate
   1887     101    9  -0.800000  3.463479e+01  2.766927e+01  2.025782e+01  # O2 acetate
   1888     101    9  -0.800000  3.283232e+01  2.766139e+01  1.884904e+01  # O2 acetate
   1889     101    6   0.060000  3.356525e+01  2.578519e+01  2.142183e+01  # HC acetate
   1890     101    6   0.060000  3.194698e+01  2.637719e+01  2.099619e+01  # HC acetate
   1891     101    6   0.060000  3.279125e+01  2.523458e+01  1.992242e+01  # HC acetate
   1892     102    7   0.700000  3.008860e+01  1.548172e+01  1.979607e+01  # CO2 acetate
   1893     102    8  -0.280000  3.014085e+01  1.685563e+01  1.915031e+01  # CTA acetate
   1894     102    9  -0.800000  3.120543e+01  1.491326e+01  1.994505e+01  # O2 acetate
   1895     102    9  -0.800000  2.892949e+01  1.508403e+01  2.010180e+01  # O2 acetate
   1896     102    6   0.060000  3.116839e+01  1.714363e+01  1.890935e+01  # HC acetate
   1897     102    6   0.060000  2.955645e+01  1.685309e+01  1.822548e+01  # HC acetate
   1898     102    6   0.060000  2.972336e+01  1.760206e+01  1.983251e+01  # HC acetate
   1899     103    7   0.700000  2.270174e+01  1.094756e+01  1.286298e+01  # CO2 acetate
   1900     103    8  -0.280000  2.130269e+01  1.042241e+01  1.313543e+01  # CTA acetate
   1901     103    9  -0.800000  2.285841e+01  1.218593e+01  1.304886e+01  # O2 acetate
   1902     103    9  -0.800000  2.353099e+01  1.007351e+01  1.248409e+01  # O2 acetate
   1903     103    6   0.060000  2.063238e+01  1.122412e+01  1.345914e+01  # HC acetate
   1904     103    6   0.060000  2.089152e+01  9.973748e+00  1.222632e+01  # HC acetate
   1905     103    6   0.060000  2.133844e+01  9.662758e+00  1.392187e+01  # HC acetate
   1906     104    7   0.700000  1.186577e+01  3.213946e+01  3.314097e+01  # CO2 acetate
   1907     104    8  -0.280000  1.225539e+01  3.357523e+01  3.344777e+01  # CTA acetate
   1908     104    9  -0.800000  1.068853e+01  3.197954e+01  3.271533e+01  # O2 acetate
   1909     104    9  -0.800000  1.277399e+01  3.128760e+01  3.335227e+01  # O2 acetate
   1910     104    6   0.060000  1.142977e+01  3.426387e+01  3.324541e+01  # HC acetate
   1911     104    6   0.060000  1.253188e+01  3.366713e+01  3.450225e+01  # HC acetate
   1912     104    6   0.060000  1.310929e+01  3.386785e+01  3.282964e+01  # HC acetate
   1913     105    7   0.700000  2.582889e+01  1.554596e+01  9.318557e+00  # CO2 acetate
   1914     105    8  -0.280000  2.688570e+01  1.494784e+01  8.406002e+00  # CTA acetate
   1915     105    9  -0.800000  2.481417e+01  1.482189e+01  9.515355e+00  # O2 acetate
   1916     105    9  -0.800000  2.610326e+01  1.669535e+01  9.764404e+00  # O2 acetate
   1917     105    6   0.060000  2.659158e+01  1.395492e+01  8.053232e+00  # HC acetate
   1918     105    6   0.060000  2.703318e+01  1.559436e+01  7.535893e+00  # HC acetate
   1919     105    6   0.060000  2.783296e+01  1.485661e+01  8.945647e+00  # HC acetate
   1920     106    7   0.700000  1.756603e+01  3.257502e+01  2.648984e+01  # CO2 acetate
   1921     106    8  -0.280000  1.766367e+01  3.106186e+01  2.639948e+01  # CTA acetate
   1922     106    9  -0.800000  1.642241e+01  3.302530e+01  2.677625e+01  # O2 acetate
   1923     106    9  -0.800000  1.864638e+01  3.318970e+01  2.626581e+01  # O2 acetate
   1924     106    6   0.060000  1.669898e+01  3.058767e+01  2.660285e+01  # HC acetate
   1925     106    6   0.060000  1.798756e+01  3.077050e+01  2.539596e+01  # HC acetate
   1926     106    6   0.060000  1.839096e+01  3.069305e+01  2.712876e+01  # HC acetate
   1927     107    7   0.700000  1.723863e+01  1.110054e+01  3.022909e+01  # CO2 acetate
   1928     107    8  -0.280000  1.739020e+01  1.107558e+01  3.174030e+01  # CTA acetate
   1929     107    9  -0.800000  1.612141e+01  1.150732e+01  2.980600e+01  # O2 acetate
   1930     107    9  -0.800000  1.825440e+01  1.070943e+01  2.958847e+01  # O2 acetate
   1931     107    6   0.060000  1.648032e+01  1.142431e+01  3.223764e+01  # HC acetate
   1932     107    6   0.060000  1.759801e+01  1.005507e+01  3.207527e+01  # HC acetate
   1933     107    6   0.060000  1.821869e+01  1.172386e+01  3.204058e+01  # HC acetate
   1934     108    7   0.700000  1.550688e+01  2.888457e+01  1.778179e+01  # CO2 acetate
   1935     108    8  -0.280000  1.679674e+01  2.809474e+01  1.792248e+01  # CTA acetate
   1936     108    9  -0.800000  1.470185e+01  2.845166e+01  1.691165e+01  # O2 acetate
   1937     108    9  -0.800000  1.540616e+01  2.987659e+01  1.855699e+01  # O2 acetate
   1938     108    6   0.060000  1.682485e+01  2.725080e+01  1.722691e+01  # HC acetate
   1939     108    6   0.060000  1.765304e+01  2.874305e+01  1.771447e+01  # HC acetate
   1940     108    6   0.060000  1.688432e+01  2.770623e+01  1.894142e+01  # HC acetate
   1941     109    7   0.700000  1.543881e+01  1.149586e+01  2.544534e+01  # CO2 acetate
   1942     109    8  -0.280000  1.493823e+01  1.243062e+01  2.653299e+01  # CTA acetate
   1943     109    9  -0.800000  1.582623e+01  1.036302e+01  2.584436e+01  # O2 acetate
   1944     109    9  -0.800000  1.540249e+01  1.197497e+01  2.427730e+01  # O2 acetate
   1945     109    6   0.060000  1.499435e+01  1.196038e+01  2.751918e+01  # HC acetate
   1946     109    6   0.060000  1.554570e+01  1.334033e+01  2.654854e+01  # HC acetate
   1947     109    6   0.060000  1.389655e+01  1.270213e+01  2.633803e+01  # HC acetate
   1948     110    7   0.700000  2.084726e+01  3.750195e+00  5.804510e+00  # CO2 acetate
   1949     110    8  -0.280000  2.058072e+01  4.337712e+00  4.429322e+00  # CTA acetate
   1950     110    9  -0.800000  1.986515e+01  3.167016e+00  6.341177e+00  # O2 acetate
   1951     110    9  -0.800000  2.202214e+01  3.921838e+00  6.235050e+00  # O2 acetate
   1952     110    6   0.060000  1.954936e+01  4.157232e+00  4.112198e+00  # HC acetate
   1953     110    6   0.060000  2.075284e+01  5.417927e+00  4.447927e+00  # HC acetate
   1954     110    6   0.060000  2.125281e+01  3.883310e+00  3.695393e+00  # HC acetate
   1955     111    7   0.700000  3.878523e+00  1.513950e+01  2.631469e+01  # CO2 acetate
   1956     111    8  -0.280000  4.964097e+00  1.566278e+01  2.723939e+01  # CTA acetate
   1957     111    9  -0.800000  4.137857e+00  1.521502e+01  2.508194e+01  # O2 acetate
   1958     111    9  -0.800000  2.852350e+00  1.469452e+01  2.690133e+01  # O2 acetate
   1959     111    6   0.060000  5.824307e+00  1.603331e+01  2.667407e+01  # HC acetate
   1960     111    6   0.060000  4.570136e+00  1.648296e+01  2.784680e+01  # HC acetate
   1961     111    6   0.060000  5.304707e+00  1.486163e+01  2.790194e+01  # HC acetate
   1962     112    7   0.700000  3.154754e+01  2.091860e+01  2.483060e+01  # CO2 acetate
   1963     112    8  -0.280000  3.254568e+01  1.977917e+01  2.494364e+01  # CTA acetate
   1964     112    9  -0.800000  3.148473e+01  2.168176e+01  2.583374e+01  # O2 acetate
   1965     112    9  -0.800000  3.090675e+01  2.095531e+01  2.374284e+01  # O2 acetate
   1966     112    6   0.060000  3.306758e+01  1.980078e+01  2.590488e+01  # HC acetate
   1967     112    6   0.060000  3.202596e+01  1.882071e+01  2.485372e+01  # HC acetate
   1968     112    6   0.060000  3.328897e+01  1.985676e+01  2.414467e+01  # HC acetate
   1969     113    7   0.700000  1.486974e+01  2.528976e+01  1.344202e+01  # CO2 acetate
   1970     113    8  -0.280000  1.589772e+01  2.445647e+01  1.269620e+01  # CTA acetate
   1971     113    9  -0.800000  1.497695e+01  2.527931e+01  1.469942e+01  # O2 acetate
   1972     113    9  -0.800000  1.403707e+01  2.588798e+01  1.270449e+01  # O2 acetate
   1973     113    6   0.060000  1.658872e+01  2.396452e+01  1.338711e+01  # HC acetate
   1974     113    6   0.060000  1.539278e+01  2.368655e+01  1.210535e+01  # HC acetate
   1975     113    6   0.060000  1.647735e+01  2.509671e+01  1.202467e+01  # HC acetate
   1976     114    7   0.700000  2.028709e+01  1.541424e+01  3.640766e+00  # CO2 acetate
   1977     114    8  -0.280000  2.097686e+01  1.520294e+01  2.304001e+00  # CTA acetate
   1978     114    9  -0.800000  2.070927e+01  1.639292e+01  4.316487e+00  # O2 acetate
   1979     114    9  -0.800000  1.937639e+01  1.457983e+01  3.904478e+00  # O2 acetate
   1980     114    6   0.060000  2.175332e+01  1.595447e+01  2.133298e+00  # HC acetate
   1981     114    6   0.060000  2.144214e+01  1.421312e+01  2.279240e+00  # HC acetate
   1982     114    6   0.060000  2.024472e+01  1.527187e+01  1.494024e+00  # HC acetate
   1983     115    7   0.700000  1.465174e+01  3.249345e+01  3.418676e+00  # CO2 acetate
   1984     115    8  -0.280000  1.339974e+01  3.210749e+01  4.187380e+00  # CTA acetate
   1985     115    9  -0.800000  1.573113e+01  3.240367e+01  4.066355e+00  # O2 acetate
   1986     115    9  -0.800000  1.445004e+01  3.285582e+01  2.225706e+00  # O2 acetate
   1987     115    6   0.060000  1.363856e+01  3.180386e+01  5.210907e+00  # HC acetate
   1988     115    6   0.060000  1.271383e+01  3.295869e+01  4.230254e+00  # HC acetate
   1989     115    6   0.060000  1.289979e+01  3.127304e+01  3.686789e+00  # HC acetate
   1990     116    7   0.700000  2.812324e+01  1.468497e+01  1.568702e+01  # CO2 acetate
   1991     116    8  -0.280000  2.832158e+01  1.618359e+01  1.583588e+01  # CTA acetate
   1992     116    9  -0.800000  2.915859e+01  1.398436e+01  1.585978e+01  # O2 acetate
   1993     116    9  -0.800000  2.694296e+01  1.433210e+01  1.540846e+01  # O2 acetate
   1994     116    6   0.060000  2.936098e+01  1.642582e+01  1.607631e+01  # HC acetate
   1995     116    6   0.060000  2.805625e+01  1.668730e+01  1.490170e+01  # HC acetate
   1996     116    6   0.060000  2.768314e+01  1.656414e+01  1.663864e+01  # HC acetate
   1997     117    7   0.700000  1.883929e+01  2.942041e+01  2.232235e+01  # CO2 acetate
   1998     117    8  -0.280000  1.777086e+01  3.048801e+01  2.248375e+01  # CTA acetate
   1999     117    9  -0.800000  2.002673e+01  2.984656e+01  2.229045e+01  # O2 acetate
   2000     117    9  -0.800000  1.839956e+01  2.823925e+01  2.224064e+01  # O2 acetate
   2001     117    6   0.060000  1.821248e+01  3.148681e+01  2.254867e+01  # HC acetate
   2002     117    6   0.060000  1.709153e+01  3.046526e+01  2.162653e+01  # HC acetate
   2003     117    6   0.060000  1.719724e+01  3.030343e+01  2.339683e+01  # HC acetate
   2004     118    7   0.700000  6.441630e+00  2.458753e+01  2.144493e+01  # CO2 acetate
   2005     118    8  -0.280000  6.933293e+00  2.315573e+01  2.132016e+01  # CTA acetate
   2006     118    9  -0.800000  7.333237e+00  2.547464e+01  2.134137e+01  # O2 acetate
   2007     118    9  -0.800000  5.198931e+00  2.470587e+01  2.163693e+01  # O2 acetate
   2008     118    6   0.060000  8.014196e+00  2.311872e+01  2.115549e+01  # HC acetate
   2009     118    6   0.060000  6.703933e+00  2.260379e+01  2.223645e+01  # HC acetate
   2010     118    6   0.060000  6.437943e+00  2.266579e+01  2.047670e+01  # HC acetate
   2011     119    7   0.700000  2.712453e+01  2.817212e+00  9.206116e+00  # CO2 acetate
   2012     119    8  -0.280000  2.848760e+01  3.289807e+00  8.730669e+00  # CTA acetate
   2013     119    9  -0.800000  2.703738e+01  1.582278e+00  9.451040e+00  # O2 acetate
   2014     119    9  -0.800000  2.625083e+01  3.724875e+00  9.295341e+00  # O2 acetate
   2015     119    6   0.060000  2.919912e+01  2.460727e+00  8.673996e+00  # HC acetate
   2016     119    6   0.060000  2.839870e+01  3.737837e+00  7.736586e+00  # HC acetate
   2017     119    6   0.060000  2.888304e+01  4.038211e+00  9.423746e+00  # HC acetate
   2018     120    7   0.700000  2.110030e+01  1.576975e+01  3.173782e+01  # CO2 acetate
   2019     120    8  -0.280000  2.000959e+01  1.523059e+01  3.264723e+01  # CTA acetate
   2020     120    9  -0.800000  2.203567e+01  1.496253e+01  3.148065e+01  # O2 acetate
   2021     120    9  -0.800000  2.092956e+01  1.696111e+01  3.135484e+01  # O2 acetate
   2022     120    6   0.060000  2.021324e+01  1.419757e+01  3.294427e+01  # HC acetate
   2023     120    6   0.060000  1.994362e+01  1.584371e+01  3.355087e+01  # HC acetate
   2024     120    6   0.060000  1.904697e+01  1.525787e+01  3.212815e+01  # HC acetate
   2025     121    7   0.700000  1.619207e+01  1.356968e+01  2.904420e+01  # CO2 acetate
   2026     121    8  -0.280000  1.679398e+01  1.374129e+01  3.042825e+01  # CTA acetate
   2027     121    9  -0.800000  1.688445e+01  1.289204e+01  2.823546e+01  # O2 acetate
   2028     121    9  -0.800000  1.507180e+01  1.412956e+01  2.888079e+01  # O2 acetate
   2029     121    6   0.060000  1.776085e+01  1.323560e+01  3.050757e+01  # HC acetate
   2030     121    6   0.060000  1.694146e+01  1.480458e+01  3.063919e+01  # HC acetate
   2031     121    6   0.060000  1.612048e+01  1.331982e+01  3.118032e+01  # HC acetate
   2032     122    7   0.700000  6.880007e+00  3.323802e+01  2.492894e+01  # CO2 acetate
   2033     122    8  -0.280000  7.840220e+00  3.259950e+01  2.591770e+01  # CTA acetate
   2034     122    9  -0.800000  7.377823e+00  3.413955e+01  2.419951e+01  # O2 acetate
   2035     122    9  -0.800000  5.702595e+00  3.278239e+01  2.496459e+01  # O2 acetate
   2036     122    6   0.060000  8.840797e+00  3.303479e+01  2.583896e+01  # HC acetate
   2037     122    6   0.060000  7.476499e+00  3.275092e+01  2.693830e+01  # HC acetate
   2038     122    6   0.060000  7.913843e+00  3.152561e+01  2.572229e+01  # HC acetate
   2039     123    7   0.700000  6.098318e+00  2.645434e+01  4.643094e+00  # CO2 acetate
   2040     123    8  -0.280000  5.092458e+00  2.532616e+01  4.794148e+00  # CTA acetate
   2041     123    9  -0.800000  5.970797e+00  2.740385e+01  5.464557e+00  # O2 acetate
   2042     123    9  -0.800000  6.935858e+00  2.629581e+01  3.711125e+00  # O2 acetate
   2043     123    6   0.060000  4.396061e+00  2.552073e+01  5.615126e+00  # HC acetate
   2044     123    6   0.060000  4.516412e+00  2.521688e+01  3.870532e+00  # HC acetate
   2045     123    6   0.060000  5.615928e+00  2.438777e+01  4.999670e+00  # HC acetate
   2046     124    7   0.700000  1.067688e+01  1.125175e+01  1.945423e+01  # CO2 acetate
   2047     124    8  -0.280000  1.201479e+01  1.053247e+01  1.945237e+01  # CTA acetate
   2048     124    9  -0.800000  1.022607e+01  1.154871e+01  2.059493e+01  # O2 acetate
   2049     124    9  -0.800000  1.018637e+01  1.146064e+01  1.830927e+01  # O2 acetate
   2050     124    6   0.060000  1.238698e+01  1.038106e+01  2.046991e+01  # HC acetate
   2051     124    6   0.060000  1.190928e+01  9.554470e+00  1.897359e+01  # HC acetate
   2052     124    6   0.060000  1.275171e+01  1.112164e+01  1.889860e+01  # HC acetate
   2053     125    7   0.700000  6.415917e+00  3.212019e+01  1.284727e+01  # CO2 acetate
   2054     125    8  -0.280000  6.742751e+00  3.360287e+01  1.280030e+01  # CTA acetate
   2055     125    9  -0.800000  5.188356e+00  3.183623e+01  1.277581e+01  # O2 acetate
   2056     125    9  -0.800000  7.418964e+00  3.135988e+01  1.295216e+01  # O2 acetate
   2057     125    6   0.060000  5.835850e+00  3.420792e+01  1.270935e+01  # HC acetate
   2058     125    6   0.060000  7.264209e+00  3.389677e+01  1.371602e+01  # HC acetate
   2059     125    6   0.060000  7.386708e+00  3.381355e+01  1.194137e+01  # HC acetate
   2060     126    7   0.700000  3.497106e+00  5.681092e+00  3.454855e+01  # CO2 acetate
   2061     126    8  -0.280000  4.941636e+00  6.128117e+00  3.440411e+01  # CTA acetate
   2062     126    9  -0.800000  2.707311e+00  6.550534e+00  3.501000e+01  # O2 acetate
   2063     126    9  -0.800000  3.271999e+00  4.492167e+00  3.418668e+01  # O2 acetate
   2064     126    6   0.060000  5.072915e+00  7.163353e+00  3.473257e+01  # HC acetate
   2065     126    6   0.060000  5.590098e+00  5.488214e+00  3.500980e+01  # HC acetate
   2066     126    6   0.060000  5.249115e+00  6.055929e+00  3.335669e+01  # HC acetate
   2067     127    7   0.700000  1.810798e+01  1.434631e+01  1.914116e+01  # CO2 acetate
   2068     127    8  -0.280000  1.905917e+01  1.480055e+01  1.804742e+01  # CTA acetate
   2069     127    9  -0.800000  1.754915e+01  1.527395e+01  1.978911e+01  # O2 acetate
   2070     127    9  -0.800000  1.799869e+01  1.309381e+01  1.926138e+01  # O2 acetate
   2071     127    6   0.060000  1.911103e+01  1.589195e+01  1.799266e+01  # HC acetate
   2072     127    6   0.060000  2.006385e+01  1.441612e+01  1.824658e+01  # HC acetate
   2073     127    6   0.060000  1.871901e+01  1.442142e+01  1.707923e+01  # HC acetate
   2074     128    7   0.700000  1.825440e+01  2.370650e+01  2.600089e+01  # CO2 acetate
   2075     128    8  -0.280000  1.778460e+01  2.512965e+01  2.624841e+01  # CTA acetate
   2076     128    9  -0.800000  1.738059e+01  2.281255e+01  2.617393e+01  # O2 acetate
   2077     128    9  -0.800000  1.946379e+01  2.360114e+01  2.565239e+01  # O2 acetate
   2078     128    6   0.060000  1.673226e+01  2.515553e+01  2.654633e+01  # HC acetate
   2079     128    6   0.060000  1.838093e+01  2.558363e+01  2.704536e+01  # HC acetate
   2080     128    6   0.060000  1.790051e+01  2.572231e+01  2.533618e+01  # HC acetate
   2081     129    7   0.700000  2.065100e+01  3.278383e+01  7.883336e+00  # CO2 acetate
   2082     129    8  -0.280000  2.097346e+01  3.411063e+01  8.548901e+00  # CTA acetate
   2083     129    9  -0.800000  2.048420e+01  3.181206e+01  8.671037e+00  # O2 acetate
   2084     129    9  -0.800000  2.059116e+01  3.282464e+01  6.622414e+00  # O2 acetate
   2085     129    6   0.060000  2.101131e+01  3.401121e+01  9.637716e+00  # HC acetate
   2086     129    6   0.060000  2.194500e+01  3.447361e+01  8.200768e+00  # HC acetate
   2087     129    6   0.060000  2.020669e+01  3.484862e+01  8.295398e+00  # HC acetate
   2088     130    7   0.700000  1.280785e+01  1.862960e+01  1.626911e+01  # CO2 acetate
   2089     130    8  -0.280000  1.140871e+01  1.919595e+01  1.643946e+01  # CTA acetate
   2090     130    9  -0.800000  1.286526e+01  1.748355e+01  1.574383e+01  # O2 acetate
   2091     130    9  -0.800000  1.373689e+01  1.938184e+01  1.667678e+01  # O2 acetate
   2092     130    6   0.060000  1.064973e+01  1.850052e+01  1.606910e+01  # HC acetate
   2093     130    6   0.060000  1.121337e+01  1.938929e+01  1.749837e+01  # HC acetate
   2094     130    6   0.060000  1.131842e+01  2.013429e+01  1.588429e+01  # HC acetate
   2095     131    7   0.700000  3.448432e+00  2.990868e+01  1.505475e+01  # CO2 acetate
   2096     131    8  -0.280000  2.057477e+00  3.031524e+01  1.459943e+01  # CTA acetate
   2097     131    9  -0.800000  3.726178e+00  2.868583e+01  1.491282e+01  # O2 acetate
   2098     131    9  -0.800000  4.150306e+00  3.085077e+01  1.551844e+01  # O2 acetate
   2099     131    6   0.060000  1.499973e+00  2.945871e+01  1.420907e+01  # HC acetate
   2100     131    6   0.060000  1.499998e+00  3.073613e+01  1.544140e+01  # HC acetate
   2101     131    6   0.060000  2.131326e+00  3.106883e+01  1.380982e+01  # HC acetate
   2102     132    7   0.700000  2.508625e+01  8.397548e+00  2.329532e+01  # CO2 acetate
   2103     132    8  -0.280000  2.613182e+01  8.309181e+00  2.439366e+01  # CTA acetate
   2104     132    9  -0.800000  2.495621e+01  9.535352e+00  2.276510e+01  # O2 acetate
   2105     132    9  -0.800000  2.447958e+01  7.316510e+00  2.305351e+01  # O2 acetate
   2106     132    6   0.060000  2.662115e+01  9.274038e+00  2.455627e+01  # HC acetate
   2107     132    6   0.060000  2.566006e+01  7.998387e+00  2.533051e+01  # HC acetate
   2108     132    6   0.060000  2.689590e+01  7.575603e+00  2.412002e+01  # HC acetate
   2109     133    7   0.700000  1.532627e+01  7.608668e+00  2.332836e+01  # CO2 acetate
   2110     133    8  -0.280000  1.423625e+01  8.644977e+00  2.354116e+01  # CTA acetate
   2111     133    9  -0.800000  1.650215e+01  8.064623e+00  2.328299e+01  # O2 acetate
   2112     133    9  -0.800000  1.491339e+01  6.419639e+00  2.322390e+01  # O2 acetate
   2113     133    6   0.060000  1.465504e+01  9.652261e+00  2.362384e+01  # HC acetate
   2114     133    6   0.060000  1.353918e+01  8.628341e+00  2.269816e+01  # HC acetate
   2115     133    6   0.060000  1.368722e+01  8.422092e+00  2.446080e+01  # HC acetate
   2116     134    7   0.700000  1.622330e+01  2.835954e+01  2.617213e+01  # CO2 acetate
   2117     134    8  -0.280000  1.479176e+01  2.875023e+01  2.649683e+01  # CTA acetate
   2118     134    9  -0.800000  1.663951e+01  2.872976e+01  2.503972e+01  # O2 acetate
   2119     134    9  -0.800000  1.681465e+01  2.771202e+01  2.708107e+01  # O2 acetate
   2120     134    6   0.060000  1.433440e+01  2.930702e+01  2.567364e+01  # HC acetate
   2121     134    6   0.060000  1.419488e+01  2.785200e+01  2.668054e+01  # HC acetate
   2122     134    6   0.060000  1.477294e+01  2.937872e+01  2.739208e+01  # HC acetate
   2123     135    7   0.700000  1.663816e+01  3.404893e+00  1.695019e+01  # CO2 acetate
   2124     135    8  -0.280000  1.525727e+01  3.324925e+00  1.632241e+01  # CTA acetate
   2125     135    9  -0.800000  1.717315e+01  4.547739e+00  1.693221e+01  # O2 acetate
   2126     135    9  -0.800000  1.707439e+01  2.312882e+00  1.741104e+01  # O2 acetate
   2127     135    6   0.060000  1.493535e+01  4.299125e+00  1.594275e+01  # HC acetate
   2128     135    6   0.060000  1.526919e+01  2.615841e+00  1.548941e+01  # HC acetate
   2129     135    6   0.060000  1.453058e+01  2.986492e+00  1.706687e+01  # HC acetate
   2130     136    7   0.700000  1.209164e+01  4.631307e+00  2.347146e+01  # CO2 acetate
   2131     136    8  -0.280000  1.214296e+01  6.148747e+00  2.351732e+01  # CTA acetate
   2132     136    9  -0.800000  1.277018e+01  4.096517e+00  2.255156e+01  # O2 acetate
   2133     136    9  -0.800000  1.137362e+01  4.098540e+00  2.436353e+01  # O2 acetate
   2134     136    6   0.060000  1.277855e+01  6.549951e+00  2.272240e+01  # HC acetate
   2135     136    6   0.060000  1.113573e+01  6.557669e+00  2.339435e+01  # HC acetate
   2136     136    6   0.060000  1.254476e+01  6.477194e+00  2.448040e+01  # HC acetate
   2137     137    7   0.700000  1.812982e+01  1.913123e+01  2.838879e+00  # CO2 acetate
   2138     137    8  -0.280000  1.927472e+01  1.842471e+01  2.133612e+00  # CTA acetate
   2139     137    9  -0.800000  1.817682e+01  1.910774e+01  4.099785e+00  # O2 acetate
   2140     137    9  -0.800000  1.727519e+01  1.965314e+01  2.069213e+00  # O2 acetate
   2141     137    6   0.060000  1.997966e+01  1.799454e+01  2.851135e+00  # HC acetate
   2142     137    6   0.060000  1.888290e+01  1.761774e+01  1.507428e+00  # HC acetate
   2143     137    6   0.060000  1.981524e+01  1.913498e+01  1.501005e+00  # HC acetate
   2144     138    7   0.700000  1.223624e+01  7.641497e+00  2.846446e+01  # CO2 acetate
   2145     138    8  -0.280000  1.166939e+01  9.045875e+00  2.834711e+01  # CTA acetate
   2146     138    9  -0.800000  1.178869e+01  6.958157e+00  2.942644e+01  # O2 acetate
   2147     138    9  -0.800000  1.308570e+01  7.337728e+00  2.758055e+01  # O2 acetate
   2148     138    6   0.060000  1.094153e+01  9.248970e+00  2.913818e+01  # HC acetate
   2149     138    6   0.060000  1.247738e+01  9.779433e+00  2.842389e+01  # HC acetate
   2150     138    6   0.060000  1.117170e+01  9.165214e+00  2.738021e+01  # HC acetate
   2151     139    7   0.700000  1.536628e+01  8.140474e+00  3.456679e+01  # CO2 acetate
   2152     139    8  -0.280000  1.402079e+01  7.457348e+00  3.439252e+01  # CTA acetate
   2153     139    9  -0.800000  1.531807e+01  9.321032e+00  3.501019e+01  # O2 acetate
   2154     139    9  -0.800000  1.636362e+01  7.435919e+00  3.424417e+01  # O2 acetate
   2155     139    6   0.060000  1.319857e+01  8.115964e+00  3.468749e+01  # HC acetate
   2156     139    6   0.060000  1.388035e+01  7.176916e+00  3.334444e+01  # HC acetate
   2157     139    6   0.060000  1.398015e+01  6.555382e+00  3.501030e+01  # HC acetate
   2158     140    7   0.700000  2.289742e+01  3.010948e+01  2.847357e+01  # CO2 acetate
   2159     140    8  -0.280000  2.416575e+01  3.079933e+01  2.800153e+01  # CTA acetate
   2160     140    9  -0.800000  2.261671e+01  3.027298e+01  2.969305e+01  # O2 acetate
   2161     140    9  -0.800000  2.228500e+01  2.945869e+01  2.758105e+01  # O2 acetate
   2162     140    6   0.060000  2.464960e+01  3.134479e+01  2.881713e+01  # HC acetate
   2163     140    6   0.060000  2.487047e+01  3.005648e+01  2.761634e+01  # HC acetate
   2164     140    6   0.060000  2.392685e+01  3.150947e+01  2.720437e+01  # HC acetate
   2165     141    7   0.700000  7.745413e+00  6.294249e+00  5.341279e+00  # CO2 acetate
   2166     141    8  -0.280000  6.282414e+00  6.337033e+00  4.934875e+00  # CTA acetate
   2167     141    9  -0.800000  8.348471e+00  7.402137e+00  5.301909e+00  # O2 acetate
   2168     141    9  -0.800000  8.171174e+00  5.150797e+00  5.667492e+00  # O2 acetate
   2169     141    6   0.060000  5.973714e+00  7.351104e+00  4.664319e+00  # HC acetate
   2170     141    6   0.060000  6.117816e+00  5.683819e+00  4.072868e+00  # HC acetate
   2171     141    6   0.060000  5.656950e+00  5.994866e+00  5.764666e+00  # HC acetate
   2172     142    7   0.700000  2.555568e+01  2.803505e+01  1.260161e+01  # CO2 acetate
   2173     142    8  -0.280000  2.413237e+01  2.839575e+01  1.221245e+01  # CTA acetate
   2174     142    9  -0.800000  2.589096e+01  2.684024e+01  1.237211e+01  # O2 acetate
   2175     142    9  -0.800000  2.622255e+01  2.898130e+01  1.310664e+01  # O2 acetate
   2176     142    6   0.060000  2.360751e+01  2.753771e+01  1.178219e+01  # HC acetate
   2177     142    6   0.060000  2.358043e+01  2.873167e+01  1.309526e+01  # HC acetate
   2178     142    6   0.060000  2.414320e+01  2.920127e+01  1.147227e+01  # HC acetate
   2179     143    7   0.700000  1.054932e+01  1.800217e+01  3.284267e+01  # CO2 acetate
   2180     143    8  -0.280000  9.101137e+00  1.816496e+01  3.327120e+01  # CTA acetate
   2181     143    9  -0.800000  1.097378e+01  1.681396e+01  3.281758e+01  # O2 acetate
   2182     143    9  -0.800000  1.114409e+01  1.908137e+01  3.256562e+01  # O2 acetate
   2183     143    6   0.060000  8.641539e+00  1.719821e+01  3.349701e+01  # HC acetate
   2184     143    6   0.060000  9.047631e+00  1.879097e+01  3.416679e+01  # HC acetate
   2185     143    6   0.060000  8.528671e+00  1.864136e+01  3.246985e+01  # HC acetate
   2186     144    7   0.700000  9.268776e+00  3.092385e+01  6.292628e+00  # CO2 acetate
   2187     144    8  -0.280000  1.077984e+01  3.076882e+01  6.294206e+00  # CTA acetate
   2188     144    9  -0.800000  8.616041e+00  2.984377e+01  6.297348e+00  # O2 acetate
   2189     144    9  -0.800000  8.859024e+00  3.211852e+01  6.286813e+00  # O2 acetate
   2190     144    6   0.060000  1.107203e+01  2.971457e+01  6.299282e+00  # HC acetate
   2191     144    6   0.060000  1.120186e+01  3.124039e+01  5.401819e+00  # HC acetate
   2192     144    6   0.060000  1.120086e+01  3.124871e+01  7.182622e+00  # HC acetate
   2193     145    7   0.700000  1.761609e+01  3.090639e+01  1.881043e+01  # CO2 acetate
   2194     145    8  -0.280000  1.772288e+01  3.227233e+01  1.946630e+01  # CTA acetate
   2195     145    9  -0.800000  1.712593e+01  3.090361e+01  1.764751e+01  # O2 acetate
   2196     145    9  -0.800000  1.803337e+01  2.994588e+01  1.951645e+01  # O2 acetate
   2197     145    6   0.060000  1.734697e+01  3.306085e+01  1.880769e+01  # HC acetate
   2198     145    6   0.060000  1.713852e+01  3.228629e+01  2.039105e+01  # HC acetate
   2199     145    6   0.060000  1.876866e+01  3.248903e+01  1.970341e+01  # HC acetate
   2200     146    7   0.700000  3.129230e+00  1.127937e+01  2.496595e+01  # CO2 acetate
   2201     146    8  -0.280000  3.511607e+00  1.274480e+01  2.508278e+01  # CTA acetate
   2202     146    9  -0.800000  3.631556e+00  1.066788e+01  2.398289e+01  # O2 acetate
   2203     146    9  -0.800000  2.354821e+00  1.086033e+01  2.587141e+01  # O2 acetate
   2204     146    6   0.060000  4.181558e+00  1.304741e+01  2.427258e+01  # HC acetate
   2205     146    6   0.060000  2.612899e+00  1.336710e+01  2.503909e+01  # HC acetate
   2206     146    6   0.060000  4.019649e+00  1.292058e+01  2.603559e+01  # HC acetate
   2207     147    7   0.700000  1.067176e+01  3.039747e+01  2.979323e+01  # CO2 acetate
   2208     147    8  -0.280000  1.155240e+01  2.980663e+01  2.870569e+01  # CTA acetate
   2209     147    9  -0.800000  9.528134e+00  2.987540e+01  2.990376e+01  # O2 acetate
   2210     147    9  -0.800000  1.119990e+01  3.133873e+01  3.044917e+01  # O2 acetate
   2211     147    6   0.060000  1.104115e+01  2.899833e+01  2.817456e+01  # HC acetate
   2212     147    6   0.060000  1.181819e+01  3.058243e+01  2.798159e+01  # HC acetate
   2213     147    6   0.060000  1.246858e+01  2.940454e+01  2.914817e+01  # HC acetate
   2214     148    7   0.700000  1.354794e+01  2.181846e+01  2.653881e+01  # CO2 acetate
   2215     148    8  -0.280000  1.209283e+01  2.139540e+01  2.664392e+01  # CTA acetate
   2216     148    9  -0.800000  1.439098e+01  2.093014e+01  2.684349e+01  # O2 acetate
   2217     148    9  -0.800000  1.372700e+01  2.300945e+01  2.615848e+01  # O2 acetate
   2218     148    6   0.060000  1.200298e+01  2.035719e+01  2.697691e+01  # HC acetate
   2219     148    6   0.060000  1.157163e+01  2.203529e+01  2.736206e+01  # HC acetate
   2220     148    6   0.060000  1.160815e+01  2.148869e+01  2.566759e+01  # HC acetate
   2221     149    7   0.700000  2.849179e+00  9.048898e+00  1.843424e+01  # CO2 acetate
   2222     149    8  -0.280000  2.132401e+00  8.698315e+00  1.714169e+01  # CTA acetate
   2223     149    9  -0.800000  2.606056e+00  8.285829e+00  1.940956e+01  # O2 acetate
   2224     149    9  -0.800000  3.599018e+00  1.006291e+01  1.836571e+01  # O2 acetate
   2225     149    6   0.060000  1.500175e+00  7.813930e+00  1.726412e+01  # HC acetate
   2226     149    6   0.060000  1.500239e+00  9.534873e+00  1.682963e+01  # HC acetate
   2227     149    6   0.060000  2.864882e+00  8.493689e+00  1.635528e+01  # HC acetate
   2228     150    7   0.700000  2.097075e+01  3.186254e+01  2.047032e+01  # CO2 acetate
   2229     150    8  -0.280000  2.116973e+01  3.314990e+01  1.968900e+01  # CTA acetate
   2230     150    9  -0.800000  2.011831e+01  3.192186e+01  2.139902e+01  # O2 acetate
   2231     150    9  -0.800000  2.168698e+01  3.089502e+01  2.008809e+01  # O2 acetate
   2232     150    6   0.060000  2.052381e+01  3.394839e+01  2.006586e+01  # HC acetate
   2233     150    6   0.060000  2.221004e+01  3.347776e+01  1.977334e+01  # HC acetate
   2234     150    6   0.060000  2.093401e+01  3.298336e+01  1.863375e+01  # HC acetate
   2235     151    7   0.700000  2.886060e+01  8.693984e+00  2.822062e+01  # CO2 acetate
   2236     151    8  -0.280000  2.859940e+01  1.013309e+01  2.863063e+01  # CTA acetate
   2237     151    9  -0.800000  2.856124e+01  7.824414e+00  2.908484e+01  # O2 acetate
   2238     151    9  -0.800000  2.934558e+01  8.552872e+00  2.706302e+01  # O2 acetate
   2239     151    6   0.060000  2.818088e+01  1.018999e+01  2.963981e+01  # HC acetate
   2240     151    6   0.060000  2.953509e+01  1.069962e+01  2.861181e+01  # HC acetate
   2241     151    6   0.060000  2.789094e+01  1.059379e+01  2.793588e+01  # HC acetate
   2242     152   10   0.423800  2.892901e+00  1.940985e+01  1.363710e+01  # Hw SPCE
   2243     152   11  -0.847600  3.870388e+00  1.951285e+01  1.345296e+01  # Ow SPCE
   2244     152   10   0.423800  4.189182e+00  2.038537e+01  1.382322e+01  # Hw SPCE
   2245     153   10   0.423800  3.027370e+00  2.330634e+01  3.278025e+01  # Hw SPCE
   2246     153   11  -0.847600  2.322819e+00  2.266127e+01  3.248448e+01  # Ow SPCE
   2247     153   10   0.423800  2.740905e+00  2.177120e+01  3.230287e+01  # Hw SPCE
   2248     154   10   0.423800  1.257678e+01  3.499732e+01  2.938017e+01  # Hw SPCE
   2249     154   11  -0.847600  1.269390e+01  3.433838e+01  3.012319e+01  # Ow SPCE
   2250     154   10   0.423800  1.234368e+01  3.344675e+01  2.983625e+01  # Hw SPCE
   2251     155   10   0.423800  9.919707e+00  3.495734e+01  2.575935e+01  # Hw SPCE
   2252     155   11  -0.847600  9.231503e+00  3.504535e+01  2.503919e+01  # Ow SPCE
   2253     155   10   0.423800  9.537703e+00  3.455418e+01  2.422372e+01  # Hw SPCE
   2254     156   10   0.423800  4.347650e+00  1.693118e+01  1.124870e+01  # Hw SPCE
   2255     156   11  -0.847600  3.908352e+00  1.634150e+01  1.057099e+01  # Ow SPCE
   2256     156   10   0.423800  3.504912e+00  1.554973e+01  1.102961e+01  # Hw SPCE
   2257     157   10   0.423800  2.369584e+01  2.935765e+01  1.974205e+01  # Hw SPCE
   2258     157   11  -0.847600  2.356932e+01  2.847571e+01  2.019612e+01  # Ow SPCE
   2259     157   10   0.423800  2.439160e+01  2.791902e+01  2.007802e+01  # Hw SPCE
   2260     158   10   0.423800  1.013307e+01  5.931515e+00  2.143415e+00  # Hw SPCE
   2261     158   11  -0.847600  9.635449e+00  6.724209e+00  2.495560e+00  # Ow SPCE
   2262     158   10   0.423800  8.654541e+00  6.529749e+00  2.493676e+00  # Hw SPCE
   2263     159   10   0.423800  1.232928e+01  2.312883e+01  3.481171e+01  # Hw SPCE
   2264     159   11  -0.847600  1.252461e+01  2.216837e+01  3.501013e+01  # Ow SPCE
   2265     159   10   0.423800  1.210438e+01  2.159121e+01  3.430993e+01  # Hw SPCE
   2266     160   10   0.423800  1.566004e+01  2.398499e+01  9.942382e+00  # Hw SPCE
   2267     160   11  -0.847600  1.499438e+01  2.323880e+01  9.952373e+00  # Ow SPCE
   2268     160   10   0.423800  1.415453e+01  2.353524e+01  9.497637e+00  # Hw SPCE
   2269     161   10   0.423800  1.965837e+01  1.891503e+01  1.508721e+01  # Hw SPCE
   2270     161   11  -0.847600  1.900986e+01  1.949171e+01  1.459036e+01  # Ow SPCE
   2271     161   10   0.423800  1.927261e+01  2.045137e+01  1.469042e+01  # Hw SPCE
   2272     162   10   0.423800  4.839782e+00  1.299673e+01  1.473840e+01  # Hw SPCE
   2273     162   11  -0.847600  5.106766e+00  1.204722e+01  1.490318e+01  # Ow SPCE
   2274     162   10   0.423800  6.093329e+00  1.200077e+01  1.505981e+01  # Hw SPCE
   2275     163   10   0.423800  1.483889e+01  1.625721e+01  2.548829e+01  # Hw SPCE
   2276     163   11  -0.847600  1.576457e+01  1.651802e+01  2.521425e+01  # Ow SPCE
   2277     163   10   0.423800  1.607378e+01  1.728677e+01  2.577408e+01  # Hw SPCE
   2278     164   10   0.423800  1.348930e+01  2.174218e+01  2.267020e+01  # Hw SPCE
   2279     164   11  -0.847600  1.375130e+01  2.183322e+01  2.170943e+01  # Ow SPCE
   2280     164   10   0.423800  1.319087e+01  2.122100e+01  2.115167e+01  # Hw SPCE
   2281     165   10   0.423800  3.346362e+01  3.353094e+01  3.102909e+01  # Hw SPCE
   2282     165   11  -0.847600  3.359981e+01  3.264954e+01  3.148140e+01  # Ow SPCE
   2283     165   10   0.423800  3.281566e+01  3.245212e+01  3.206972e+01  # Hw SPCE
   2284     166   10   0.423800  3.036366e+01  4.606075e+00  2.015137e+01  # Hw SPCE
   2285     166   11  -0.847600  3.101630e+01  4.024040e+00  1.966631e+01  # Ow SPCE
   2286     166   10   0.423800  3.191123e+01  4.469893e+00  1.964828e+01  # Hw SPCE
   2287     167   10   0.423800  2.282230e+01  1.255583e+01  2.362011e+01  # Hw SPCE
   2288     167   11  -0.847600  2.218528e+01  1.328168e+01  2.387964e+01  # Ow SPCE
   2289     167   10   0.423800  2.269968e+01  1.408571e+01  2.417786e+01  # Hw SPCE
   2290     168   10   0.423800  2.802970e+01  3.454704e+01  1.856325e+01  # Hw SPCE
   2291     168   11  -0.847600  2.823313e+01  3.356858e+01  1.852830e+01  # Ow SPCE
   2292     168   10   0.423800  2.922398e+01  3.343446e+01  1.851356e+01  # Hw SPCE
   2293     169   10   0.423800  2.966045e+01  1.905436e+01  1.498055e+01  # Hw SPCE
   2294     169   11  -0.847600  3.065597e+01  1.911612e+01  1.505207e+01  # Ow SPCE
   2295     169   10   0.423800  3.089935e+01  1.966023e+01  1.585501e+01  # Hw SPCE
   2296     170   10   0.423800  1.122966e+01  2.068063e+01  2.200626e+01  # Hw SPCE
   2297     170   11  -0.847600  1.126469e+01  2.162929e+01  2.232062e+01  # Ow SPCE
   2298     170   10   0.423800  1.034691e+01  2.192775e+01  2.258253e+01  # Hw SPCE
   2299     171   10   0.423800  1.463833e+01  1.420049e+01  2.473822e+01  # Hw SPCE
   2300     171   11  -0.847600  1.412762e+01  1.374708e+01  2.400774e+01  # Ow SPCE
   2301     171   10   0.423800  1.323522e+01  1.345838e+01  2.435456e+01  # Hw SPCE
   2302     172   10   0.423800  2.723139e+01  2.747970e+01  3.464675e+01  # Hw SPCE
   2303     172   11  -0.847600  2.702695e+01  2.760063e+01  3.367537e+01  # Ow SPCE
   2304     172   10   0.423800  2.713080e+01  2.856458e+01  3.343039e+01  # Hw SPCE
   2305     173   10   0.423800  1.861073e+01  1.032786e+01  7.153129e+00  # Hw SPCE
   2306     173   11  -0.847600  1.849903e+01  9.434839e+00  7.589070e+00  # Ow SPCE
   2307     173   10   0.423800  1.939481e+01  9.080668e+00  7.857671e+00  # Hw SPCE
   2308     174   10   0.423800  2.658328e+01  1.927509e+01  2.076031e+01  # Hw SPCE
   2309     174   11  -0.847600  2.641567e+01  2.007242e+01  2.134010e+01  # Ow SPCE
   2310     174   10   0.423800  2.621509e+01  2.086601e+01  2.076566e+01  # Hw SPCE
   2311     175   10   0.423800  1.814695e+01  2.676127e+01  3.182039e+01  # Hw SPCE
   2312     175   11  -0.847600  1.770355e+01  2.734669e+01  3.249913e+01  # Ow SPCE
   2313     175   10   0.423800  1.802540e+01  2.710003e+01  3.341322e+01  # Hw SPCE
   2314     176   10   0.423800  3.008565e+00  1.300491e+01  1.604325e+01  # Hw SPCE
   2315     176   11  -0.847600  2.448711e+00  1.251339e+01  1.671032e+01  # Ow SPCE
   2316     176   10   0.423800  2.864311e+00  1.162470e+01  1.690398e+01  # Hw SPCE
   2317     177   10   0.423800  2.905423e+01  1.777934e+01  4.627911e+00  # Hw SPCE
   2318     177   11  -0.847600  2.875342e+01  1.801726e+01  5.551441e+00  # Ow SPCE
   2319     177   10   0.423800  2.784959e+01  1.762370e+01  5.719360e+00  # Hw SPCE
   2320     178   10   0.423800  1.860536e+01  6.503881e+00  1.812023e+00  # Hw SPCE
   2321     178   11  -0.847600  1.950696e+01  6.876474e+00  1.592283e+00  # Ow SPCE
   2322     178   10   0.423800  2.019654e+01  6.158557e+00  1.687516e+00  # Hw SPCE
   2323     179   10   0.423800  6.434598e+00  8.489032e+00  8.735327e+00  # Hw SPCE
   2324     179   11  -0.847600  7.350767e+00  8.111234e+00  8.869130e+00  # Ow SPCE
   2325     179   10   0.423800  7.320639e+00  7.117571e+00  8.760843e+00  # Hw SPCE
   2326     180   10   0.423800  1.263070e+01  1.448990e+01  2.432925e+00  # Hw SPCE
   2327     180   11  -0.847600  1.172579e+01  1.457008e+01  2.850904e+00  # Ow SPCE
   2328     180   10   0.423800  1.137037e+01  1.365768e+01  3.053895e+00  # Hw SPCE
   2329     181   10   0.423800  2.915291e+01  3.372497e+01  2.737942e+01  # Hw SPCE
   2330     181   11  -0.847600  2.819883e+01  3.391443e+01  2.714740e+01  # Ow SPCE
   2331     181   10   0.423800  2.759989e+01  3.348629e+01  2.782412e+01  # Hw SPCE
   2332     182   10   0.423800  3.662165e+00  8.429364e+00  5.506644e+00  # Hw SPCE
   2333     182   11  -0.847600  4.309416e+00  8.098762e+00  6.193498e+00  # Ow SPCE
   2334     182   10   0.423800  4.251852e+00  8.673629e+00  7.009718e+00  # Hw SPCE
   2335     183   10   0.423800  2.871215e+01  6.130559e+00  3.237260e+01  # Hw SPCE
   2336     183   11  -0.847600  2.905090e+01  5.189994e+00  3.234839e+01  # Ow SPCE
   2337     183   10   0.423800  2.859933e+01  4.654611e+00  3.306215e+01  # Hw SPCE
   2338     184   10   0.423800  3.023240e+01  1.487523e+01  1.021681e+01  # Hw SPCE
   2339     184   11  -0.847600  3.112648e+01  1.487987e+01  1.066470e+01  # Ow SPCE
   2340     184   10   0.423800  3.120487e+01  1.569120e+01  1.124400e+01  # Hw SPCE
   2341     185   10   0.423800  1.681753e+01  2.880182e+01  3.063940e+01  # Hw SPCE
   2342     185   11  -0.847600  1.592037e+01  2.895634e+01  3.105318e+01  # Ow SPCE
   2343     185   10   0.423800  1.581429e+01  2.836224e+01  3.185055e+01  # Hw SPCE
   2344     186   10   0.423800  2.191071e+00  4.351156e+00  2.157198e+01  # Hw SPCE
   2345     186   11  -0.847600  1.500000e+00  5.013453e+00  2.186143e+01  # Ow SPCE
   2346     186   10   0.423800  1.912396e+00  5.922763e+00  2.191697e+01  # Hw SPCE
   2347     187   10   0.423800  6.613683e+00  3.135028e+01  2.014100e+01  # Hw SPCE
   2348     187   11  -0.847600  7.596804e+00  3.116825e+01  2.012256e+01  # Ow SPCE
   2349     187   10   0.423800  8.086812e+00  3.200751e+01  1.988688e+01  # Hw SPCE
   2350     188   10   0.423800  8.020577e+00  2.141699e+01  1.624707e+01  # Hw SPCE
   2351     188   11  -0.847600  8.805033e+00  2.099898e+01  1.670522e+01  # Ow SPCE
   2352     188   10   0.423800  8.489916e+00  2.025233e+01  1.729107e+01  # Hw SPCE
   2353     189   10   0.423800  2.401946e+01  1.089960e+01  1.462678e+01  # Hw SPCE
   2354     189   11  -0.847600  2.316952e+01  1.071511e+01  1.512031e+01  # Ow SPCE
   2355     189   10   0.423800  2.260741e+01  1.154200e+01  1.513674e+01  # Hw SPCE
   2356     190   10   0.423800  1.859927e+01  3.439063e+01  3.470696e+01  # Hw SPCE
   2357     190   11  -0.847600  1.795471e+01  3.505932e+01  3.507764e+01  # Ow SPCE
   2358     190   10   0.423800  1.701912e+01  3.475788e+01  3.489375e+01  # Hw SPCE
   2359     191   10   0.423800  2.952315e+01  1.186806e+01  1.396647e+01  # Hw SPCE
   2360     191   11  -0.847600  3.003588e+01  1.235091e+01  1.467637e+01  # Ow SPCE
   2361     191   10   0.423800  3.029841e+01  1.170652e+01  1.539458e+01  # Hw SPCE
   2362     192   10   0.423800  2.978084e+01  5.683924e+00  1.086589e+01  # Hw SPCE
   2363     192   11  -0.847600  3.068611e+01  5.731227e+00  1.044369e+01  # Ow SPCE
   2364     192   10   0.423800  3.058751e+01  5.811107e+00  9.451775e+00  # Hw SPCE
   2365     193   10   0.423800  9.368508e+00  1.892150e+01  9.878307e+00  # Hw SPCE
   2366     193   11  -0.847600  8.839446e+00  1.968740e+01  1.024366e+01  # Ow SPCE
   2367     193   10   0.423800  9.372824e+00  2.052944e+01  1.016314e+01  # Hw SPCE
   2368     194   10   0.423800  3.441927e+01  8.995496e+00  1.991065e+01  # Hw SPCE
   2369     194   11  -0.847600  3.429291e+01  9.893303e+00  1.948878e+01  # Ow SPCE
   2370     194   10   0.423800  3.333413e+01  1.016643e+01  1.956712e+01  # Hw SPCE
   2371     195   10   0.423800  4.766452e+00  2.683394e+01  1.499398e+00  # Hw SPCE
   2372     195   11  -0.847600  5.063899e+00  2.595467e+01  1.871420e+00  # Ow SPCE
   2373     195   10   0.423800  4.490658e+00  2.522442e+01  1.499756e+00  # Hw SPCE
   2374     196   10   0.423800  2.575127e+01  1.625003e+01  2.501744e+01  # Hw SPCE
   2375     196   11  -0.847600  2.481266e+01  1.636965e+01  2.469383e+01  # Ow SPCE
   2376     196   10   0.423800  2.422692e+01  1.663337e+01  2.546023e+01  # Hw SPCE
   2377     197   10   0.423800  1.899678e+01  2.754100e+01  2.591789e+01  # Hw SPCE
   2378     197   11  -0.847600  1.946669e+01  2.825976e+01  2.540549e+01  # Ow SPCE
   2379     197   10   0.423800  1.882992e+01  2.867801e+01  2.475773e+01  # Hw SPCE
   2380     198   10   0.423800  1.156995e+01  2.689165e+01  1.557075e+01  # Hw SPCE
   2381     198   11  -0.847600  1.093700e+01  2.612230e+01  1.565715e+01  # Ow SPCE
   2382     198   10   0.423800  1.132058e+01  2.532178e+01  1.519667e+01  # Hw SPCE
   2383     199   10   0.423800  7.792225e+00  1.054898e+01  2.951142e+01  # Hw SPCE
   2384     199   11  -0.847600  6.858575e+00  1.090427e+01  2.955693e+01  # Ow SPCE
   2385     199   10   0.423800  6.678421e+00  1.125110e+01  3.047739e+01  # Hw SPCE
   2386     200   10   0.423800  1.499950e+00  2.567949e+01  1.048395e+01  # Hw SPCE
   2387     200   11  -0.847600  2.409439e+00  2.526891e+01  1.054921e+01  # Ow SPCE
   2388     200   10   0.423800  3.090086e+00  2.598750e+01  1.069184e+01  # Hw SPCE
   2389     201   10   0.423800  2.674199e+01  2.216228e+01  1.078438e+01  # Hw SPCE
   2390     201   11  -0.847600  2.676088e+01  2.315708e+01  1.068429e+01  # Ow SPCE
   2391     201   10   0.423800  2.584826e+01  2.352697e+01  1.085834e+01  # Hw SPCE
   2392     202   10   0.423800  2.439578e+01  2.370445e+01  2.781592e+01  # Hw SPCE
   2393     202   11  -0.847600  2.484084e+01  2.405749e+01  2.699294e+01  # Ow SPCE
   2394     202   10   0.423800  2.547266e+01  2.479076e+01  2.724418e+01  # Hw SPCE
   2395     203   10   0.423800  8.794473e+00  1.897575e+01  2.120121e+01  # Hw SPCE
   2396     203   11  -0.847600  9.455520e+00  1.824472e+01  2.103205e+01  # Ow SPCE
   2397     203   10   0.423800  8.971280e+00  1.741541e+01  2.075319e+01  # Hw SPCE
   2398     204   10   0.423800  3.077379e+01  7.198421e+00  2.826926e+01  # Hw SPCE
   2399     204   11  -0.847600  3.018012e+01  6.488672e+00  2.789004e+01  # Ow SPCE
   2400     204   10   0.423800  3.074076e+01  5.749119e+00  2.751756e+01  # Hw SPCE
   2401     205   10   0.423800  3.125294e+01  2.619549e+01  5.214449e+00  # Hw SPCE
   2402     205   11  -0.847600  3.178073e+01  2.703285e+01  5.072085e+00  # Ow SPCE
   2403     205   10   0.423800  3.231206e+01  2.695262e+01  4.228729e+00  # Hw SPCE
   2404     206   10   0.423800  2.440954e+01  2.846092e+01  2.304999e+01  # Hw SPCE
   2405     206   11  -0.847600  2.425901e+01  2.877248e+01  2.398822e+01  # Ow SPCE
   2406     206   10   0.423800  2.436032e+01  2.976647e+01  2.402966e+01  # Hw SPCE
   2407     207   10   0.423800  5.784610e+00  4.446953e+00  1.219010e+01  # Hw SPCE
   2408     207   11  -0.847600  4.838858e+00  4.693155e+00  1.240208e+01  # Ow SPCE
   2409     207   10   0.423800  4.733770e+00  5.686359e+00  1.235206e+01  # Hw SPCE
   2410     208   10   0.423800  3.344605e+01  3.501001e+01  1.665638e+01  # Hw SPCE
   2411     208   11  -0.847600  3.358467e+01  3.403207e+01  1.650015e+01  # Ow SPCE
   2412     208   10   0.423800  3.277534e+01  3.352828e+01  1.680210e+01  # Hw SPCE
   2413     209   10   0.423800  2.932510e+01  3.309558e+01  7.166603e+00  # Hw SPCE
   2414     209   11  -0.847600  2.889095e+01  3.240475e+01  7.744763e+00  # Ow SPCE
   2415     209   10   0.423800  2.793495e+01  3.265340e+01  7.900500e+00  # Hw SPCE
   2416     210   10   0.423800  2.139007e+01  2.784186e+01  2.442315e+01  # Hw SPCE
   2417     210   11  -0.847600  2.219851e+01  2.838364e+01  2.465315e+01  # Ow SPCE
   2418     210   10   0.423800  2.191550e+01  2.929727e+01  2.494502e+01  # Hw SPCE
   2419     211   10   0.423800  1.209862e+01  5.528783e+00  1.506499e+01  # Hw SPCE
   2420     211   11  -0.847600  1.238063e+01  4.706875e+00  1.457008e+01  # Ow SPCE
   2421     211   10   0.423800  1.157388e+01  4.161620e+00  1.434240e+01  # Hw SPCE
   2422     212   10   0.423800  1.498168e+01  3.259280e+01  1.973440e+01  # Hw SPCE
   2423     212   11  -0.847600  1.444209e+01  3.322434e+01  1.917762e+01  # Ow SPCE
   2424     212   10   0.423800  1.501639e+01  3.399195e+01  1.889309e+01  # Hw SPCE
   2425     213   10   0.423800  1.935665e+01  1.671025e+01  7.548684e+00  # Hw SPCE
   2426     213   11  -0.847600  1.893539e+01  1.649741e+01  8.430300e+00  # Ow SPCE
   2427     213   10   0.423800  1.796371e+01  1.630232e+01  8.296984e+00  # Hw SPCE
   2428     214   10   0.423800  1.899963e+01  1.162390e+01  3.469291e+01  # Hw SPCE
   2429     214   11  -0.847600  1.929708e+01  1.070288e+01  3.494440e+01  # Ow SPCE
   2430     214   10   0.423800  2.029522e+01  1.067862e+01  3.500036e+01  # Hw SPCE
   2431     215   10   0.423800  1.940199e+01  2.433740e+01  2.079413e+01  # Hw SPCE
   2432     215   11  -0.847600  2.011939e+01  2.502717e+01  2.069643e+01  # Ow SPCE
   2433     215   10   0.423800  2.098635e+01  2.457810e+01  2.048028e+01  # Hw SPCE
   2434     216   10   0.423800  2.778669e+01  1.783859e+01  1.076552e+01  # Hw SPCE
   2435     216   11  -0.847600  2.699429e+01  1.844840e+01  1.075026e+01  # Ow SPCE
   2436     216   10   0.423800  2.730477e+01  1.939684e+01  1.068664e+01  # Hw SPCE
   2437     217   10   0.423800  3.176594e+01  9.117088e+00  2.782559e+01  # Hw SPCE
   2438     217   11  -0.847600  3.176546e+01  9.496682e+00  2.875074e+01  # Ow SPCE
   2439     217   10   0.423800  3.096765e+01  9.158018e+00  2.924956e+01  # Hw SPCE
   2440     218   10   0.423800  2.940834e+01  2.111148e+01  2.630057e+01  # Hw SPCE
   2441     218   11  -0.847600  2.917226e+01  2.109623e+01  2.532896e+01  # Ow SPCE
   2442     218   10   0.423800  2.837838e+01  2.050469e+01  2.518809e+01  # Hw SPCE
   2443     219   10   0.423800  1.605027e+01  2.183041e+01  2.355301e+01  # Hw SPCE
   2444     219   11  -0.847600  1.577536e+01  2.188190e+01  2.259292e+01  # Ow SPCE
   2445     219   10   0.423800  1.576112e+01  2.096222e+01  2.220051e+01  # Hw SPCE
   2446     220   10   0.423800  3.279872e+01  2.914161e+01  3.033910e+01  # Hw SPCE
   2447     220   11  -0.847600  3.366874e+01  2.867567e+01  3.017793e+01  # Ow SPCE
   2448     220   10   0.423800  3.351430e+01  2.786953e+01  2.960671e+01  # Hw SPCE
   2449     221   10   0.423800  2.033145e+01  3.048698e+00  2.701421e+01  # Hw SPCE
   2450     221   11  -0.847600  2.011329e+01  2.679753e+00  2.791769e+01  # Ow SPCE
   2451     221   10   0.423800  1.912589e+01  2.539495e+00  2.799092e+01  # Hw SPCE
   2452     222   10   0.423800  2.878448e+01  1.066361e+01  1.660271e+01  # Hw SPCE
   2453     222   11  -0.847600  2.833333e+01  1.050964e+01  1.572365e+01  # Ow SPCE
   2454     222   10   0.423800  2.737192e+01  1.028176e+01  1.587781e+01  # Hw SPCE
   2455     223   10   0.423800  2.510425e+01  2.792660e+01  8.739791e+00  # Hw SPCE
   2456     223   11  -0.847600  2.472726e+01  2.700106e+01  8.775278e+00  # Ow SPCE
   2457     223   10   0.423800  2.547440e+01  2.633642e+01  8.770048e+00  # Hw SPCE
   2458     224   10   0.423800  9.786503e+00  3.304758e+01  1.829418e+01  # Hw SPCE
   2459     224   11  -0.847600  1.015010e+01  3.270431e+01  1.742818e+01  # Ow SPCE
   2460     224   10   0.423800  1.114805e+01  3.276777e+01  1.743714e+01  # Hw SPCE
   2461     225   10   0.423800  3.234294e+01  2.674648e+01  3.220823e+01  # Hw SPCE
   2462     225   11  -0.847600  3.299974e+01  2.607661e+01  3.255448e+01  # Ow SPCE
   2463     225   10   0.423800  3.254107e+01  2.519800e+01  3.268738e+01  # Hw SPCE
   2464     226   10   0.423800  1.324550e+01  1.449677e+01  1.310941e+01  # Hw SPCE
   2465     226   11  -0.847600  1.251116e+01  1.401076e+01  1.358329e+01  # Ow SPCE
   2466     226   10   0.423800  1.287657e+01  1.317763e+01  1.399846e+01  # Hw SPCE
   2467     227   10   0.423800  1.385901e+01  7.416011e+00  3.087714e+01  # Hw SPCE
   2468     227   11  -0.847600  1.421921e+01  8.275068e+00  3.051344e+01  # Ow SPCE
   2469     227   10   0.423800  1.519874e+01  8.177746e+00  3.033721e+01  # Hw SPCE
   2470     228   10   0.423800  1.803907e+01  2.090194e+01  1.227732e+01  # Hw SPCE
   2471     228   11  -0.847600  1.757813e+01  2.003806e+01  1.207424e+01  # Ow SPCE
   2472     228   10   0.423800  1.708526e+01  2.011886e+01  1.120789e+01  # Hw SPCE
   2473     229   10   0.423800  2.178506e+01  3.501951e+01  3.043693e+01  # Hw SPCE
   2474     229   11  -0.847600  2.233471e+01  3.459394e+01  2.971806e+01  # Ow SPCE
   2475     229   10   0.423800  2.328106e+01  3.490861e+01  2.979170e+01  # Hw SPCE
   2476     230   10   0.423800  3.186432e+01  2.511921e+01  1.779648e+01  # Hw SPCE
   2477     230   11  -0.847600  3.277015e+01  2.552545e+01  1.767633e+01  # Ow SPCE
   2478     230   10   0.423800  3.342300e+01  2.481362e+01  1.741730e+01  # Hw SPCE
   2479     231   10   0.423800  1.706296e+01  1.174120e+01  2.100596e+01  # Hw SPCE
   2480     231   11  -0.847600  1.801948e+01  1.160253e+01  2.126257e+01  # Ow SPCE
   2481     231   10   0.423800  1.845390e+01  1.098392e+01  2.060789e+01  # Hw SPCE
   2482     232   10   0.423800  1.717168e+01  1.181752e+01  1.749932e+01  # Hw SPCE
   2483     232   11  -0.847600  1.655379e+01  1.103367e+01  1.743777e+01  # Ow SPCE
   2484     232   10   0.423800  1.598490e+01  1.112111e+01  1.662001e+01  # Hw SPCE
   2485     233   10   0.423800  1.497815e+01  3.107955e+01  6.961120e+00  # Hw SPCE
   2486     233   11  -0.847600  1.556517e+01  3.131763e+01  6.187347e+00  # Ow SPCE
   2487     233   10   0.423800  1.586971e+01  3.048186e+01  5.730460e+00  # Hw SPCE
   2488     234   10   0.423800  2.375950e+01  1.894689e+01  2.522140e+01  # Hw SPCE
   2489     234   11  -0.847600  2.283293e+01  1.857151e+01  2.519781e+01  # Ow SPCE
   2490     234   10   0.423800  2.219125e+01  1.924434e+01  2.556597e+01  # Hw SPCE
   2491     235   10   0.423800  2.744455e+01  1.447414e+01  3.488652e+01  # Hw SPCE
   2492     235   11  -0.847600  2.834179e+01  1.490997e+01  3.495738e+01  # Ow SPCE
   2493     235   10   0.423800  2.822723e+01  1.590198e+01  3.501019e+01  # Hw SPCE
   2494     236   10   0.423800  2.929858e+01  1.127693e+01  1.163928e+01  # Hw SPCE
   2495     236   11  -0.847600  2.842414e+01  1.086652e+01  1.189797e+01  # Ow SPCE
   2496     236   10   0.423800  2.792733e+01  1.149208e+01  1.249951e+01  # Hw SPCE
   2497     237   10   0.423800  3.330905e+01  1.885539e+01  2.567852e+00  # Hw SPCE
   2498     237   11  -0.847600  3.341062e+01  1.789686e+01  2.834128e+00  # Ow SPCE
   2499     237   10   0.423800  3.337866e+01  1.782263e+01  3.830857e+00  # Hw SPCE
   2500     238   10   0.423800  2.181568e+01  3.420210e+01  2.632982e+01  # Hw SPCE
   2501     238   11  -0.847600  2.254400e+01  3.358065e+01  2.604113e+01  # Ow SPCE
   2502     238   10   0.423800  2.342294e+01  3.405592e+01  2.608092e+01  # Hw SPCE
   2503     239   10   0.423800  1.391922e+01  1.429567e+01  3.263774e+01  # Hw SPCE
   2504     239   11  -0.847600  1.443653e+01  1.403722e+01  3.345358e+01  # Ow SPCE
   2505     239   10   0.423800  1.497556e+01  1.321734e+01  3.326061e+01  # Hw SPCE
   2506     240   10   0.423800  4.420513e+00  3.157550e+01  2.101280e+01  # Hw SPCE
   2507     240   11  -0.847600  4.218815e+00  3.180555e+01  2.006075e+01  # Ow SPCE
   2508     240   10   0.423800  4.180879e+00  3.096767e+01  1.951622e+01  # Hw SPCE
   2509     241   10   0.423800  1.808304e+01  3.167432e+01  6.975326e+00  # Hw SPCE
   2510     241   11  -0.847600  1.813099e+01  3.266686e+01  6.863226e+00  # Ow SPCE
   2511     241   10   0.423800  1.831819e+01  3.288547e+01  5.905539e+00  # Hw SPCE
   2512     242   10   0.423800  1.513672e+01  2.611340e+01  3.226254e+01  # Hw SPCE
   2513     242   11  -0.847600  1.585220e+01  2.571640e+01  3.168767e+01  # Ow SPCE
   2514     242   10   0.423800  1.610298e+01  2.636689e+01  3.097076e+01  # Hw SPCE
   2515     243   10   0.423800  2.066896e+01  2.347053e+01  3.390895e+01  # Hw SPCE
   2516     243   11  -0.847600  2.114183e+01  2.427609e+01  3.426598e+01  # Ow SPCE
   2517     243   10   0.423800  2.204344e+01  2.400959e+01  3.460667e+01  # Hw SPCE
   2518     244   10   0.423800  1.174593e+01  5.742451e+00  2.687449e+01  # Hw SPCE
   2519     244   11  -0.847600  1.140777e+01  4.820896e+00  2.668375e+01  # Ow SPCE
   2520     244   10   0.423800  1.217100e+01  4.235942e+00  2.640933e+01  # Hw SPCE
   2521     245   10   0.423800  3.314671e+01  2.564691e+01  3.475409e+01  # Hw SPCE
   2522     245   11  -0.847600  3.354749e+01  2.655866e+01  3.484393e+01  # Ow SPCE
   2523     245   10   0.423800  3.287422e+01  2.724684e+01  3.457353e+01  # Hw SPCE
   2524     246   10   0.423800  2.054901e+01  1.892871e+01  3.480073e+01  # Hw SPCE
   2525     246   11  -0.847600  2.090739e+01  1.799517e+01  3.480903e+01  # Ow SPCE
   2526     246   10   0.423800  2.190656e+01  1.802198e+01  3.483985e+01  # Hw SPCE
   2527     247   10   0.423800  3.045016e+01  3.221677e+00  3.419443e+01  # Hw SPCE
   2528     247   11  -0.847600  3.095228e+01  2.671104e+00  3.352753e+01  # Ow SPCE
   2529     247   10   0.423800  3.168500e+01  2.172692e+00  3.399089e+01  # Hw SPCE
   2530     248   10   0.423800  7.135137e+00  1.609004e+01  2.993418e+01  # Hw SPCE
   2531     248   11  -0.847600  6.339550e+00  1.618872e+01  2.933643e+01  # Ow SPCE
   2532     248   10   0.423800  5.942614e+00  1.709857e+01  2.945733e+01  # Hw SPCE
   2533     249   10   0.423800  1.740932e+01  3.206148e+01  2.888850e+01  # Hw SPCE
   2534     249   11  -0.847600  1.653533e+01  3.157605e+01  2.891090e+01  # Ow SPCE
   2535     249   10   0.423800  1.578590e+01  3.223666e+01  2.886682e+01  # Hw SPCE
   2536     250   10   0.423800  1.388545e+01  2.883065e+01  1.410085e+01  # Hw SPCE
   2537     250   11  -0.847600  1.319584e+01  2.810647e+01  1.409770e+01  # Ow SPCE
   2538     250   10   0.423800  1.229342e+01  2.850483e+01  1.426183e+01  # Hw SPCE
   2539     251   10   0.423800  1.199183e+01  1.794542e+01  5.776749e+00  # Hw SPCE
   2540     251   11  -0.847600  1.256301e+01  1.853102e+01  6.351934e+00  # Ow SPCE
   2541     251   10   0.423800  1.342984e+01  1.806945e+01  6.540542e+00  # Hw SPCE
   2542     252   10   0.423800  1.630173e+01  3.011676e+01  1.576600e+01  # Hw SPCE
   2543     252   11  -0.847600  1.535053e+01  3.003496e+01  1.546846e+01  # Ow SPCE
   2544     252   10   0.423800  1.507934e+01  3.086796e+01  1.498621e+01  # Hw SPCE
   2545     253   10   0.423800  2.532920e+01  1.276927e+01  1.013560e+01  # Hw SPCE
   2546     253   11  -0.847600  2.584388e+01  1.204820e+01  1.059946e+01  # Ow SPCE
   2547     253   10   0.423800  2.672710e+01  1.240905e+01  1.089898e+01  # Hw SPCE
   2548     254   10   0.423800  2.571770e+01  2.201370e+01  2.642532e+01  # Hw SPCE
   2549     254   11  -0.847600  2.665002e+01  2.165414e+01  2.646409e+01  # Ow SPCE
   2550     254   10   0.423800  2.729320e+01  2.236389e+01  2.617674e+01  # Hw SPCE
   2551     255   10   0.423800  2.394940e+01  7.952977e+00  1.907104e+01  # Hw SPCE
   2552     255   11  -0.847600  2.295937e+01  7.875692e+00  1.918879e+01  # Ow SPCE
   2553     255   10   0.423800  2.270190e+01  6.909936e+00  1.922081e+01  # Hw SPCE
   2554     256   10   0.423800  2.559642e+01  3.071831e+01  2.564035e+01  # Hw SPCE
   2555     256   11  -0.847600  2.641773e+01  3.019811e+01  2.540613e+01  # Ow SPCE
   2556     256   10   0.423800  2.616371e+01  2.925724e+01  2.518199e+01  # Hw SPCE
   2557     257   10   0.423800  2.812645e+01  2.468975e+01  4.195093e+00  # Hw SPCE
   2558     257   11  -0.847600  2.763534e+01  2.396542e+01  4.678976e+00  # Ow SPCE
   2559     257   10   0.423800  2.734406e+01  2.430116e+01  5.574761e+00  # Hw SPCE
   2560     258   10   0.423800  3.952013e+00  2.466565e+01  1.343335e+01  # Hw SPCE
   2561     258   11  -0.847600  4.458818e+00  2.483663e+01  1.258841e+01  # Ow SPCE
   2562     258   10   0.423800  4.923336e+00  2.399834e+01  1.230292e+01  # Hw SPCE
   2563     259   10   0.423800  3.246050e+01  2.455002e+01  3.976780e+00  # Hw SPCE
   2564     259   11  -0.847600  3.197700e+01  2.367727e+01  4.044122e+00  # Ow SPCE
   2565     259   10   0.423800  3.259063e+01  2.298466e+01  4.423265e+00  # Hw SPCE
   2566     260   10   0.423800  1.994842e+01  2.718449e+01  2.109079e+01  # Hw SPCE
   2567     260   11  -0.847600  2.093061e+01  2.723901e+01  2.127060e+01  # Ow SPCE
   2568     260   10   0.423800  2.131345e+01  2.802994e+01  2.079325e+01  # Hw SPCE
   2569     261   10   0.423800  1.265997e+01  2.292704e+01  1.865832e+01  # Hw SPCE
   2570     261   11  -0.847600  1.193083e+01  2.231459e+01  1.835294e+01  # Ow SPCE
   2571     261   10   0.423800  1.108893e+01  2.283805e+01  1.822181e+01  # Hw SPCE
   2572     262   10   0.423800  9.968291e+00  2.154829e+01  2.042806e+01  # Hw SPCE
   2573     262   11  -0.847600  1.060613e+01  2.230802e+01  2.030166e+01  # Ow SPCE
   2574     262   10   0.423800  1.013472e+01  2.317198e+01  2.047874e+01  # Hw SPCE
   2575     263   10   0.423800  3.222775e+01  3.501000e+01  1.997663e+01  # Hw SPCE
   2576     263   11  -0.847600  3.141450e+01  3.451345e+01  2.028005e+01  # Ow SPCE
   2577     263   10   0.423800  3.067112e+01  3.466105e+01  1.962767e+01  # Hw SPCE
   2578     264   10   0.423800  1.429991e+01  2.245567e+01  1.628402e+01  # Hw SPCE
   2579     264   11  -0.847600  1.429992e+01  2.151197e+01  1.661482e+01  # Ow SPCE
   2580     264   10   0.423800  1.373256e+01  2.144651e+01  1.743569e+01  # Hw SPCE
   2581     265   10   0.423800  3.029257e+01  3.409354e+01  2.955047e+00  # Hw SPCE
   2582     265   11  -0.847600  3.118679e+01  3.400672e+01  2.515910e+00  # Ow SPCE
   2583     265   10   0.423800  3.153078e+01  3.491501e+01  2.277815e+00  # Hw SPCE
   2584     266   10   0.423800  9.267468e+00  2.624712e+00  1.391947e+01  # Hw SPCE
   2585     266   11  -0.847600  9.859210e+00  3.199978e+00  1.335475e+01  # Ow SPCE
   2586     266   10   0.423800  9.969526e+00  2.781110e+00  1.245343e+01  # Hw SPCE
   2587     267   10   0.423800  2.975228e+01  1.353780e+01  2.637291e+01  # Hw SPCE
   2588     267   11  -0.847600  2.875454e+01  1.353050e+01  2.630622e+01  # Ow SPCE
   2589     267   10   0.423800  2.845677e+01  1.425438e+01  2.568386e+01  # Hw SPCE
   2590     268   10   0.423800  7.560853e+00  7.571846e+00  2.264783e+01  # Hw SPCE
   2591     268   11  -0.847600  7.500852e+00  8.392279e+00  2.207925e+01  # Ow SPCE
   2592     268   10   0.423800  8.352725e+00  8.506628e+00  2.156813e+01  # Hw SPCE
   2593     269   10   0.423800  1.055183e+01  2.396173e+01  8.250739e+00  # Hw SPCE
   2594     269   11  -0.847600  1.015096e+01  2.307223e+01  8.470070e+00  # Ow SPCE
   2595     269   10   0.423800  1.031304e+01  2.286221e+01  9.434238e+00  # Hw SPCE
   2596     270   10   0.423800  1.297505e+01  3.382152e+01  8.924544e+00  # Hw SPCE
   2597     270   11  -0.847600  1.360076e+01  3.411145e+01  9.648716e+00  # Ow SPCE
   2598     270   10   0.423800  1.397676e+01  3.501045e+01  9.424181e+00  # Hw SPCE
   2599     271   10   0.423800  1.772162e+01  1.405537e+01  2.361543e+01  # Hw SPCE
   2600     271   11  -0.847600  1.719196e+01  1.333129e+01  2.317364e+01  # Ow SPCE
   2601     271   10   0.423800  1.666736e+01  1.371759e+01  2.241498e+01  # Hw SPCE
   2602     272   10   0.423800  1.505265e+01  1.307863e+01  1.620296e+01  # Hw SPCE
   2603     272   11  -0.847600  1.553970e+01  1.385547e+01  1.660208e+01  # Ow SPCE
   2604     272   10   0.423800  1.502422e+01  1.469526e+01  1.643169e+01  # Hw SPCE
   2605     273   10   0.423800  2.579016e+01  2.662869e+01  1.735340e+01  # Hw SPCE
   2606     273   11  -0.847600  2.641761e+01  2.596923e+01  1.776743e+01  # Ow SPCE
   2607     273   10   0.423800  2.736003e+01  2.627400e+01  1.762971e+01  # Hw SPCE
   2608     274   10   0.423800  2.378253e+01  3.378748e+01  1.016863e+01  # Hw SPCE
   2609     274   11  -0.847600  2.470086e+01  3.417816e+01  1.010512e+01  # Ow SPCE
   2610     274   10   0.423800  2.537920e+01  3.344523e+01  1.015683e+01  # Hw SPCE
   2611     275   10   0.423800  1.976980e+01  2.439759e+01  6.211217e+00  # Hw SPCE
   2612     275   11  -0.847600  2.018834e+01  2.528110e+01  6.000905e+00  # Ow SPCE
   2613     275   10   0.423800  1.987278e+01  2.559466e+01  5.105304e+00  # Hw SPCE
   2614     276   10   0.423800  8.182112e+00  3.378508e+00  3.195060e+00  # Hw SPCE
   2615     276   11  -0.847600  9.057875e+00  3.329248e+00  2.714839e+00  # Ow SPCE
   2616     276   10   0.423800  8.951190e+00  3.691815e+00  1.789008e+00  # Hw SPCE
   2617     277   10   0.423800  2.490265e+01  1.482790e+01  1.367782e+01  # Hw SPCE
   2618     277   11  -0.847600  2.441431e+01  1.395680e+01  1.362583e+01  # Ow SPCE
   2619     277   10   0.423800  2.467448e+01  1.347837e+01  1.278713e+01  # Hw SPCE
   2620     278   10   0.423800  2.139458e+01  2.202446e+01  2.811744e+01  # Hw SPCE
   2621     278   11  -0.847600  2.237585e+01  2.188578e+01  2.798371e+01  # Ow SPCE
   2622     278   10   0.423800  2.255319e+01  2.092009e+01  2.779399e+01  # Hw SPCE
   2623     279   10   0.423800  1.360255e+01  2.239513e+01  4.091984e+00  # Hw SPCE
   2624     279   11  -0.847600  1.400201e+01  2.161426e+01  4.572275e+00  # Ow SPCE
   2625     279   10   0.423800  1.392365e+01  2.175442e+01  5.559298e+00  # Hw SPCE
   2626     280   10   0.423800  3.260719e+00  3.006191e+01  1.149908e+01  # Hw SPCE
   2627     280   11  -0.847600  3.156900e+00  3.069624e+01  1.073302e+01  # Ow SPCE
   2628     280   10   0.423800  2.631634e+00  3.149384e+01  1.102955e+01  # Hw SPCE
   2629     281   10   0.423800  7.567520e+00  2.704632e+01  1.030728e+01  # Hw SPCE
   2630     281   11  -0.847600  7.688417e+00  2.803838e+01  1.034201e+01  # Ow SPCE
   2631     281   10   0.423800  8.612627e+00  2.825062e+01  1.065949e+01  # Hw SPCE
   2632     282   10   0.423800  1.908567e+00  3.057263e+01  4.860154e+00  # Hw SPCE
   2633     282   11  -0.847600  2.849074e+00  3.025929e+01  4.991555e+00  # Ow SPCE
   2634     282   10   0.423800  3.480177e+00  3.091819e+01  4.582204e+00  # Hw SPCE
   2635     283   10   0.423800  4.602096e+00  5.422182e+00  2.950633e+01  # Hw SPCE
   2636     283   11  -0.847600  3.636075e+00  5.562082e+00  2.972366e+01  # Ow SPCE
   2637     283   10   0.423800  3.270906e+00  4.741137e+00  3.016263e+01  # Hw SPCE
   2638     284   10   0.423800  1.640015e+01  4.938042e+00  2.963946e+01  # Hw SPCE
   2639     284   11  -0.847600  1.544071e+01  5.133956e+00  2.943673e+01  # Ow SPCE
   2640     284   10   0.423800  1.519060e+01  6.018304e+00  2.983091e+01  # Hw SPCE
   2641     285   10   0.423800  2.793070e+01  3.551836e+00  5.272622e+00  # Hw SPCE
   2642     285   11  -0.847600  2.835736e+01  2.989971e+00  4.563911e+00  # Ow SPCE
   2643     285   10   0.423800  2.835658e+01  3.489132e+00  3.697402e+00  # Hw SPCE
   2644     286   10   0.423800  2.352181e+01  1.500009e+00  3.434823e+01  # Hw SPCE
   2645     286   11  -0.847600  2.278963e+01  1.821367e+00  3.494876e+01  # Ow SPCE
   2646     286   10   0.423800  2.190859e+01  1.500146e+00  3.460149e+01  # Hw SPCE
   2647     287   10   0.423800  2.627992e+01  2.371603e+01  3.108056e+01  # Hw SPCE
   2648     287   11  -0.847600  2.531138e+01  2.353933e+01  3.125578e+01  # Ow SPCE
   2649     287   10   0.423800  2.476616e+01  2.388350e+01  3.049139e+01  # Hw SPCE
   2650     288   10   0.423800  1.873066e+01  8.604156e+00  2.916578e+01  # Hw SPCE
   2651     288   11  -0.847600  1.948191e+01  8.428823e+00  2.980209e+01  # Ow SPCE
   2652     288   10   0.423800  1.921796e+01  8.726457e+00  3.071956e+01  # Hw SPCE
   2653     289   10   0.423800  3.472889e+01  2.987652e+01  2.064062e+01  # Hw SPCE
   2654     289   11  -0.847600  3.386381e+01  2.965586e+01  2.109113e+01  # Ow SPCE
   2655     289   10   0.423800  3.313605e+01  2.960252e+01  2.040737e+01  # Hw SPCE
   2656     290   10   0.423800  1.500108e+00  3.300413e+01  3.229460e+01  # Hw SPCE
   2657     290   11  -0.847600  1.904160e+00  3.208950e+01  3.228062e+01  # Ow SPCE
   2658     290   10   0.423800  2.900921e+00  3.216499e+01  3.230835e+01  # Hw SPCE
   2659     291   10   0.423800  1.085281e+01  2.740506e+01  9.459634e+00  # Hw SPCE
   2660     291   11  -0.847600  1.183826e+01  2.723595e+01  9.477102e+00  # Ow SPCE
   2661     291   10   0.423800  1.231699e+01  2.801230e+01  9.067096e+00  # Hw SPCE
   2662     292   10   0.423800  1.388321e+01  2.482357e+01  7.735160e+00  # Hw SPCE
   2663     292   11  -0.847600  1.470337e+01  2.457696e+01  7.218909e+00  # Ow SPCE
   2664     292   10   0.423800  1.549474e+01  2.457750e+01  7.830249e+00  # Hw SPCE
   2665     293   10   0.423800  1.678197e+01  2.653202e+01  1.456046e+01  # Hw SPCE
   2666     293   11  -0.847600  1.774064e+01  2.626419e+01  1.446445e+01  # Ow SPCE
   2667     293   10   0.423800  1.785873e+01  2.574603e+01  1.361735e+01  # Hw SPCE
   2668     294   10   0.423800  2.887471e+01  2.667400e+01  2.204204e+01  # Hw SPCE
   2669     294   11  -0.847600  2.829481e+01  2.594541e+01  2.240656e+01  # Ow SPCE
   2670     294   10   0.423800  2.867140e+01  2.505695e+01  2.214424e+01  # Hw SPCE
   2671     295   10   0.423800  3.132597e+01  1.016968e+01  2.087319e+01  # Hw SPCE
   2672     295   11  -0.847600  3.080134e+01  1.081660e+01  2.031979e+01  # Ow SPCE
   2673     295   10   0.423800  3.138374e+01  1.118370e+01  1.959450e+01  # Hw SPCE
   2674     296   10   0.423800  3.252272e+01  1.749381e+01  3.065394e+01  # Hw SPCE
   2675     296   11  -0.847600  3.301937e+01  1.666705e+01  3.038973e+01  # Ow SPCE
   2676     296   10   0.423800  3.393060e+01  1.667972e+01  3.080145e+01  # Hw SPCE
   2677     297   10   0.423800  2.872749e+01  2.618735e+01  3.338074e+01  # Hw SPCE
   2678     297   11  -0.847600  2.792194e+01  2.560110e+01  3.346671e+01  # Ow SPCE
   2679     297   10   0.423800  2.782448e+01  2.530583e+01  3.441714e+01  # Hw SPCE
   2680     298   10   0.423800  1.122822e+01  2.512431e+01  2.799507e+01  # Hw SPCE
   2681     298   11  -0.847600  1.147968e+01  2.415815e+01  2.793767e+01  # Ow SPCE
   2682     298   10   0.423800  1.239218e+01  2.407445e+01  2.753726e+01  # Hw SPCE
   2683     299   10   0.423800  8.123031e+00  3.124930e+01  2.840984e+01  # Hw SPCE
   2684     299   11  -0.847600  8.985500e+00  3.164911e+01  2.809952e+01  # Ow SPCE
   2685     299   10   0.423800  9.645152e+00  3.091957e+01  2.791887e+01  # Hw SPCE
   2686     300   10   0.423800  1.830162e+01  2.361732e+01  3.197111e+01  # Hw SPCE
   2687     300   11  -0.847600  1.838008e+01  2.459835e+01  3.214838e+01  # Ow SPCE
   2688     300   10   0.423800  1.920195e+01  2.477448e+01  3.269015e+01  # Hw SPCE
   2689     301   10   0.423800  2.677008e+01  3.501137e+01  7.431547e+00  # Hw SPCE
   2690     301   11  -0.847600  2.675245e+01  3.419012e+01  6.861252e+00  # Ow SPCE
   2691     301   10   0.423800  2.758916e+01  3.414533e+01  6.315434e+00  # Hw SPCE
   2692     302   10   0.423800  1.085334e+01  3.480912e+01  2.787710e+01  # Hw SPCE
   2693     302   11  -0.847600  1.067439e+01  3.398234e+01  2.841040e+01  # Ow SPCE
   2694     302   10   0.423800  9.740718e+00  3.401151e+01  2.876733e+01  # Hw SPCE
   2695     303   10   0.423800  2.254834e+01  1.211022e+01  2.148347e+01  # Hw SPCE
   2696     303   11  -0.847600  2.175913e+01  1.149751e+01  2.152520e+01  # Ow SPCE
   2697     303   10   0.423800  2.207456e+01  1.055436e+01  2.162993e+01  # Hw SPCE
   2698     304   10   0.423800  1.330781e+01  9.634577e+00  2.635796e+01  # Hw SPCE
   2699     304   11  -0.847600  1.317146e+01  1.062506e+01  2.633950e+01  # Ow SPCE
   2700     304   10   0.423800  1.219239e+01  1.082724e+01  2.636311e+01  # Hw SPCE
   2701     305   10   0.423800  3.017126e+01  2.544229e+01  2.442453e+01  # Hw SPCE
   2702     305   11  -0.847600  3.002504e+01  2.633116e+01  2.399033e+01  # Ow SPCE
   2703     305   10   0.423800  2.939530e+01  2.687399e+01  2.454600e+01  # Hw SPCE
   2704     306   10   0.423800  3.126248e+00  7.889359e+00  1.209740e+01  # Hw SPCE
   2705     306   11  -0.847600  2.495848e+00  7.116896e+00  1.217419e+01  # Ow SPCE
   2706     306   10   0.423800  2.703079e+00  6.445543e+00  1.146261e+01  # Hw SPCE
   2707     307   10   0.423800  2.679567e+01  1.307227e+01  2.253898e+01  # Hw SPCE
   2708     307   11  -0.847600  2.600772e+01  1.258030e+01  2.290924e+01  # Ow SPCE
   2709     307   10   0.423800  2.631523e+01  1.172665e+01  2.332961e+01  # Hw SPCE
   2710     308   10   0.423800  8.859890e+00  2.940412e+01  3.385695e+01  # Hw SPCE
   2711     308   11  -0.847600  9.541157e+00  2.931748e+01  3.313006e+01  # Ow SPCE
   2712     308   10   0.423800  9.460734e+00  3.009287e+01  3.250372e+01  # Hw SPCE
   2713     309   10   0.423800  2.833367e+01  8.010502e+00  9.540220e+00  # Hw SPCE
   2714     309   11  -0.847600  2.879515e+01  7.123441e+00  9.527698e+00  # Ow SPCE
   2715     309   10   0.423800  2.811257e+01  6.392635e+00  9.524518e+00  # Hw SPCE
   2716     310   10   0.423800  1.759829e+01  2.297271e+01  2.835708e+01  # Hw SPCE
   2717     310   11  -0.847600  1.688846e+01  2.365215e+01  2.817135e+01  # Ow SPCE
   2718     310   10   0.423800  1.600417e+01  2.319409e+01  2.808070e+01  # Hw SPCE
   2719     311   10   0.423800  1.315197e+01  7.061009e+00  1.624085e+01  # Hw SPCE
   2720     311   11  -0.847600  1.401966e+01  7.509359e+00  1.602612e+01  # Ow SPCE
   2721     311   10   0.423800  1.474848e+01  7.107977e+00  1.658084e+01  # Hw SPCE
   2722     312   10   0.423800  2.800373e+01  1.901751e+01  1.292518e+01  # Hw SPCE
   2723     312   11  -0.847600  2.770380e+01  1.806394e+01  1.295233e+01  # Ow SPCE
   2724     312   10   0.423800  2.849862e+01  1.746217e+01  1.287399e+01  # Hw SPCE
   2725     313   10   0.423800  6.699578e+00  2.652112e+01  2.757322e+01  # Hw SPCE
   2726     313   11  -0.847600  6.074205e+00  2.575041e+01  2.745108e+01  # Ow SPCE
   2727     313   10   0.423800  6.382109e+00  2.518993e+01  2.668228e+01  # Hw SPCE
   2728     314   10   0.423800  2.363620e+01  2.038841e+01  3.300887e+01  # Hw SPCE
   2729     314   11  -0.847600  2.324684e+01  1.983096e+01  3.227563e+01  # Ow SPCE
   2730     314   10   0.423800  2.390506e+01  1.975897e+01  3.152625e+01  # Hw SPCE
   2731     315   10   0.423800  2.794300e+00  1.379459e+01  7.845798e+00  # Hw SPCE
   2732     315   11  -0.847600  2.128382e+00  1.336637e+01  8.456679e+00  # Ow SPCE
   2733     315   10   0.423800  1.528513e+00  1.276614e+01  7.927636e+00  # Hw SPCE
   2734     316   10   0.423800  3.500351e+01  5.299031e+00  5.657160e+00  # Hw SPCE
   2735     316   11  -0.847600  3.446441e+01  6.125302e+00  5.820394e+00  # Ow SPCE
   2736     316   10   0.423800  3.486978e+01  6.644550e+00  6.572758e+00  # Hw SPCE
   2737     317   10   0.423800  8.024444e+00  7.081978e+00  1.782116e+01  # Hw SPCE
   2738     317   11  -0.847600  7.155994e+00  7.574650e+00  1.776576e+01  # Ow SPCE
   2739     317   10   0.423800  7.082503e+00  8.208245e+00  1.853593e+01  # Hw SPCE
   2740     318   10   0.423800  5.231113e+00  1.345481e+01  2.086293e+01  # Hw SPCE
   2741     318   11  -0.847600  5.980119e+00  1.393766e+01  2.131663e+01  # Ow SPCE
   2742     318   10   0.423800  5.666348e+00  1.428397e+01  2.220072e+01  # Hw SPCE
   2743     319   10   0.423800  2.533820e+01  6.918644e+00  1.712843e+01  # Hw SPCE
   2744     319   11  -0.847600  2.493445e+01  7.312766e+00  1.630280e+01  # Ow SPCE
   2745     319   10   0.423800  2.502159e+01  8.308539e+00  1.633182e+01  # Hw SPCE
   2746     320   10   0.423800  2.977260e+01  1.162593e+01  2.208718e+01  # Hw SPCE
   2747     320   11  -0.847600  2.903025e+01  1.095856e+01  2.202779e+01  # Ow SPCE
   2748     320   10   0.423800  2.820138e+01  1.141047e+01  2.169799e+01  # Hw SPCE
   2749     321   10   0.423800  2.561059e+00  2.687240e+01  2.668096e+00  # Hw SPCE
   2750     321   11  -0.847600  3.370321e+00  2.698687e+01  3.244283e+00  # Ow SPCE
   2751     321   10   0.423800  3.086480e+00  2.720281e+01  4.178521e+00  # Hw SPCE
   2752     322   10   0.423800  3.324148e+01  2.759673e+01  6.788809e+00  # Hw SPCE
   2753     322   11  -0.847600  3.283348e+01  2.670715e+01  6.994195e+00  # Ow SPCE
   2754     322   10   0.423800  3.350773e+01  2.612944e+01  7.454231e+00  # Hw SPCE
   2755     323   10   0.423800  1.607770e+01  8.485860e+00  3.233285e+01  # Hw SPCE
   2756     323   11  -0.847600  1.512433e+01  8.760088e+00  3.245885e+01  # Ow SPCE
   2757     323   10   0.423800  1.505883e+01  9.757710e+00  3.243738e+01  # Hw SPCE
   2758     324   10   0.423800  3.500800e+01  1.119930e+01  2.375900e+01  # Hw SPCE
   2759     324   11  -0.847600  3.435219e+01  1.068587e+01  2.320555e+01  # Ow SPCE
   2760     324   10   0.423800  3.447828e+01  9.706361e+00  2.336257e+01  # Hw SPCE
   2761     325   10   0.423800  3.101142e+01  1.418372e+01  3.140219e+01  # Hw SPCE
   2762     325   11  -0.847600  3.039025e+01  1.413097e+01  3.218410e+01  # Ow SPCE
   2763     325   10   0.423800  3.050248e+01  1.494467e+01  3.275444e+01  # Hw SPCE
   2764     326   10   0.423800  3.242371e+01  1.904834e+01  2.787453e+01  # Hw SPCE
   2765     326   11  -0.847600  3.152215e+01  1.947748e+01  2.792947e+01  # Ow SPCE
   2766     326   10   0.423800  3.162864e+01  2.045378e+01  2.811788e+01  # Hw SPCE
   2767     327   10   0.423800  2.003522e+01  3.041138e+01  5.324952e+00  # Hw SPCE
   2768     327   11  -0.847600  2.082255e+01  3.079383e+01  5.808536e+00  # Ow SPCE
   2769     327   10   0.423800  2.144065e+01  3.005466e+01  6.076057e+00  # Hw SPCE
   2770     328   10   0.423800  1.161759e+01  2.180558e+00  2.989217e+01  # Hw SPCE
   2771     328   11  -0.847600  1.248186e+01  1.678667e+00  2.992587e+01  # Ow SPCE
   2772     328   10   0.423800  1.280006e+01  1.500003e+00  2.899483e+01  # Hw SPCE
   2773     329   10   0.423800  8.201614e+00  1.526758e+01  3.450142e+01  # Hw SPCE
   2774     329   11  -0.847600  9.127715e+00  1.498318e+01  3.474932e+01  # Ow SPCE
   2775     329   10   0.423800  9.716715e+00  1.578845e+01  3.481731e+01  # Hw SPCE
   2776     330   10   0.423800  3.768982e+00  2.554182e+00  9.735391e+00  # Hw SPCE
   2777     330   11  -0.847600  4.609237e+00  2.214193e+00  9.313043e+00  # Ow SPCE
   2778     330   10   0.423800  5.393299e+00  2.467879e+00  9.879515e+00  # Hw SPCE
   2779     331   10   0.423800  3.265069e+01  2.520861e+01  1.264256e+01  # Hw SPCE
   2780     331   11  -0.847600  3.289997e+01  2.425215e+01  1.279436e+01  # Ow SPCE
   2781     331   10   0.423800  3.208508e+01  2.367832e+01  1.271267e+01  # Hw SPCE
   2782     332   10   0.423800  3.086586e+01  1.987683e+01  1.135382e+01  # Hw SPCE
   2783     332   11  -0.847600  3.025874e+01  2.067143e+01  1.135701e+01  # Ow SPCE
   2784     332   10   0.423800  2.931725e+01  2.037218e+01  1.120194e+01  # Hw SPCE
   2785     333   10   0.423800  1.074383e+01  6.823912e+00  1.272711e+01  # Hw SPCE
   2786     333   11  -0.847600  1.122140e+01  7.700013e+00  1.279326e+01  # Ow SPCE
   2787     333   10   0.423800  1.110937e+01  8.071962e+00  1.371473e+01  # Hw SPCE
   2788     334   10   0.423800  1.607384e+01  3.425017e+01  1.325686e+01  # Hw SPCE
   2789     334   11  -0.847600  1.588217e+01  3.501744e+01  1.264484e+01  # Ow SPCE
   2790     334   10   0.423800  1.598575e+01  3.472053e+01  1.169557e+01  # Hw SPCE
   2791     335   10   0.423800  9.989322e+00  3.439519e+01  1.602951e+01  # Hw SPCE
   2792     335   11  -0.847600  1.098548e+01  3.439256e+01  1.594200e+01  # Ow SPCE
   2793     335   10   0.423800  1.138170e+01  3.500605e+01  1.662511e+01  # Hw SPCE
   2794     336   10   0.423800  1.205958e+01  1.500001e+00  1.481888e+01  # Hw SPCE
   2795     336   11  -0.847600  1.302518e+01  1.731837e+00  1.493662e+01  # Ow SPCE
   2796     336   10   0.423800  1.331198e+01  1.502625e+00  1.586678e+01  # Hw SPCE
   2797     337   10   0.423800  2.413627e+01  2.243299e+01  1.887229e+01  # Hw SPCE
   2798     337   11  -0.847600  2.439938e+01  2.326448e+01  1.838302e+01  # Ow SPCE
   2799     337   10   0.423800  2.537839e+01  2.342752e+01  1.850532e+01  # Hw SPCE
   2800     338   10   0.423800  3.586101e+00  5.268535e+00  1.974379e+01  # Hw SPCE
   2801     338   11  -0.847600  4.583014e+00  5.346854e+00  1.973824e+01  # Ow SPCE
   2802     338   10   0.423800  4.841454e+00  6.312878e+00  1.973589e+01  # Hw SPCE
   2803     339   10   0.423800  9.596578e+00  1.669456e+01  3.407488e+00  # Hw SPCE
   2804     339   11  -0.847600  9.306490e+00  1.714459e+01  2.562906e+00  # Ow SPCE
   2805     339   10   0.423800  8.444138e+00  1.674525e+01  2.251660e+00  # Hw SPCE
   2806     340   10   0.423800  1.445447e+01  1.497648e+01  7.646745e+00  # Hw SPCE
   2807     340   11  -0.847600  1.532122e+01  1.528906e+01  8.035382e+00  # Ow SPCE
   2808     340   10   0.423800  1.607894e+01  1.482590e+01  7.575656e+00  # Hw SPCE
   2809     341   10   0.423800  2.095289e+01  3.112034e+01  2.571288e+01  # Hw SPCE
   2810     341   11  -0.847600  2.083238e+01  3.143554e+01  2.477154e+01  # Ow SPCE
   2811     341   10   0.423800  1.991871e+01  3.182799e+01  2.466583e+01  # Hw SPCE
   2812     342   10   0.423800  1.313903e+01  3.193926e+01  1.076380e+01  # Hw SPCE
   2813     342   11  -0.847600  1.398408e+01  3.241867e+01  1.100055e+01  # Ow SPCE
   2814     342   10   0.423800  1.465758e+01  3.228587e+01  1.027339e+01  # Hw SPCE
   2815     343   10   0.423800  2.842761e+01  1.214733e+01  2.377786e+01  # Hw SPCE
   2816     343   11  -0.847600  2.909919e+01  1.266539e+01  2.430757e+01  # Ow SPCE
   2817     343   10   0.423800  2.998823e+01  1.221068e+01  2.425437e+01  # Hw SPCE
   2818     344   10   0.423800  1.829630e+01  1.693215e+01  3.797364e+00  # Hw SPCE
   2819     344   11  -0.847600  1.811834e+01  1.626967e+01  3.069729e+00  # Ow SPCE
   2820     344   10   0.423800  1.745383e+01  1.559413e+01  3.389215e+00  # Hw SPCE
   2821     345   10   0.423800  2.813928e+01  3.038785e+01  8.198819e+00  # Hw SPCE
   2822     345   11  -0.847600  2.892721e+01  2.980983e+01  8.411047e+00  # Ow SPCE
   2823     345   10   0.423800  2.962474e+01  3.035483e+01  8.876272e+00  # Hw SPCE
   2824     346   10   0.423800  1.450843e+01  8.978874e+00  1.329210e+01  # Hw SPCE
   2825     346   11  -0.847600  1.419318e+01  8.465963e+00  1.249364e+01  # Ow SPCE
   2826     346   10   0.423800  1.408084e+01  7.503082e+00  1.273908e+01  # Hw SPCE
   2827     347   10   0.423800  1.683865e+01  1.107384e+01  1.231434e+01  # Hw SPCE
   2828     347   11  -0.847600  1.729854e+01  1.030788e+01  1.276357e+01  # Ow SPCE
   2829     347   10   0.423800  1.685394e+01  9.451599e+00  1.250068e+01  # Hw SPCE
   2830     348   10   0.423800  1.386858e+01  1.500074e+00  1.981249e+01  # Hw SPCE
   2831     348   11  -0.847600  1.288127e+01  1.559620e+00  1.995969e+01  # Ow SPCE
   2832     348   10   0.423800  1.240897e+01  1.500069e+00  1.908027e+01  # Hw SPCE
   2833     349   10   0.423800  2.118494e+01  1.859184e+01  2.118271e+01  # Hw SPCE
   2834     349   11  -0.847600  2.178821e+01  1.904869e+01  2.052899e+01  # Ow SPCE
   2835     349   10   0.423800  2.156061e+01  2.002163e+01  2.048902e+01  # Hw SPCE
   2836     350   10   0.423800  9.434526e+00  1.951668e+01  2.473983e+00  # Hw SPCE
   2837     350   11  -0.847600  9.354057e+00  1.982863e+01  1.527300e+00  # Ow SPCE
   2838     350   10   0.423800  9.400656e+00  2.082718e+01  1.500301e+00  # Hw SPCE
   2839     351   10   0.423800  2.999435e+01  7.873432e+00  1.878177e+01  # Hw SPCE
   2840     351   11  -0.847600  3.089553e+01  8.139906e+00  1.912364e+01  # Ow SPCE
   2841     351   10   0.423800  3.104846e+01  9.110700e+00  1.893879e+01  # Hw SPCE
   2842     352   10   0.423800  2.895714e+01  2.379203e+00  1.756376e+01  # Hw SPCE
   2843     352   11  -0.847600  2.887536e+01  3.154561e+00  1.693755e+01  # Ow SPCE
   2844     352   10   0.423800  2.846239e+01  3.928549e+00  1.741755e+01  # Hw SPCE
   2845     353   10   0.423800  1.153159e+01  1.794643e+01  2.918494e+01  # Hw SPCE
   2846     353   11  -0.847600  1.126272e+01  1.700134e+01  2.937072e+01  # Ow SPCE
   2847     353   10   0.423800  1.207333e+01  1.641586e+01  2.935955e+01  # Hw SPCE
   2848     354   10   0.423800  1.265069e+01  1.596980e+01  6.770714e+00  # Hw SPCE
   2849     354   11  -0.847600  1.211066e+01  1.591204e+01  7.610374e+00  # Ow SPCE
   2850     354   10   0.423800  1.114456e+01  1.605566e+01  7.395862e+00  # Hw SPCE
   2851     355   10   0.423800  1.871004e+01  2.304973e+00  2.354233e+01  # Hw SPCE
   2852     355   11  -0.847600  1.864677e+01  3.290617e+00  2.338580e+01  # Ow SPCE
   2853     355   10   0.423800  1.768685e+01  3.550516e+00  2.328092e+01  # Hw SPCE
   2854     356   10   0.423800  1.506964e+01  1.313144e+01  2.044847e+01  # Hw SPCE
   2855     356   11  -0.847600  1.573529e+01  1.294113e+01  1.972688e+01  # Ow SPCE
   2856     356   10   0.423800  1.590587e+01  1.377525e+01  1.920233e+01  # Hw SPCE
   2857     357   10   0.423800  3.462008e+01  8.431228e+00  4.319504e+00  # Hw SPCE
   2858     357   11  -0.847600  3.394607e+01  9.116481e+00  4.595425e+00  # Ow SPCE
   2859     357   10   0.423800  3.394340e+01  9.866556e+00  3.934079e+00  # Hw SPCE
   2860     358   10   0.423800  1.961240e+01  4.895056e+00  1.760793e+01  # Hw SPCE
   2861     358   11  -0.847600  2.056207e+01  4.884336e+00  1.792101e+01  # Ow SPCE
   2862     358   10   0.423800  2.087516e+01  5.822605e+00  1.806806e+01  # Hw SPCE
   2863     359   10   0.423800  2.509708e+01  2.650175e+01  3.167637e+01  # Hw SPCE
   2864     359   11  -0.847600  2.434103e+01  2.605464e+01  3.215437e+01  # Ow SPCE
   2865     359   10   0.423800  2.435875e+01  2.631207e+01  3.312051e+01  # Hw SPCE
   2866     360   10   0.423800  4.402228e+00  2.597231e+01  2.559326e+01  # Hw SPCE
   2867     360   11  -0.847600  4.739125e+00  2.684678e+01  2.524426e+01  # Ow SPCE
   2868     360   10   0.423800  5.025642e+00  2.742303e+01  2.600967e+01  # Hw SPCE
   2869     361   10   0.423800  2.859901e+01  8.539036e+00  1.721653e+01  # Hw SPCE
   2870     361   11  -0.847600  2.806002e+01  8.708345e+00  1.804165e+01  # Ow SPCE
   2871     361   10   0.423800  2.723803e+01  9.225246e+00  1.780260e+01  # Hw SPCE
   2872     362   10   0.423800  3.264093e+01  2.132876e+01  3.086166e+01  # Hw SPCE
   2873     362   11  -0.847600  3.315788e+01  2.130536e+01  3.000597e+01  # Ow SPCE
   2874     362   10   0.423800  3.361071e+01  2.041849e+01  2.991427e+01  # Hw SPCE
   2875     363   10   0.423800  4.540935e+00  1.923928e+01  9.183285e+00  # Hw SPCE
   2876     363   11  -0.847600  5.317388e+00  1.902162e+01  9.774678e+00  # Ow SPCE
   2877     363   10   0.423800  6.069118e+00  1.866489e+01  9.220025e+00  # Hw SPCE
   2878     364   10   0.423800  1.174692e+01  1.250487e+01  1.577782e+01  # Hw SPCE
   2879     364   11  -0.847600  1.096078e+01  1.221809e+01  1.523034e+01  # Ow SPCE
   2880     364   10   0.423800  1.063196e+01  1.299159e+01  1.468851e+01  # Hw SPCE
   2881     365   10   0.423800  2.653032e+01  2.975961e+01  6.657502e+00  # Hw SPCE
   2882     365   11  -0.847600  2.684901e+01  3.013998e+01  5.789310e+00  # Ow SPCE
   2883     365   10   0.423800  2.697359e+01  2.940089e+01  5.127318e+00  # Hw SPCE
   2884     366   10   0.423800  1.837267e+01  3.501015e+01  2.466260e+01  # Hw SPCE
   2885     366   11  -0.847600  1.752632e+01  3.461536e+01  2.502013e+01  # Ow SPCE
   2886     366   10   0.423800  1.732660e+01  3.376244e+01  2.453780e+01  # Hw SPCE
   2887     367   10   0.423800  1.992905e+01  1.269421e+01  2.128477e+01  # Hw SPCE
   2888     367   11  -0.847600  2.033679e+01  1.359125e+01  2.111427e+01  # Ow SPCE
   2889     367   10   0.423800  1.965583e+01  1.419302e+01  2.069694e+01  # Hw SPCE
   2890     368   10   0.423800  6.037982e+00  2.144510e+01  3.277282e+01  # Hw SPCE
   2891     368   11  -0.847600  5.635131e+00  2.078299e+01  3.340474e+01  # Ow SPCE
   2892     368   10   0.423800  4.859291e+00  2.120190e+01  3.387653e+01  # Hw SPCE
   2893     369   10   0.423800  3.092502e+01  2.453125e+01  1.446760e+01  # Hw SPCE
   2894     369   11  -0.847600  3.036711e+01  2.440924e+01  1.528849e+01  # Ow SPCE
   2895     369   10   0.423800  3.095262e+01  2.413665e+01  1.605195e+01  # Hw SPCE
   2896     370   10   0.423800  3.466586e+01  2.479906e+01  3.189727e+01  # Hw SPCE
   2897     370   11  -0.847600  3.501002e+01  2.508008e+01  3.279314e+01  # Ow SPCE
   2898     370   10   0.423800  3.481869e+01  2.436321e+01  3.346357e+01  # Hw SPCE
   2899     371   10   0.423800  1.524540e+01  1.076611e+01  2.177317e+01  # Hw SPCE
   2900     371   11  -0.847600  1.549480e+01  1.002565e+01  2.114905e+01  # Ow SPCE
   2901     371   10   0.423800  1.551668e+01  9.160525e+00  2.165013e+01  # Hw SPCE
   2902     372   10   0.423800  8.006533e+00  1.449968e+01  1.914693e+01  # Hw SPCE
   2903     372   11  -0.847600  8.063932e+00  1.371538e+01  1.976465e+01  # Ow SPCE
   2904     372   10   0.423800  8.826817e+00  1.384510e+01  2.039804e+01  # Hw SPCE
   2905     373   10   0.423800  2.287619e+01  2.990976e+01  3.349737e+01  # Hw SPCE
   2906     373   11  -0.847600  2.204349e+01  3.045440e+01  3.339744e+01  # Ow SPCE
   2907     373   10   0.423800  2.124626e+01  2.988350e+01  3.359360e+01  # Hw SPCE
   2908     374   10   0.423800  1.877119e+01  1.719808e+01  1.397874e+01  # Hw SPCE
   2909     374   11  -0.847600  1.953829e+01  1.665881e+01  1.432621e+01  # Ow SPCE
   2910     374   10   0.423800  1.918942e+01  1.585589e+01  1.480955e+01  # Hw SPCE
   2911     375   10   0.423800  1.737591e+01  1.364369e+01  3.406420e+01  # Hw SPCE
   2912     375   11  -0.847600  1.801107e+01  1.440899e+01  3.395985e+01  # Ow SPCE
   2913     375   10   0.423800  1.831508e+01  1.471521e+01  3.486196e+01  # Hw SPCE
   2914     376   10   0.423800  3.367915e+01  3.053811e+00  8.807431e+00  # Hw SPCE
   2915     376   11  -0.847600  3.464260e+01  2.998019e+00  9.069448e+00  # Ow SPCE
   2916     376   10   0.423800  3.500968e+01  3.920593e+00  9.188221e+00  # Hw SPCE
   2917     377   10   0.423800  1.969321e+01  6.705877e+00  9.512191e+00  # Hw SPCE
   2918     377   11  -0.847600  2.065087e+01  6.418206e+00  9.524372e+00  # Ow SPCE
   2919     377   10   0.423800  2.069916e+01  5.419536e+00  9.506298e+00  # Hw SPCE
   2920     378   10   0.423800  2.688170e+01  2.323880e+01  1.337524e+01  # Hw SPCE
   2921     378   11  -0.847600  2.700762e+01  2.241089e+01  1.392179e+01  # Ow SPCE
   2922     378   10   0.423800  2.630863e+01  2.173947e+01  1.367561e+01  # Hw SPCE
   2923     379   10   0.423800  7.398917e+00  5.938016e+00  2.552226e+01  # Hw SPCE
   2924     379   11  -0.847600  7.676532e+00  6.598427e+00  2.482456e+01  # Ow SPCE
   2925     379   10   0.423800  8.508980e+00  7.066495e+00  2.512111e+01  # Hw SPCE
   2926     380   10   0.423800  6.194392e+00  3.440115e+01  2.829465e+01  # Hw SPCE
   2927     380   11  -0.847600  5.493484e+00  3.501057e+01  2.792406e+01  # Ow SPCE
   2928     380   10   0.423800  5.275428e+00  3.473704e+01  2.698725e+01  # Hw SPCE
   2929     381   10   0.423800  1.995357e+01  2.607095e+01  2.308421e+01  # Hw SPCE
   2930     381   11  -0.847600  1.988350e+01  2.507865e+01  2.318626e+01  # Ow SPCE
   2931     381   10   0.423800  2.079912e+01  2.468777e+01  2.328036e+01  # Hw SPCE
   2932     382   10   0.423800  4.693395e+00  6.047980e+00  1.548525e+01  # Hw SPCE
   2933     382   11  -0.847600  4.230140e+00  5.290189e+00  1.594476e+01  # Ow SPCE
   2934     382   10   0.423800  3.287570e+00  5.552181e+00  1.615194e+01  # Hw SPCE
   2935     383   10   0.423800  3.182776e+01  1.128020e+01  1.381000e+01  # Hw SPCE
   2936     383   11  -0.847600  3.218787e+01  1.205818e+01  1.432484e+01  # Ow SPCE
   2937     383   10   0.423800  3.299323e+01  1.242302e+01  1.385763e+01  # Hw SPCE
   2938     384   10   0.423800  8.205160e+00  2.364965e+01  1.770536e+01  # Hw SPCE
   2939     384   11  -0.847600  8.131307e+00  2.406490e+01  1.679866e+01  # Ow SPCE
   2940     384   10   0.423800  8.568564e+00  2.496420e+01  1.680730e+01  # Hw SPCE
   2941     385   10   0.423800  2.663961e+01  9.379374e+00  1.374159e+01  # Hw SPCE
   2942     385   11  -0.847600  2.605147e+01  1.009058e+01  1.412665e+01  # Ow SPCE
   2943     385   10   0.423800  2.592255e+01  1.081771e+01  1.345236e+01  # Hw SPCE
   2944     386   10   0.423800  4.732662e+00  1.638523e+01  1.482298e+01  # Hw SPCE
   2945     386   11  -0.847600  4.808022e+00  1.539023e+01  1.475743e+01  # Ow SPCE
   2946     386   10   0.423800  5.367650e+00  1.514987e+01  1.396431e+01  # Hw SPCE
   2947     387   10   0.423800  1.386531e+01  2.623312e+01  1.032495e+01  # Hw SPCE
   2948     387   11  -0.847600  1.392306e+01  2.721012e+01  1.053019e+01  # Ow SPCE
   2949     387   10   0.423800  1.465180e+01  2.736824e+01  1.119647e+01  # Hw SPCE
   2950     388   10   0.423800  9.446955e+00  3.121035e+01  8.641264e+00  # Hw SPCE
   2951     388   11  -0.847600  9.065527e+00  3.031865e+01  8.397575e+00  # Ow SPCE
   2952     388   10   0.423800  9.806844e+00  2.969667e+01  8.145407e+00  # Hw SPCE
   2953     389   10   0.423800  3.405470e+00  1.012716e+01  3.194864e+01  # Hw SPCE
   2954     389   11  -0.847600  3.008044e+00  9.342997e+00  3.242523e+01  # Ow SPCE
   2955     389   10   0.423800  2.267755e+00  8.958119e+00  3.187401e+01  # Hw SPCE
   2956     390   10   0.423800  8.957257e+00  2.700339e+01  3.029296e+01  # Hw SPCE
   2957     390   11  -0.847600  8.106202e+00  2.734094e+01  3.069517e+01  # Ow SPCE
   2958     390   10   0.423800  7.666846e+00  2.660568e+01  3.121128e+01  # Hw SPCE
   2959     391   10   0.423800  2.790940e+00  7.058268e+00  3.287103e+01  # Hw SPCE
   2960     391   11  -0.847600  2.523657e+00  6.378867e+00  3.218767e+01  # Ow SPCE
   2961     391   10   0.423800  1.526709e+00  6.355361e+00  3.211322e+01  # Hw SPCE
   2962     392   10   0.423800  7.090912e+00  3.000829e+01  1.540080e+01  # Hw SPCE
   2963     392   11  -0.847600  8.060724e+00  2.976628e+01  1.537087e+01  # Ow SPCE
   2964     392   10   0.423800  8.419979e+00  2.971346e+01  1.630261e+01  # Hw SPCE
   2965     393   10   0.423800  2.513877e+01  2.705042e+01  1.601527e+00  # Hw SPCE
   2966     393   11  -0.847600  2.460421e+01  2.789478e+01  1.637425e+00  # Ow SPCE
   2967     393   10   0.423800  2.477285e+01  2.835934e+01  2.506762e+00  # Hw SPCE
   2968     394   10   0.423800  9.976563e+00  1.207804e+01  9.948471e+00  # Hw SPCE
   2969     394   11  -0.847600  9.705532e+00  1.113734e+01  1.015249e+01  # Ow SPCE
   2970     394   10   0.423800  9.074139e+00  1.081224e+01  9.448469e+00  # Hw SPCE
   2971     395   10   0.423800  2.484883e+01  4.807432e+00  1.644886e+01  # Hw SPCE
   2972     395   11  -0.847600  2.389181e+01  5.053486e+00  1.629535e+01  # Ow SPCE
   2973     395   10   0.423800  2.334479e+01  4.772503e+00  1.708390e+01  # Hw SPCE
   2974     396   10   0.423800  1.499990e+00  4.884700e+00  1.431808e+01  # Hw SPCE
   2975     396   11  -0.847600  2.420658e+00  5.239043e+00  1.415434e+01  # Ow SPCE
   2976     396   10   0.423800  2.795318e+00  4.823279e+00  1.332562e+01  # Hw SPCE
   2977     397   10   0.423800  2.547135e+01  1.940930e+01  9.393868e+00  # Hw SPCE
   2978     397   11  -0.847600  2.516064e+01  2.007680e+01  8.717181e+00  # Ow SPCE
   2979     397   10   0.423800  2.525977e+01  1.969200e+01  7.799521e+00  # Hw SPCE
   2980     398   10   0.423800  2.689410e+01  1.624405e+00  5.497872e+00  # Hw SPCE
   2981     398   11  -0.847600  2.736343e+01  1.498920e+00  6.371930e+00  # Ow SPCE
   2982     398   10   0.423800  2.835185e+01  1.553697e+00  6.230391e+00  # Hw SPCE
   2983     399   10   0.423800  3.311475e+01  1.274080e+01  2.205413e+01  # Hw SPCE
   2984     399   11  -0.847600  3.274981e+01  1.254636e+01  2.296462e+01  # Ow SPCE
   2985     399   10   0.423800  3.262966e+01  1.340345e+01  2.346558e+01  # Hw SPCE
   2986     400   10   0.423800  1.383426e+01  2.518836e+01  1.660323e+01  # Hw SPCE
   2987     400   11  -0.847600  1.353667e+01  2.436012e+01  1.707806e+01  # Ow SPCE
   2988     400   10   0.423800  1.259969e+01  2.413918e+01  1.680741e+01  # Hw SPCE
   2989     401   10   0.423800  4.382860e+00  3.087117e+00  3.266943e+01  # Hw SPCE
   2990     401   11  -0.847600  5.314124e+00  2.805636e+00  3.243810e+01  # Ow SPCE
   2991     401   10   0.423800  5.289654e+00  1.917156e+00  3.197984e+01  # Hw SPCE
   2992     402   10   0.423800  3.071201e+01  5.814817e+00  3.057342e+01  # Hw SPCE
   2993     402   11  -0.847600  3.001409e+01  5.175493e+00  3.025067e+01  # Ow SPCE
   2994     402   10   0.423800  3.043173e+01  4.282276e+00  3.008415e+01  # Hw SPCE
   2995     403   10   0.423800  2.601236e+01  3.163486e+01  1.189206e+01  # Hw SPCE
   2996     403   11  -0.847600  2.556231e+01  3.090462e+01  1.137806e+01  # Ow SPCE
   2997     403   10   0.423800  2.587421e+01  3.092457e+01  1.042815e+01  # Hw SPCE
   2998     404   10   0.423800  2.988502e+01  2.929679e+01  3.294576e+01  # Hw SPCE
   2999     404   11  -0.847600  3.033931e+01  3.016777e+01  3.275861e+01  # Ow SPCE
   3000     404   10   0.423800  2.968605e+01  3.091603e+01  3.287420e+01  # Hw SPCE
   3001     405   10   0.423800  2.865518e+01  2.997465e+01  1.271310e+01  # Hw SPCE
   3002     405   11  -0.847600  2.780762e+01  3.039073e+01  1.238367e+01  # Ow SPCE
   3003     405   10   0.423800  2.789850e+01  3.060737e+01  1.141166e+01  # Hw SPCE
   3004     406   10   0.423800  2.657236e+01  2.751757e+01  2.157115e+01  # Hw SPCE
   3005     406   11  -0.847600  2.672276e+01  2.828044e+01  2.219996e+01  # Ow SPCE
   3006     406   10   0.423800  2.719836e+01  2.901832e+01  2.172107e+01  # Hw SPCE
   3007     407   10   0.423800  3.874083e+00  7.984140e+00  2.340123e+01  # Hw SPCE
   3008     407   11  -0.847600  4.161456e+00  7.032956e+00  2.351377e+01  # Ow SPCE
   3009     407   10   0.423800  3.897210e+00  6.507048e+00  2.270532e+01  # Hw SPCE
   3010     408   10   0.423800  2.125924e+01  1.756075e+01  1.822124e+01  # Hw SPCE
   3011     408   11  -0.847600  2.048113e+01  1.749475e+01  1.884589e+01  # Ow SPCE
   3012     408   10   0.423800  2.070704e+01  1.687215e+01  1.959512e+01  # Hw SPCE
   3013     409   10   0.423800  2.360427e+01  1.584165e+01  1.683840e+01  # Hw SPCE
   3014     409   11  -0.847600  2.448476e+01  1.536870e+01  1.680603e+01  # Ow SPCE
   3015     409   10   0.423800  2.467822e+01  1.508847e+01  1.586579e+01  # Hw SPCE
   3016     410   10   0.423800  3.495765e+01  4.864809e+00  1.704832e+01  # Hw SPCE
   3017     410   11  -0.847600  3.439097e+01  5.589151e+00  1.665563e+01  # Ow SPCE
   3018     410   10   0.423800  3.436005e+01  5.486128e+00  1.566143e+01  # Hw SPCE
   3019     411   10   0.423800  4.196661e+00  2.890805e+00  1.984973e+01  # Hw SPCE
   3020     411   11  -0.847600  3.300552e+00  2.475268e+00  2.000567e+01  # Ow SPCE
   3021     411   10   0.423800  3.413856e+00  1.499983e+00  2.019536e+01  # Hw SPCE
   3022     412   10   0.423800  3.414969e+01  2.597628e+01  1.023723e+01  # Hw SPCE
   3023     412   11  -0.847600  3.484599e+01  2.532285e+01  9.940279e+00  # Ow SPCE
   3024     412   10   0.423800  3.444197e+01  2.441017e+01  9.878783e+00  # Hw SPCE
   3025     413   10   0.423800  1.326115e+01  2.273589e+01  7.427679e+00  # Hw SPCE
   3026     413   11  -0.847600  1.281287e+01  2.184247e+01  7.456510e+00  # Ow SPCE
   3027     413   10   0.423800  1.182733e+01  2.196758e+01  7.570772e+00  # Hw SPCE
   3028     414   10   0.423800  3.167353e+01  1.500147e+00  1.532775e+01  # Hw SPCE
   3029     414   11  -0.847600  3.230208e+01  2.205475e+00  1.499998e+01  # Ow SPCE
   3030     414   10   0.423800  3.321070e+01  1.808321e+00  1.487086e+01  # Hw SPCE
   3031     415   10   0.423800  1.746970e+01  2.935539e+01  2.861244e+01  # Hw SPCE
   3032     415   11  -0.847600  1.843183e+01  2.916328e+01  2.880581e+01  # Ow SPCE
   3033     415   10   0.423800  1.851507e+01  2.825271e+01  2.921071e+01  # Hw SPCE
   3034     416   10   0.423800  3.262449e+01  1.228882e+01  3.147797e+00  # Hw SPCE
   3035     416   11  -0.847600  3.243950e+01  1.130649e+01  3.119577e+00  # Ow SPCE
   3036     416   10   0.423800  3.162416e+01  1.113663e+01  2.566071e+00  # Hw SPCE
   3037     417   10   0.423800  2.073318e+01  3.120873e+01  2.875388e+01  # Hw SPCE
   3038     417   11  -0.847600  2.097037e+01  3.217153e+01  2.862448e+01  # Ow SPCE
   3039     417   10   0.423800  2.014063e+01  3.269673e+01  2.843554e+01  # Hw SPCE
   3040     418   10   0.423800  2.496063e+01  2.866633e+01  1.590095e+01  # Hw SPCE
   3041     418   11  -0.847600  2.551816e+01  2.793304e+01  1.551178e+01  # Ow SPCE
   3042     418   10   0.423800  2.638892e+01  2.830883e+01  1.519468e+01  # Hw SPCE
   3043     419   10   0.423800  8.392109e+00  3.486280e+00  2.412679e+01  # Hw SPCE
   3044     419   11  -0.847600  8.175010e+00  2.588010e+00  2.374472e+01  # Ow SPCE
   3045     419   10   0.423800  7.445801e+00  2.164554e+00  2.428225e+01  # Hw SPCE
   3046     420   10   0.423800  6.220817e+00  1.062359e+01  1.717800e+01  # Hw SPCE
   3047     420   11  -0.847600  7.129453e+00  1.055798e+01  1.759040e+01  # Ow SPCE
   3048     420   10   0.423800  7.271702e+00  1.133132e+01  1.820823e+01  # Hw SPCE
   3049     421   10   0.423800  8.185926e+00  5.685970e+00  1.599110e+01  # Hw SPCE
   3050     421   11  -0.847600  7.788194e+00  6.544432e+00  1.566728e+01  # Ow SPCE
   3051     421   10   0.423800  8.519005e+00  7.201334e+00  1.548182e+01  # Hw SPCE
   3052     422   10   0.423800  2.117445e+01  6.875658e+00  2.867132e+01  # Hw SPCE
   3053     422   11  -0.847600  2.125526e+01  6.415272e+00  2.778729e+01  # Ow SPCE
   3054     422   10   0.423800  2.049270e+01  5.778702e+00  2.767206e+01  # Hw SPCE
   3055     423   10   0.423800  2.933232e+01  3.500996e+01  8.250610e+00  # Hw SPCE
   3056     423   11  -0.847600  3.028450e+01  3.472353e+01  8.356937e+00  # Ow SPCE
   3057     423   10   0.423800  3.081017e+01  3.500997e+01  7.555924e+00  # Hw SPCE
   3058     424   10   0.423800  5.505343e+00  2.852628e+01  3.631533e+00  # Hw SPCE
   3059     424   11  -0.847600  4.947600e+00  2.934352e+01  3.486502e+00  # Ow SPCE
   3060     424   10   0.423800  3.980866e+00  2.908839e+01  3.468346e+00  # Hw SPCE
   3061     425   10   0.423800  1.644559e+01  2.435253e+01  1.606578e+01  # Hw SPCE
   3062     425   11  -0.847600  1.704373e+01  2.513447e+01  1.624131e+01  # Ow SPCE
   3063     425   10   0.423800  1.799792e+01  2.485454e+01  1.613570e+01  # Hw SPCE
   3064     426   10   0.423800  2.607802e+00  2.162296e+01  8.958466e+00  # Hw SPCE
   3065     426   11  -0.847600  1.679519e+00  2.125769e+01  8.888682e+00  # Ow SPCE
   3066     426   10   0.423800  1.593154e+00  2.072558e+01  8.046428e+00  # Hw SPCE
   3067     427   10   0.423800  2.210904e+01  2.387824e+01  8.896295e+00  # Hw SPCE
   3068     427   11  -0.847600  2.239207e+01  2.438846e+01  8.084151e+00  # Ow SPCE
   3069     427   10   0.423800  2.234616e+01  2.379185e+01  7.282932e+00  # Hw SPCE
   3070     428   10   0.423800  2.136853e+01  2.120126e+01  3.247637e+01  # Hw SPCE
   3071     428   11  -0.847600  2.071183e+01  2.055323e+01  3.286213e+01  # Ow SPCE
   3072     428   10   0.423800  2.107278e+01  1.962426e+01  3.278010e+01  # Hw SPCE
   3073     429   10   0.423800  8.423871e+00  8.941254e+00  1.380591e+01  # Hw SPCE
   3074     429   11  -0.847600  7.624562e+00  9.536651e+00  1.388720e+01  # Ow SPCE
   3075     429   10   0.423800  7.044143e+00  9.427446e+00  1.308024e+01  # Hw SPCE
   3076     430   10   0.423800  1.347688e+01  1.771176e+01  3.297900e+01  # Hw SPCE
   3077     430   11  -0.847600  1.428297e+01  1.742439e+01  3.246165e+01  # Ow SPCE
   3078     430   10   0.423800  1.464133e+01  1.657444e+01  3.284786e+01  # Hw SPCE
   3079     431   10   0.423800  1.407500e+01  2.550135e+01  2.743714e+01  # Hw SPCE
   3080     431   11  -0.847600  1.328362e+01  2.608297e+01  2.762540e+01  # Ow SPCE
   3081     431   10   0.423800  1.341292e+01  2.654861e+01  2.850088e+01  # Hw SPCE
   3082     432   10   0.423800  6.984997e+00  4.955767e+00  1.989944e+01  # Hw SPCE
   3083     432   11  -0.847600  6.993598e+00  4.005755e+00  1.958735e+01  # Ow SPCE
   3084     432   10   0.423800  6.102369e+00  3.775135e+00  1.919681e+01  # Hw SPCE
   3085     433   10   0.423800  2.974973e+01  2.313920e+01  2.203979e+01  # Hw SPCE
   3086     433   11  -0.847600  2.943184e+01  2.221636e+01  2.182224e+01  # Ow SPCE
   3087     433   10   0.423800  2.897351e+01  2.182495e+01  2.262020e+01  # Hw SPCE
   3088     434   10   0.423800  2.266782e+01  3.297622e+01  3.490263e+01  # Hw SPCE
   3089     434   11  -0.847600  2.239570e+01  3.201398e+01  3.490861e+01  # Ow SPCE
   3090     434   10   0.423800  2.140298e+01  3.194896e+01  3.501001e+01  # Hw SPCE
   3091     435   10   0.423800  1.243816e+01  1.533592e+00  2.389105e+01  # Hw SPCE
   3092     435   11  -0.847600  1.271573e+01  2.333025e+00  2.442384e+01  # Ow SPCE
   3093     435   10   0.423800  1.356801e+01  2.132152e+00  2.490683e+01  # Hw SPCE
   3094     436   10   0.423800  9.189523e+00  5.791716e+00  2.822052e+01  # Hw SPCE
   3095     436   11  -0.847600  8.297631e+00  5.339469e+00  2.821954e+01  # Ow SPCE
   3096     436   10   0.423800  7.574036e+00  6.029440e+00  2.823828e+01  # Hw SPCE
   3097     437   10   0.423800  1.357124e+01  3.449176e+01  1.656784e+01  # Hw SPCE
   3098     437   11  -0.847600  1.455862e+01  3.440296e+01  1.643676e+01  # Ow SPCE
   3099     437   10   0.423800  1.483653e+01  3.346107e+01  1.662543e+01  # Hw SPCE
   3100     438   10   0.423800  1.025099e+01  1.002248e+01  1.664568e+01  # Hw SPCE
   3101     438   11  -0.847600  1.042293e+01  9.367996e+00  1.590942e+01  # Ow SPCE
   3102     438   10   0.423800  1.005788e+01  9.728445e+00  1.505104e+01  # Hw SPCE
   3103     439   10   0.423800  1.101619e+01  1.142118e+01  2.487046e+00  # Hw SPCE
   3104     439   11  -0.847600  1.114820e+01  1.050838e+01  2.100554e+00  # Ow SPCE
   3105     439   10   0.423800  1.195029e+01  1.051208e+01  1.503372e+00  # Hw SPCE
   3106     440   10   0.423800  2.816866e+01  2.178547e+01  1.655601e+01  # Hw SPCE
   3107     440   11  -0.847600  2.864305e+01  2.100651e+01  1.696610e+01  # Ow SPCE
   3108     440   10   0.423800  2.800497e+01  2.049122e+01  1.753823e+01  # Hw SPCE
   3109     441   10   0.423800  1.976956e+01  3.249566e+01  1.063823e+01  # Hw SPCE
   3110     441   11  -0.847600  1.878990e+01  3.259937e+01  1.046646e+01  # Ow SPCE
   3111     441   10   0.423800  1.838764e+01  3.170322e+01  1.027914e+01  # Hw SPCE
   3112     442   10   0.423800  2.880667e+01  1.551076e+01  2.390369e+01  # Hw SPCE
   3113     442   11  -0.847600  2.974969e+01  1.584114e+01  2.386427e+01  # Ow SPCE
   3114     442   10   0.423800  3.002254e+01  1.617870e+01  2.476517e+01  # Hw SPCE
   3115     443   10   0.423800  2.927060e+01  5.626648e+00  2.404880e+01  # Hw SPCE
   3116     443   11  -0.847600  2.866615e+01  5.698267e+00  2.484222e+01  # Ow SPCE
   3117     443   10   0.423800  2.887407e+01  6.537320e+00  2.534497e+01  # Hw SPCE
   3118     444   10   0.423800  2.771808e+01  7.579597e+00  2.161886e+01  # Hw SPCE
   3119     444   11  -0.847600  2.839023e+01  7.042800e+00  2.212884e+01  # Ow SPCE
   3120     444   10   0.423800  2.872788e+01  7.579370e+00  2.290219e+01  # Hw SPCE
   3121     445   10   0.423800  1.403858e+01  2.380269e+00  2.201190e+01  # Hw SPCE
   3122     445   11  -0.847600  1.502994e+01  2.371273e+00  2.214282e+01  # Ow SPCE
   3123     445   10   0.423800  1.534244e+01  3.289665e+00  2.238551e+01  # Hw SPCE
   3124     446   10   0.423800  4.237688e+00  3.032761e+01  2.326337e+01  # Hw SPCE
   3125     446   11  -0.847600  4.026713e+00  2.935768e+01  2.338476e+01  # Ow SPCE
   3126     446   10   0.423800  3.988098e+00  2.914462e+01  2.436103e+01  # Hw SPCE
   3127     447   10   0.423800  3.165875e+00  1.344088e+01  3.279993e+01  # Hw SPCE
   3128     447   11  -0.847600  2.937524e+00  1.376203e+01  3.188084e+01  # Ow SPCE
   3129     447   10   0.423800  3.302723e+00  1.312279e+01  3.120408e+01  # Hw SPCE
   3130     448   12   3.000000  1.925061e+01  1.494673e+00  2.589324e+01  # Nd Nd3+

Bonds

      1    1       2       1  # NT-CT
      2    1       3       1  # NT-CT
      3    1       4       1  # NT-CT
      4    2       5       1  # HN-NT
      5    3       6       2  # CT-CT
      6    4       7       2  # HC-CT
      7    4       8       2  # HC-CT
      8    3       9       3  # CT-CT
      9    4      10       3  # HC-CT
     10    4      11       3  # HC-CT
     11    3      12       4  # CT-CT
     12    4      13       4  # HC-CT
     13    4      14       4  # HC-CT
     14    4      15       6  # HC-CT
     15    4      16       6  # HC-CT
     16    4      17       6  # HC-CT
     17    4      18       9  # HC-CT
     18    4      19       9  # HC-CT
     19    4      20       9  # HC-CT
     20    4      21      12  # HC-CT
     21    4      22      12  # HC-CT
     22    4      23      12  # HC-CT
     23    1      25      24  # NT-CT
     24    1      26      24  # NT-CT
     25    1      27      24  # NT-CT
     26    2      28      24  # HN-NT
     27    3      29      25  # CT-CT
     28    4      30      25  # HC-CT
     29    4      31      25  # HC-CT
     30    3      32      26  # CT-CT
     31    4      33      26  # HC-CT
     32    4      34      26  # HC-CT
     33    3      35      27  # CT-CT
     34    4      36      27  # HC-CT
     35    4      37      27  # HC-CT
     36    4      38      29  # HC-CT
     37    4      39      29  # HC-CT
     38    4      40      29  # HC-CT
     39    4      41      32  # HC-CT
     40    4      42      32  # HC-CT
     41    4      43      32  # HC-CT
     42    4      44      35  # HC-CT
     43    4      45      35  # HC-CT
     44    4      46      35  # HC-CT
     45    1      48      47  # NT-CT
     46    1      49      47  # NT-CT
     47    1      50      47  # NT-CT
     48    2      51      47  # HN-NT
     49    3      52      48  # CT-CT
     50    4      53      48  # HC-CT
     51    4      54      48  # HC-CT
     52    3      55      49  # CT-CT
     53    4      56      49  # HC-CT
     54    4      57      49  # HC-CT
     55    3      58      50  # CT-CT
     56    4      59      50  # HC-CT
     57    4      60      50  # HC-CT
     58    4      61      52  # HC-CT
     59    4      62      52  # HC-CT
     60    4      63      52  # HC-CT
     61    4      64      55  # HC-CT
     62    4      65      55  # HC-CT
     63    4      66      55  # HC-CT
     64    4      67      58  # HC-CT
     65    4      68      58  # HC-CT
     66    4      69      58  # HC-CT
     67    1      71      70  # NT-CT
     68    1      72      70  # NT-CT
     69    1      73      70  # NT-CT
     70    2      74      70  # HN-NT
     71    3      75      71  # CT-CT
     72    4      76      71  # HC-CT
     73    4      77      71  # HC-CT
     74    3      78      72  # CT-CT
     75    4      79      72  # HC-CT
     76    4      80      72  # HC-CT
     77    3      81      73  # CT-CT
     78    4      82      73  # HC-CT
     79    4      83      73  # HC-CT
     80    4      84      75  # HC-CT
     81    4      85      75  # HC-CT
     82    4      86      75  # HC-CT
     83    4      87      78  # HC-CT
     84    4      88      78  # HC-CT
     85    4      89      78  # HC-CT
     86    4      90      81  # HC-CT
     87    4      91      81  # HC-CT
     88    4      92      81  # HC-CT
     89    1      94      93  # NT-CT
     90    1      95      93  # NT-CT
     91    1      96      93  # NT-CT
     92    2      97      93  # HN-NT
     93    3      98      94  # CT-CT
     94    4      99      94  # HC-CT
     95    4     100      94  # HC-CT
     96    3     101      95  # CT-CT
     97    4     102      95  # HC-CT
     98    4     103      95  # HC-CT
     99    3     104      96  # CT-CT
    100    4     105      96  # HC-CT
    101    4     106      96  # HC-CT
    102    4     107      98  # HC-CT
    103    4     108      98  # HC-CT
    104    4     109      98  # HC-CT
    105    4     110     101  # HC-CT
    106    4     111     101  # HC-CT
    107    4     112     101  # HC-CT
    108    4     113     104  # HC-CT
    109    4     114     104  # HC-CT
    110    4     115     104  # HC-CT
    111    1     117     116  # NT-CT
    112    1     118     116  # NT-CT
    113    1     119     116  # NT-CT
    114    2     120     116  # HN-NT
    115    3     121     117  # CT-CT
    116    4     122     117  # HC-CT
    117    4     123     117  # HC-CT
    118    3     124     118  # CT-CT
    119    4     125     118  # HC-CT
    120    4     126     118  # HC-CT
    121    3     127     119  # CT-CT
    122    4     128     119  # HC-CT
    123    4     129     119  # HC-CT
    124    4     130     121  # HC-CT
    125    4     131     121  # HC-CT
    126    4     132     121  # HC-CT
    127    4     133     124  # HC-CT
    128    4     134     124  # HC-CT
    129    4     135     124  # HC-CT
    130    4     136     127  # HC-CT
    131    4     137     127  # HC-CT
    132    4     138     127  # HC-CT
    133    1     140     139  # NT-CT
    134    1     141     139  # NT-CT
    135    1     142     139  # NT-CT
    136    2     143     139  # HN-NT
    137    3     144     140  # CT-CT
    138    4     145     140  # HC-CT
    139    4     146     140  # HC-CT
    140    3     147     141  # CT-CT
    141    4     148     141  # HC-CT
    142    4     149     141  # HC-CT
    143    3     150     142  # CT-CT
    144    4     151     142  # HC-CT
    145    4     152     142  # HC-CT
    146    4     153     144  # HC-CT
    147    4     154     144  # HC-CT
    148    4     155     144  # HC-CT
    149    4     156     147  # HC-CT
    150    4     157     147  # HC-CT
    151    4     158     147  # HC-CT
    152    4     159     150  # HC-CT
    153    4     160     150  # HC-CT
    154    4     161     150  # HC-CT
    155    1     163     162  # NT-CT
    156    1     164     162  # NT-CT
    157    1     165     162  # NT-CT
    158    2     166     162  # HN-NT
    159    3     167     163  # CT-CT
    160    4     168     163  # HC-CT
    161    4     169     163  # HC-CT
    162    3     170     164  # CT-CT
    163    4     171     164  # HC-CT
    164    4     172     164  # HC-CT
    165    3     173     165  # CT-CT
    166    4     174     165  # HC-CT
    167    4     175     165  # HC-CT
    168    4     176     167  # HC-CT
    169    4     177     167  # HC-CT
    170    4     178     167  # HC-CT
    171    4     179     170  # HC-CT
    172    4     180     170  # HC-CT
    173    4     181     170  # HC-CT
    174    4     182     173  # HC-CT
    175    4     183     173  # HC-CT
    176    4     184     173  # HC-CT
    177    1     186     185  # NT-CT
    178    1     187     185  # NT-CT
    179    1     188     185  # NT-CT
    180    2     189     185  # HN-NT
    181    3     190     186  # CT-CT
    182    4     191     186  # HC-CT
    183    4     192     186  # HC-CT
    184    3     193     187  # CT-CT
    185    4     194     187  # HC-CT
    186    4     195     187  # HC-CT
    187    3     196     188  # CT-CT
    188    4     197     188  # HC-CT
    189    4     198     188  # HC-CT
    190    4     199     190  # HC-CT
    191    4     200     190  # HC-CT
    192    4     201     190  # HC-CT
    193    4     202     193  # HC-CT
    194    4     203     193  # HC-CT
    195    4     204     193  # HC-CT
    196    4     205     196  # HC-CT
    197    4     206     196  # HC-CT
    198    4     207     196  # HC-CT
    199    1     209     208  # NT-CT
    200    1     210     208  # NT-CT
    201    1     211     208  # NT-CT
    202    2     212     208  # HN-NT
    203    3     213     209  # CT-CT
    204    4     214     209  # HC-CT
    205    4     215     209  # HC-CT
    206    3     216     210  # CT-CT
    207    4     217     210  # HC-CT
    208    4     218     210  # HC-CT
    209    3     219     211  # CT-CT
    210    4     220     211  # HC-CT
    211    4     221     211  # HC-CT
    212    4     222     213  # HC-CT
    213    4     223     213  # HC-CT
    214    4     224     213  # HC-CT
    215    4     225     216  # HC-CT
    216    4     226     216  # HC-CT
    217    4     227     216  # HC-CT
    218    4     228     219  # HC-CT
    219    4     229     219  # HC-CT
    220    4     230     219  # HC-CT
    221    1     232     231  # NT-CT
    222    1     233     231  # NT-CT
    223    1     234     231  # NT-CT
    224    2     235     231  # HN-NT
    225    3     236     232  # CT-CT
    226    4     237     232  # HC-CT
    227    4     238     232  # HC-CT
    228    3     239     233  # CT-CT
    229    4     240     233  # HC-CT
    230    4     241     233  # HC-CT
    231    3     242     234  # CT-CT
    232    4     243     234  # HC-CT
    233    4     244     234  # HC-CT
    234    4     245     236  # HC-CT
    235    4     246     236  # HC-CT
    236    4     247     236  # HC-CT
    237    4     248     239  # HC-CT
    238    4     249     239  # HC-CT
    239    4     250     239  # HC-CT
    240    4     251     242  # HC-CT
    241    4     252     242  # HC-CT
    242    4     253     242  # HC-CT
    243    1     255     254  # NT-CT
    244    1     256     254  # NT-CT
    245    1     257     254  # NT-CT
    246    2     258     254  # HN-NT
    247    3     259     255  # CT-CT
    248    4     260     255  # HC-CT
    249    4     261     255  # HC-CT
    250    3     262     256  # CT-CT
    251    4     263     256  # HC-CT
    252    4     264     256  # HC-CT
    253    3     265     257  # CT-CT
    254    4     266     257  # HC-CT
    255    4     267     257  # HC-CT
    256    4     268     259  # HC-CT
    257    4     269     259  # HC-CT
    258    4     270     259  # HC-CT
    259    4     271     262  # HC-CT
    260    4     272     262  # HC-CT
    261    4     273     262  # HC-CT
    262    4     274     265  # HC-CT
    263    4     275     265  # HC-CT
    264    4     276     265  # HC-CT
    265    1     278     277  # NT-CT
    266    1     279     277  # NT-CT
    267    1     280     277  # NT-CT
    268    2     281     277  # HN-NT
    269    3     282     278  # CT-CT
    270    4     283     278  # HC-CT
    271    4     284     278  # HC-CT
    272    3     285     279  # CT-CT
    273    4     286     279  # HC-CT
    274    4     287     279  # HC-CT
    275    3     288     280  # CT-CT
    276    4     289     280  # HC-CT
    277    4     290     280  # HC-CT
    278    4     291     282  # HC-CT
    279    4     292     282  # HC-CT
    280    4     293     282  # HC-CT
    281    4     294     285  # HC-CT
    282    4     295     285  # HC-CT
    283    4     296     285  # HC-CT
    284    4     297     288  # HC-CT
    285    4     298     288  # HC-CT
    286    4     299     288  # HC-CT
    287    1     301     300  # NT-CT
    288    1     302     300  # NT-CT
    289    1     303     300  # NT-CT
    290    2     304     300  # HN-NT
    291    3     305     301  # CT-CT
    292    4     306     301  # HC-CT
    293    4     307     301  # HC-CT
    294    3     308     302  # CT-CT
    295    4     309     302  # HC-CT
    296    4     310     302  # HC-CT
    297    3     311     303  # CT-CT
    298    4     312     303  # HC-CT
    299    4     313     303  # HC-CT
    300    4     314     305  # HC-CT
    301    4     315     305  # HC-CT
    302    4     316     305  # HC-CT
    303    4     317     308  # HC-CT
    304    4     318     308  # HC-CT
    305    4     319     308  # HC-CT
    306    4     320     311  # HC-CT
    307    4     321     311  # HC-CT
    308    4     322     311  # HC-CT
    309    1     324     323  # NT-CT
    310    1     325     323  # NT-CT
    311    1     326     323  # NT-CT
    312    2     327     323  # HN-NT
    313    3     328     324  # CT-CT
    314    4     329     324  # HC-CT
    315    4     330     324  # HC-CT
    316    3     331     325  # CT-CT
    317    4     332     325  # HC-CT
    318    4     333     325  # HC-CT
    319    3     334     326  # CT-CT
    320    4     335     326  # HC-CT
    321    4     336     326  # HC-CT
    322    4     337     328  # HC-CT
    323    4     338     328  # HC-CT
    324    4     339     328  # HC-CT
    325    4     340     331  # HC-CT
    326    4     341     331  # HC-CT
    327    4     342     331  # HC-CT
    328    4     343     334  # HC-CT
    329    4     344     334  # HC-CT
    330    4     345     334  # HC-CT
    331    1     347     346  # NT-CT
    332    1     348     346  # NT-CT
    333    1     349     346  # NT-CT
    334    2     350     346  # HN-NT
    335    3     351     347  # CT-CT
    336    4     352     347  # HC-CT
    337    4     353     347  # HC-CT
    338    3     354     348  # CT-CT
    339    4     355     348  # HC-CT
    340    4     356     348  # HC-CT
    341    3     357     349  # CT-CT
    342    4     358     349  # HC-CT
    343    4     359     349  # HC-CT
    344    4     360     351  # HC-CT
    345    4     361     351  # HC-CT
    346    4     362     351  # HC-CT
    347    4     363     354  # HC-CT
    348    4     364     354  # HC-CT
    349    4     365     354  # HC-CT
    350    4     366     357  # HC-CT
    351    4     367     357  # HC-CT
    352    4     368     357  # HC-CT
    353    1     370     369  # NT-CT
    354    1     371     369  # NT-CT
    355    1     372     369  # NT-CT
    356    2     373     369  # HN-NT
    357    3     374     370  # CT-CT
    358    4     375     370  # HC-CT
    359    4     376     370  # HC-CT
    360    3     377     371  # CT-CT
    361    4     378     371  # HC-CT
    362    4     379     371  # HC-CT
    363    3     380     372  # CT-CT
    364    4     381     372  # HC-CT
    365    4     382     372  # HC-CT
    366    4     383     374  # HC-CT
    367    4     384     374  # HC-CT
    368    4     385     374  # HC-CT
    369    4     386     377  # HC-CT
    370    4     387     377  # HC-CT
    371    4     388     377  # HC-CT
    372    4     389     380  # HC-CT
    373    4     390     380  # HC-CT
    374    4     391     380  # HC-CT
    375    1     393     392  # NT-CT
    376    1     394     392  # NT-CT
    377    1     395     392  # NT-CT
    378    2     396     392  # HN-NT
    379    3     397     393  # CT-CT
    380    4     398     393  # HC-CT
    381    4     399     393  # HC-CT
    382    3     400     394  # CT-CT
    383    4     401     394  # HC-CT
    384    4     402     394  # HC-CT
    385    3     403     395  # CT-CT
    386    4     404     395  # HC-CT
    387    4     405     395  # HC-CT
    388    4     406     397  # HC-CT
    389    4     407     397  # HC-CT
    390    4     408     397  # HC-CT
    391    4     409     400  # HC-CT
    392    4     410     400  # HC-CT
    393    4     411     400  # HC-CT
    394    4     412     403  # HC-CT
    395    4     413     403  # HC-CT
    396    4     414     403  # HC-CT
    397    1     416     415  # NT-CT
    398    1     417     415  # NT-CT
    399    1     418     415  # NT-CT
    400    2     419     415  # HN-NT
    401    3     420     416  # CT-CT
    402    4     421     416  # HC-CT
    403    4     422     416  # HC-CT
    404    3     423     417  # CT-CT
    405    4     424     417  # HC-CT
    406    4     425     417  # HC-CT
    407    3     426     418  # CT-CT
    408    4     427     418  # HC-CT
    409    4     428     418  # HC-CT
    410    4     429     420  # HC-CT
    411    4     430     420  # HC-CT
    412    4     431     420  # HC-CT
    413    4     432     423  # HC-CT
    414    4     433     423  # HC-CT
    415    4     434     423  # HC-CT
    416    4     435     426  # HC-CT
    417    4     436     426  # HC-CT
    418    4     437     426  # HC-CT
    419    1     439     438  # NT-CT
    420    1     440     438  # NT-CT
    421    1     441     438  # NT-CT
    422    2     442     438  # HN-NT
    423    3     443     439  # CT-CT
    424    4     444     439  # HC-CT
    425    4     445     439  # HC-CT
    426    3     446     440  # CT-CT
    427    4     447     440  # HC-CT
    428    4     448     440  # HC-CT
    429    3     449     441  # CT-CT
    430    4     450     441  # HC-CT
    431    4     451     441  # HC-CT
    432    4     452     443  # HC-CT
    433    4     453     443  # HC-CT
    434    4     454     443  # HC-CT
    435    4     455     446  # HC-CT
    436    4     456     446  # HC-CT
    437    4     457     446  # HC-CT
    438    4     458     449  # HC-CT
    439    4     459     449  # HC-CT
    440    4     460     449  # HC-CT
    441    1     462     461  # NT-CT
    442    1     463     461  # NT-CT
    443    1     464     461  # NT-CT
    444    2     465     461  # HN-NT
    445    3     466     462  # CT-CT
    446    4     467     462  # HC-CT
    447    4     468     462  # HC-CT
    448    3     469     463  # CT-CT
    449    4     470     463  # HC-CT
    450    4     471     463  # HC-CT
    451    3     472     464  # CT-CT
    452    4     473     464  # HC-CT
    453    4     474     464  # HC-CT
    454    4     475     466  # HC-CT
    455    4     476     466  # HC-CT
    456    4     477     466  # HC-CT
    457    4     478     469  # HC-CT
    458    4     479     469  # HC-CT
    459    4     480     469  # HC-CT
    460    4     481     472  # HC-CT
    461    4     482     472  # HC-CT
    462    4     483     472  # HC-CT
    463    1     485     484  # NT-CT
    464    1     486     484  # NT-CT
    465    1     487     484  # NT-CT
    466    2     488     484  # HN-NT
    467    3     489     485  # CT-CT
    468    4     490     485  # HC-CT
    469    4     491     485  # HC-CT
    470    3     492     486  # CT-CT
    471    4     493     486  # HC-CT
    472    4     494     486  # HC-CT
    473    3     495     487  # CT-CT
    474    4     496     487  # HC-CT
    475    4     497     487  # HC-CT
    476    4     498     489  # HC-CT
    477    4     499     489  # HC-CT
    478    4     500     489  # HC-CT
    479    4     501     492  # HC-CT
    480    4     502     492  # HC-CT
    481    4     503     492  # HC-CT
    482    4     504     495  # HC-CT
    483    4     505     495  # HC-CT
    484    4     506     495  # HC-CT
    485    1     508     507  # NT-CT
    486    1     509     507  # NT-CT
    487    1     510     507  # NT-CT
    488    2     511     507  # HN-NT
    489    3     512     508  # CT-CT
    490    4     513     508  # HC-CT
    491    4     514     508  # HC-CT
    492    3     515     509  # CT-CT
    493    4     516     509  # HC-CT
    494    4     517     509  # HC-CT
    495    3     518     510  # CT-CT
    496    4     519     510  # HC-CT
    497    4     520     510  # HC-CT
    498    4     521     512  # HC-CT
    499    4     522     512  # HC-CT
    500    4     523     512  # HC-CT
    501    4     524     515  # HC-CT
    502    4     525     515  # HC-CT
    503    4     526     515  # HC-CT
    504    4     527     518  # HC-CT
    505    4     528     518  # HC-CT
    506    4     529     518  # HC-CT
    507    1     531     530  # NT-CT
    508    1     532     530  # NT-CT
    509    1     533     530  # NT-CT
    510    2     534     530  # HN-NT
    511    3     535     531  # CT-CT
    512    4     536     531  # HC-CT
    513    4     537     531  # HC-CT
    514    3     538     532  # CT-CT
    515    4     539     532  # HC-CT
    516    4     540     532  # HC-CT
    517    3     541     533  # CT-CT
    518    4     542     533  # HC-CT
    519    4     543     533  # HC-CT
    520    4     544     535  # HC-CT
    521    4     545     535  # HC-CT
    522    4     546     535  # HC-CT
    523    4     547     538  # HC-CT
    524    4     548     538  # HC-CT
    525    4     549     538  # HC-CT
    526    4     550     541  # HC-CT
    527    4     551     541  # HC-CT
    528    4     552     541  # HC-CT
    529    1     554     553  # NT-CT
    530    1     555     553  # NT-CT
    531    1     556     553  # NT-CT
    532    2     557     553  # HN-NT
    533    3     558     554  # CT-CT
    534    4     559     554  # HC-CT
    535    4     560     554  # HC-CT
    536    3     561     555  # CT-CT
    537    4     562     555  # HC-CT
    538    4     563     555  # HC-CT
    539    3     564     556  # CT-CT
    540    4     565     556  # HC-CT
    541    4     566     556  # HC-CT
    542    4     567     558  # HC-CT
    543    4     568     558  # HC-CT
    544    4     569     558  # HC-CT
    545    4     570     561  # HC-CT
    546    4     571     561  # HC-CT
    547    4     572     561  # HC-CT
    548    4     573     564  # HC-CT
    549    4     574     564  # HC-CT
    550    4     575     564  # HC-CT
    551    1     577     576  # NT-CT
    552    1     578     576  # NT-CT
    553    1     579     576  # NT-CT
    554    2     580     576  # HN-NT
    555    3     581     577  # CT-CT
    556    4     582     577  # HC-CT
    557    4     583     577  # HC-CT
    558    3     584     578  # CT-CT
    559    4     585     578  # HC-CT
    560    4     586     578  # HC-CT
    561    3     587     579  # CT-CT
    562    4     588     579  # HC-CT
    563    4     589     579  # HC-CT
    564    4     590     581  # HC-CT
    565    4     591     581  # HC-CT
    566    4     592     581  # HC-CT
    567    4     593     584  # HC-CT
    568    4     594     584  # HC-CT
    569    4     595     584  # HC-CT
    570    4     596     587  # HC-CT
    571    4     597     587  # HC-CT
    572    4     598     587  # HC-CT
    573    1     600     599  # NT-CT
    574    1     601     599  # NT-CT
    575    1     602     599  # NT-CT
    576    2     603     599  # HN-NT
    577    3     604     600  # CT-CT
    578    4     605     600  # HC-CT
    579    4     606     600  # HC-CT
    580    3     607     601  # CT-CT
    581    4     608     601  # HC-CT
    582    4     609     601  # HC-CT
    583    3     610     602  # CT-CT
    584    4     611     602  # HC-CT
    585    4     612     602  # HC-CT
    586    4     613     604  # HC-CT
    587    4     614     604  # HC-CT
    588    4     615     604  # HC-CT
    589    4     616     607  # HC-CT
    590    4     617     607  # HC-CT
    591    4     618     607  # HC-CT
    592    4     619     610  # HC-CT
    593    4     620     610  # HC-CT
    594    4     621     610  # HC-CT
    595    1     623     622  # NT-CT
    596    1     624     622  # NT-CT
    597    1     625     622  # NT-CT
    598    2     626     622  # HN-NT
    599    3     627     623  # CT-CT
    600    4     628     623  # HC-CT
    601    4     629     623  # HC-CT
    602    3     630     624  # CT-CT
    603    4     631     624  # HC-CT
    604    4     632     624  # HC-CT
    605    3     633     625  # CT-CT
    606    4     634     625  # HC-CT
    607    4     635     625  # HC-CT
    608    4     636     627  # HC-CT
    609    4     637     627  # HC-CT
    610    4     638     627  # HC-CT
    611    4     639     630  # HC-CT
    612    4     640     630  # HC-CT
    613    4     641     630  # HC-CT
    614    4     642     633  # HC-CT
    615    4     643     633  # HC-CT
    616    4     644     633  # HC-CT
    617    1     646     645  # NT-CT
    618    1     647     645  # NT-CT
    619    1     648     645  # NT-CT
    620    2     649     645  # HN-NT
    621    3     650     646  # CT-CT
    622    4     651     646  # HC-CT
    623    4     652     646  # HC-CT
    624    3     653     647  # CT-CT
    625    4     654     647  # HC-CT
    626    4     655     647  # HC-CT
    627    3     656     648  # CT-CT
    628    4     657     648  # HC-CT
    629    4     658     648  # HC-CT
    630    4     659     650  # HC-CT
    631    4     660     650  # HC-CT
    632    4     661     650  # HC-CT
    633    4     662     653  # HC-CT
    634    4     663     653  # HC-CT
    635    4     664     653  # HC-CT
    636    4     665     656  # HC-CT
    637    4     666     656  # HC-CT
    638    4     667     656  # HC-CT
    639    1     669     668  # NT-CT
    640    1     670     668  # NT-CT
    641    1     671     668  # NT-CT
    642    2     672     668  # HN-NT
    643    3     673     669  # CT-CT
    644    4     674     669  # HC-CT
    645    4     675     669  # HC-CT
    646    3     676     670  # CT-CT
    647    4     677     670  # HC-CT
    648    4     678     670  # HC-CT
    649    3     679     671  # CT-CT
    650    4     680     671  # HC-CT
    651    4     681     671  # HC-CT
    652    4     682     673  # HC-CT
    653    4     683     673  # HC-CT
    654    4     684     673  # HC-CT
    655    4     685     676  # HC-CT
    656    4     686     676  # HC-CT
    657    4     687     676  # HC-CT
    658    4     688     679  # HC-CT
    659    4     689     679  # HC-CT
    660    4     690     679  # HC-CT
    661    1     692     691  # NT-CT
    662    1     693     691  # NT-CT
    663    1     694     691  # NT-CT
    664    2     695     691  # HN-NT
    665    3     696     692  # CT-CT
    666    4     697     692  # HC-CT
    667    4     698     692  # HC-CT
    668    3     699     693  # CT-CT
    669    4     700     693  # HC-CT
    670    4     701     693  # HC-CT
    671    3     702     694  # CT-CT
    672    4     703     694  # HC-CT
    673    4     704     694  # HC-CT
    674    4     705     696  # HC-CT
    675    4     706     696  # HC-CT
    676    4     707     696  # HC-CT
    677    4     708     699  # HC-CT
    678    4     709     699  # HC-CT
    679    4     710     699  # HC-CT
    680    4     711     702  # HC-CT
    681    4     712     702  # HC-CT
    682    4     713     702  # HC-CT
    683    1     715     714  # NT-CT
    684    1     716     714  # NT-CT
    685    1     717     714  # NT-CT
    686    2     718     714  # HN-NT
    687    3     719     715  # CT-CT
    688    4     720     715  # HC-CT
    689    4     721     715  # HC-CT
    690    3     722     716  # CT-CT
    691    4     723     716  # HC-CT
    692    4     724     716  # HC-CT
    693    3     725     717  # CT-CT
    694    4     726     717  # HC-CT
    695    4     727     717  # HC-CT
    696    4     728     719  # HC-CT
    697    4     729     719  # HC-CT
    698    4     730     719  # HC-CT
    699    4     731     722  # HC-CT
    700    4     732     722  # HC-CT
    701    4     733     722  # HC-CT
    702    4     734     725  # HC-CT
    703    4     735     725  # HC-CT
    704    4     736     725  # HC-CT
    705    1     738     737  # NT-CT
    706    1     739     737  # NT-CT
    707    1     740     737  # NT-CT
    708    2     741     737  # HN-NT
    709    3     742     738  # CT-CT
    710    4     743     738  # HC-CT
    711    4     744     738  # HC-CT
    712    3     745     739  # CT-CT
    713    4     746     739  # HC-CT
    714    4     747     739  # HC-CT
    715    3     748     740  # CT-CT
    716    4     749     740  # HC-CT
    717    4     750     740  # HC-CT
    718    4     751     742  # HC-CT
    719    4     752     742  # HC-CT
    720    4     753     742  # HC-CT
    721    4     754     745  # HC-CT
    722    4     755     745  # HC-CT
    723    4     756     745  # HC-CT
    724    4     757     748  # HC-CT
    725    4     758     748  # HC-CT
    726    4     759     748  # HC-CT
    727    1     761     760  # NT-CT
    728    1     762     760  # NT-CT
    729    1     763     760  # NT-CT
    730    2     764     760  # HN-NT
    731    3     765     761  # CT-CT
    732    4     766     761  # HC-CT
    733    4     767     761  # HC-CT
    734    3     768     762  # CT-CT
    735    4     769     762  # HC-CT
    736    4     770     762  # HC-CT
    737    3     771     763  # CT-CT
    738    4     772     763  # HC-CT
    739    4     773     763  # HC-CT
    740    4     774     765  # HC-CT
    741    4     775     765  # HC-CT
    742    4     776     765  # HC-CT
    743    4     777     768  # HC-CT
    744    4     778     768  # HC-CT
    745    4     779     768  # HC-CT
    746    4     780     771  # HC-CT
    747    4     781     771  # HC-CT
    748    4     782     771  # HC-CT
    749    1     784     783  # NT-CT
    750    1     785     783  # NT-CT
    751    1     786     783  # NT-CT
    752    2     787     783  # HN-NT
    753    3     788     784  # CT-CT
    754    4     789     784  # HC-CT
    755    4     790     784  # HC-CT
    756    3     791     785  # CT-CT
    757    4     792     785  # HC-CT
    758    4     793     785  # HC-CT
    759    3     794     786  # CT-CT
    760    4     795     786  # HC-CT
    761    4     796     786  # HC-CT
    762    4     797     788  # HC-CT
    763    4     798     788  # HC-CT
    764    4     799     788  # HC-CT
    765    4     800     791  # HC-CT
    766    4     801     791  # HC-CT
    767    4     802     791  # HC-CT
    768    4     803     794  # HC-CT
    769    4     804     794  # HC-CT
    770    4     805     794  # HC-CT
    771    1     807     806  # NT-CT
    772    1     808     806  # NT-CT
    773    1     809     806  # NT-CT
    774    2     810     806  # HN-NT
    775    3     811     807  # CT-CT
    776    4     812     807  # HC-CT
    777    4     813     807  # HC-CT
    778    3     814     808  # CT-CT
    779    4     815     808  # HC-CT
    780    4     816     808  # HC-CT
    781    3     817     809  # CT-CT
    782    4     818     809  # HC-CT
    783    4     819     809  # HC-CT
    784    4     820     811  # HC-CT
    785    4     821     811  # HC-CT
    786    4     822     811  # HC-CT
    787    4     823     814  # HC-CT
    788    4     824     814  # HC-CT
    789    4     825     814  # HC-CT
    790    4     826     817  # HC-CT
    791    4     827     817  # HC-CT
    792    4     828     817  # HC-CT
    793    1     830     829  # NT-CT
    794    1     831     829  # NT-CT
    795    1     832     829  # NT-CT
    796    2     833     829  # HN-NT
    797    3     834     830  # CT-CT
    798    4     835     830  # HC-CT
    799    4     836     830  # HC-CT
    800    3     837     831  # CT-CT
    801    4     838     831  # HC-CT
    802    4     839     831  # HC-CT
    803    3     840     832  # CT-CT
    804    4     841     832  # HC-CT
    805    4     842     832  # HC-CT
    806    4     843     834  # HC-CT
    807    4     844     834  # HC-CT
    808    4     845     834  # HC-CT
    809    4     846     837  # HC-CT
    810    4     847     837  # HC-CT
    811    4     848     837  # HC-CT
    812    4     849     840  # HC-CT
    813    4     850     840  # HC-CT
    814    4     851     840  # HC-CT
    815    1     853     852  # NT-CT
    816    1     854     852  # NT-CT
    817    1     855     852  # NT-CT
    818    2     856     852  # HN-NT
    819    3     857     853  # CT-CT
    820    4     858     853  # HC-CT
    821    4     859     853  # HC-CT
    822    3     860     854  # CT-CT
    823    4     861     854  # HC-CT
    824    4     862     854  # HC-CT
    825    3     863     855  # CT-CT
    826    4     864     855  # HC-CT
    827    4     865     855  # HC-CT
    828    4     866     857  # HC-CT
    829    4     867     857  # HC-CT
    830    4     868     857  # HC-CT
    831    4     869     860  # HC-CT
    832    4     870     860  # HC-CT
    833    4     871     860  # HC-CT
    834    4     872     863  # HC-CT
    835    4     873     863  # HC-CT
    836    4     874     863  # HC-CT
    837    1     876     875  # NT-CT
    838    1     877     875  # NT-CT
    839    1     878     875  # NT-CT
    840    2     879     875  # HN-NT
    841    3     880     876  # CT-CT
    842    4     881     876  # HC-CT
    843    4     882     876  # HC-CT
    844    3     883     877  # CT-CT
    845    4     884     877  # HC-CT
    846    4     885     877  # HC-CT
    847    3     886     878  # CT-CT
    848    4     887     878  # HC-CT
    849    4     888     878  # HC-CT
    850    4     889     880  # HC-CT
    851    4     890     880  # HC-CT
    852    4     891     880  # HC-CT
    853    4     892     883  # HC-CT
    854    4     893     883  # HC-CT
    855    4     894     883  # HC-CT
    856    4     895     886  # HC-CT
    857    4     896     886  # HC-CT
    858    4     897     886  # HC-CT
    859    1     899     898  # NT-CT
    860    1     900     898  # NT-CT
    861    1     901     898  # NT-CT
    862    2     902     898  # HN-NT
    863    3     903     899  # CT-CT
    864    4     904     899  # HC-CT
    865    4     905     899  # HC-CT
    866    3     906     900  # CT-CT
    867    4     907     900  # HC-CT
    868    4     908     900  # HC-CT
    869    3     909     901  # CT-CT
    870    4     910     901  # HC-CT
    871    4     911     901  # HC-CT
    872    4     912     903  # HC-CT
    873    4     913     903  # HC-CT
    874    4     914     903  # HC-CT
    875    4     915     906  # HC-CT
    876    4     916     906  # HC-CT
    877    4     917     906  # HC-CT
    878    4     918     909  # HC-CT
    879    4     919     909  # HC-CT
    880    4     920     909  # HC-CT
    881    1     922     921  # NT-CT
    882    1     923     921  # NT-CT
    883    1     924     921  # NT-CT
    884    2     925     921  # HN-NT
    885    3     926     922  # CT-CT
    886    4     927     922  # HC-CT
    887    4     928     922  # HC-CT
    888    3     929     923  # CT-CT
    889    4     930     923  # HC-CT
    890    4     931     923  # HC-CT
    891    3     932     924  # CT-CT
    892    4     933     924  # HC-CT
    893    4     934     924  # HC-CT
    894    4     935     926  # HC-CT
    895    4     936     926  # HC-CT
    896    4     937     926  # HC-CT
    897    4     938     929  # HC-CT
    898    4     939     929  # HC-CT
    899    4     940     929  # HC-CT
    900    4     941     932  # HC-CT
    901    4     942     932  # HC-CT
    902    4     943     932  # HC-CT
    903    1     945     944  # NT-CT
    904    1     946     944  # NT-CT
    905    1     947     944  # NT-CT
    906    2     948     944  # HN-NT
    907    3     949     945  # CT-CT
    908    4     950     945  # HC-CT
    909    4     951     945  # HC-CT
    910    3     952     946  # CT-CT
    911    4     953     946  # HC-CT
    912    4     954     946  # HC-CT
    913    3     955     947  # CT-CT
    914    4     956     947  # HC-CT
    915    4     957     947  # HC-CT
    916    4     958     949  # HC-CT
    917    4     959     949  # HC-CT
    918    4     960     949  # HC-CT
    919    4     961     952  # HC-CT
    920    4     962     952  # HC-CT
    921    4     963     952  # HC-CT
    922    4     964     955  # HC-CT
    923    4     965     955  # HC-CT
    924    4     966     955  # HC-CT
    925    1     968     967  # NT-CT
    926    1     969     967  # NT-CT
    927    1     970     967  # NT-CT
    928    2     971     967  # HN-NT
    929    3     972     968  # CT-CT
    930    4     973     968  # HC-CT
    931    4     974     968  # HC-CT
    932    3     975     969  # CT-CT
    933    4     976     969  # HC-CT
    934    4     977     969  # HC-CT
    935    3     978     970  # CT-CT
    936    4     979     970  # HC-CT
    937    4     980     970  # HC-CT
    938    4     981     972  # HC-CT
    939    4     982     972  # HC-CT
    940    4     983     972  # HC-CT
    941    4     984     975  # HC-CT
    942    4     985     975  # HC-CT
    943    4     986     975  # HC-CT
    944    4     987     978  # HC-CT
    945    4     988     978  # HC-CT
    946    4     989     978  # HC-CT
    947    1     991     990  # NT-CT
    948    1     992     990  # NT-CT
    949    1     993     990  # NT-CT
    950    2     994     990  # HN-NT
    951    3     995     991  # CT-CT
    952    4     996     991  # HC-CT
    953    4     997     991  # HC-CT
    954    3     998     992  # CT-CT
    955    4     999     992  # HC-CT
    956    4    1000     992  # HC-CT
    957    3    1001     993  # CT-CT
    958    4    1002     993  # HC-CT
    959    4    1003     993  # HC-CT
    960    4    1004     995  # HC-CT
    961    4    1005     995  # HC-CT
    962    4    1006     995  # HC-CT
    963    4    1007     998  # HC-CT
    964    4    1008     998  # HC-CT
    965    4    1009     998  # HC-CT
    966    4    1010    1001  # HC-CT
    967    4    1011    1001  # HC-CT
    968    4    1012    1001  # HC-CT
    969    1    1014    1013  # NT-CT
    970    1    1015    1013  # NT-CT
    971    1    1016    1013  # NT-CT
    972    2    1017    1013  # HN-NT
    973    3    1018    1014  # CT-CT
    974    4    1019    1014  # HC-CT
    975    4    1020    1014  # HC-CT
    976    3    1021    1015  # CT-CT
    977    4    1022    1015  # HC-CT
    978    4    1023    1015  # HC-CT
    979    3    1024    1016  # CT-CT
    980    4    1025    1016  # HC-CT
    981    4    1026    1016  # HC-CT
    982    4    1027    1018  # HC-CT
    983    4    1028    1018  # HC-CT
    984    4    1029    1018  # HC-CT
    985    4    1030    1021  # HC-CT
    986    4    1031    1021  # HC-CT
    987    4    1032    1021  # HC-CT
    988    4    1033    1024  # HC-CT
    989    4    1034    1024  # HC-CT
    990    4    1035    1024  # HC-CT
    991    1    1037    1036  # NT-CT
    992    1    1038    1036  # NT-CT
    993    1    1039    1036  # NT-CT
    994    2    1040    1036  # HN-NT
    995    3    1041    1037  # CT-CT
    996    4    1042    1037  # HC-CT
    997    4    1043    1037  # HC-CT
    998    3    1044    1038  # CT-CT
    999    4    1045    1038  # HC-CT
   1000    4    1046    1038  # HC-CT
   1001    3    1047    1039  # CT-CT
   1002    4    1048    1039  # HC-CT
   1003    4    1049    1039  # HC-CT
   1004    4    1050    1041  # HC-CT
   1005    4    1051    1041  # HC-CT
   1006    4    1052    1041  # HC-CT
   1007    4    1053    1044  # HC-CT
   1008    4    1054    1044  # HC-CT
   1009    4    1055    1044  # HC-CT
   1010    4    1056    1047  # HC-CT
   1011    4    1057    1047  # HC-CT
   1012    4    1058    1047  # HC-CT
   1013    1    1060    1059  # NT-CT
   1014    1    1061    1059  # NT-CT
   1015    1    1062    1059  # NT-CT
   1016    2    1063    1059  # HN-NT
   1017    3    1064    1060  # CT-CT
   1018    4    1065    1060  # HC-CT
   1019    4    1066    1060  # HC-CT
   1020    3    1067    1061  # CT-CT
   1021    4    1068    1061  # HC-CT
   1022    4    1069    1061  # HC-CT
   1023    3    1070    1062  # CT-CT
   1024    4    1071    1062  # HC-CT
   1025    4    1072    1062  # HC-CT
   1026    4    1073    1064  # HC-CT
   1027    4    1074    1064  # HC-CT
   1028    4    1075    1064  # HC-CT
   1029    4    1076    1067  # HC-CT
   1030    4    1077    1067  # HC-CT
   1031    4    1078    1067  # HC-CT
   1032    4    1079    1070  # HC-CT
   1033    4    1080    1070  # HC-CT
   1034    4    1081    1070  # HC-CT
   1035    1    1083    1082  # NT-CT
   1036    1    1084    1082  # NT-CT
   1037    1    1085    1082  # NT-CT
   1038    2    1086    1082  # HN-NT
   1039    3    1087    1083  # CT-CT
   1040    4    1088    1083  # HC-CT
   1041    4    1089    1083  # HC-CT
   1042    3    1090    1084  # CT-CT
   1043    4    1091    1084  # HC-CT
   1044    4    1092    1084  # HC-CT
   1045    3    1093    1085  # CT-CT
   1046    4    1094    1085  # HC-CT
   1047    4    1095    1085  # HC-CT
   1048    4    1096    1087  # HC-CT
   1049    4    1097    1087  # HC-CT
   1050    4    1098    1087  # HC-CT
   1051    4    1099    1090  # HC-CT
   1052    4    1100    1090  # HC-CT
   1053    4    1101    1090  # HC-CT
   1054    4    1102    1093  # HC-CT
   1055    4    1103    1093  # HC-CT
   1056    4    1104    1093  # HC-CT
   1057    1    1106    1105  # NT-CT
   1058    1    1107    1105  # NT-CT
   1059    1    1108    1105  # NT-CT
   1060    2    1109    1105  # HN-NT
   1061    3    1110    1106  # CT-CT
   1062    4    1111    1106  # HC-CT
   1063    4    1112    1106  # HC-CT
   1064    3    1113    1107  # CT-CT
   1065    4    1114    1107  # HC-CT
   1066    4    1115    1107  # HC-CT
   1067    3    1116    1108  # CT-CT
   1068    4    1117    1108  # HC-CT
   1069    4    1118    1108  # HC-CT
   1070    4    1119    1110  # HC-CT
   1071    4    1120    1110  # HC-CT
   1072    4    1121    1110  # HC-CT
   1073    4    1122    1113  # HC-CT
   1074    4    1123    1113  # HC-CT
   1075    4    1124    1113  # HC-CT
   1076    4    1125    1116  # HC-CT
   1077    4    1126    1116  # HC-CT
   1078    4    1127    1116  # HC-CT
   1079    1    1129    1128  # NT-CT
   1080    1    1130    1128  # NT-CT
   1081    1    1131    1128  # NT-CT
   1082    2    1132    1128  # HN-NT
   1083    3    1133    1129  # CT-CT
   1084    4    1134    1129  # HC-CT
   1085    4    1135    1129  # HC-CT
   1086    3    1136    1130  # CT-CT
   1087    4    1137    1130  # HC-CT
   1088    4    1138    1130  # HC-CT
   1089    3    1139    1131  # CT-CT
   1090    4    1140    1131  # HC-CT
   1091    4    1141    1131  # HC-CT
   1092    4    1142    1133  # HC-CT
   1093    4    1143    1133  # HC-CT
   1094    4    1144    1133  # HC-CT
   1095    4    1145    1136  # HC-CT
   1096    4    1146    1136  # HC-CT
   1097    4    1147    1136  # HC-CT
   1098    4    1148    1139  # HC-CT
   1099    4    1149    1139  # HC-CT
   1100    4    1150    1139  # HC-CT
   1101    1    1152    1151  # NT-CT
   1102    1    1153    1151  # NT-CT
   1103    1    1154    1151  # NT-CT
   1104    2    1155    1151  # HN-NT
   1105    3    1156    1152  # CT-CT
   1106    4    1157    1152  # HC-CT
   1107    4    1158    1152  # HC-CT
   1108    3    1159    1153  # CT-CT
   1109    4    1160    1153  # HC-CT
   1110    4    1161    1153  # HC-CT
   1111    3    1162    1154  # CT-CT
   1112    4    1163    1154  # HC-CT
   1113    4    1164    1154  # HC-CT
   1114    4    1165    1156  # HC-CT
   1115    4    1166    1156  # HC-CT
   1116    4    1167    1156  # HC-CT
   1117    4    1168    1159  # HC-CT
   1118    4    1169    1159  # HC-CT
   1119    4    1170    1159  # HC-CT
   1120    4    1171    1162  # HC-CT
   1121    4    1172    1162  # HC-CT
   1122    4    1173    1162  # HC-CT
   1123    1    1175    1174  # NT-CT
   1124    1    1176    1174  # NT-CT
   1125    1    1177    1174  # NT-CT
   1126    2    1178    1174  # HN-NT
   1127    3    1179    1175  # CT-CT
   1128    4    1180    1175  # HC-CT
   1129    4    1181    1175  # HC-CT
   1130    3    1182    1176  # CT-CT
   1131    4    1183    1176  # HC-CT
   1132    4    1184    1176  # HC-CT
   1133    3    1185    1177  # CT-CT
   1134    4    1186    1177  # HC-CT
   1135    4    1187    1177  # HC-CT
   1136    4    1188    1179  # HC-CT
   1137    4    1189    1179  # HC-CT
   1138    4    1190    1179  # HC-CT
   1139    4    1191    1182  # HC-CT
   1140    4    1192    1182  # HC-CT
   1141    4    1193    1182  # HC-CT
   1142    4    1194    1185  # HC-CT
   1143    4    1195    1185  # HC-CT
   1144    4    1196    1185  # HC-CT
   1145    1    1198    1197  # NT-CT
   1146    1    1199    1197  # NT-CT
   1147    1    1200    1197  # NT-CT
   1148    2    1201    1197  # HN-NT
   1149    3    1202    1198  # CT-CT
   1150    4    1203    1198  # HC-CT
   1151    4    1204    1198  # HC-CT
   1152    3    1205    1199  # CT-CT
   1153    4    1206    1199  # HC-CT
   1154    4    1207    1199  # HC-CT
   1155    3    1208    1200  # CT-CT
   1156    4    1209    1200  # HC-CT
   1157    4    1210    1200  # HC-CT
   1158    4    1211    1202  # HC-CT
   1159    4    1212    1202  # HC-CT
   1160    4    1213    1202  # HC-CT
   1161    4    1214    1205  # HC-CT
   1162    4    1215    1205  # HC-CT
   1163    4    1216    1205  # HC-CT
   1164    4    1217    1208  # HC-CT
   1165    4    1218    1208  # HC-CT
   1166    4    1219    1208  # HC-CT
   1167    1    1221    1220  # NT-CT
   1168    1    1222    1220  # NT-CT
   1169    1    1223    1220  # NT-CT
   1170    2    1224    1220  # HN-NT
   1171    3    1225    1221  # CT-CT
   1172    4    1226    1221  # HC-CT
   1173    4    1227    1221  # HC-CT
   1174    3    1228    1222  # CT-CT
   1175    4    1229    1222  # HC-CT
   1176    4    1230    1222  # HC-CT
   1177    3    1231    1223  # CT-CT
   1178    4    1232    1223  # HC-CT
   1179    4    1233    1223  # HC-CT
   1180    4    1234    1225  # HC-CT
   1181    4    1235    1225  # HC-CT
   1182    4    1236    1225  # HC-CT
   1183    4    1237    1228  # HC-CT
   1184    4    1238    1228  # HC-CT
   1185    4    1239    1228  # HC-CT
   1186    4    1240    1231  # HC-CT
   1187    4    1241    1231  # HC-CT
   1188    4    1242    1231  # HC-CT
   1189    1    1244    1243  # NT-CT
   1190    1    1245    1243  # NT-CT
   1191    1    1246    1243  # NT-CT
   1192    2    1247    1243  # HN-NT
   1193    3    1248    1244  # CT-CT
   1194    4    1249    1244  # HC-CT
   1195    4    1250    1244  # HC-CT
   1196    3    1251    1245  # CT-CT
   1197    4    1252    1245  # HC-CT
   1198    4    1253    1245  # HC-CT
   1199    3    1254    1246  # CT-CT
   1200    4    1255    1246  # HC-CT
   1201    4    1256    1246  # HC-CT
   1202    4    1257    1248  # HC-CT
   1203    4    1258    1248  # HC-CT
   1204    4    1259    1248  # HC-CT
   1205    4    1260    1251  # HC-CT
   1206    4    1261    1251  # HC-CT
   1207    4    1262    1251  # HC-CT
   1208    4    1263    1254  # HC-CT
   1209    4    1264    1254  # HC-CT
   1210    4    1265    1254  # HC-CT
   1211    1    1267    1266  # NT-CT
   1212    1    1268    1266  # NT-CT
   1213    1    1269    1266  # NT-CT
   1214    2    1270    1266  # HN-NT
   1215    3    1271    1267  # CT-CT
   1216    4    1272    1267  # HC-CT
   1217    4    1273    1267  # HC-CT
   1218    3    1274    1268  # CT-CT
   1219    4    1275    1268  # HC-CT
   1220    4    1276    1268  # HC-CT
   1221    3    1277    1269  # CT-CT
   1222    4    1278    1269  # HC-CT
   1223    4    1279    1269  # HC-CT
   1224    4    1280    1271  # HC-CT
   1225    4    1281    1271  # HC-CT
   1226    4    1282    1271  # HC-CT
   1227    4    1283    1274  # HC-CT
   1228    4    1284    1274  # HC-CT
   1229    4    1285    1274  # HC-CT
   1230    4    1286    1277  # HC-CT
   1231    4    1287    1277  # HC-CT
   1232    4    1288    1277  # HC-CT
   1233    1    1290    1289  # NT-CT
   1234    1    1291    1289  # NT-CT
   1235    1    1292    1289  # NT-CT
   1236    2    1293    1289  # HN-NT
   1237    3    1294    1290  # CT-CT
   1238    4    1295    1290  # HC-CT
   1239    4    1296    1290  # HC-CT
   1240    3    1297    1291  # CT-CT
   1241    4    1298    1291  # HC-CT
   1242    4    1299    1291  # HC-CT
   1243    3    1300    1292  # CT-CT
   1244    4    1301    1292  # HC-CT
   1245    4    1302    1292  # HC-CT
   1246    4    1303    1294  # HC-CT
   1247    4    1304    1294  # HC-CT
   1248    4    1305    1294  # HC-CT
   1249    4    1306    1297  # HC-CT
   1250    4    1307    1297  # HC-CT
   1251    4    1308    1297  # HC-CT
   1252    4    1309    1300  # HC-CT
   1253    4    1310    1300  # HC-CT
   1254    4    1311    1300  # HC-CT
   1255    1    1313    1312  # NT-CT
   1256    1    1314    1312  # NT-CT
   1257    1    1315    1312  # NT-CT
   1258    2    1316    1312  # HN-NT
   1259    3    1317    1313  # CT-CT
   1260    4    1318    1313  # HC-CT
   1261    4    1319    1313  # HC-CT
   1262    3    1320    1314  # CT-CT
   1263    4    1321    1314  # HC-CT
   1264    4    1322    1314  # HC-CT
   1265    3    1323    1315  # CT-CT
   1266    4    1324    1315  # HC-CT
   1267    4    1325    1315  # HC-CT
   1268    4    1326    1317  # HC-CT
   1269    4    1327    1317  # HC-CT
   1270    4    1328    1317  # HC-CT
   1271    4    1329    1320  # HC-CT
   1272    4    1330    1320  # HC-CT
   1273    4    1331    1320  # HC-CT
   1274    4    1332    1323  # HC-CT
   1275    4    1333    1323  # HC-CT
   1276    4    1334    1323  # HC-CT
   1277    1    1336    1335  # NT-CT
   1278    1    1337    1335  # NT-CT
   1279    1    1338    1335  # NT-CT
   1280    2    1339    1335  # HN-NT
   1281    3    1340    1336  # CT-CT
   1282    4    1341    1336  # HC-CT
   1283    4    1342    1336  # HC-CT
   1284    3    1343    1337  # CT-CT
   1285    4    1344    1337  # HC-CT
   1286    4    1345    1337  # HC-CT
   1287    3    1346    1338  # CT-CT
   1288    4    1347    1338  # HC-CT
   1289    4    1348    1338  # HC-CT
   1290    4    1349    1340  # HC-CT
   1291    4    1350    1340  # HC-CT
   1292    4    1351    1340  # HC-CT
   1293    4    1352    1343  # HC-CT
   1294    4    1353    1343  # HC-CT
   1295    4    1354    1343  # HC-CT
   1296    4    1355    1346  # HC-CT
   1297    4    1356    1346  # HC-CT
   1298    4    1357    1346  # HC-CT
   1299    1    1359    1358  # NT-CT
   1300    1    1360    1358  # NT-CT
   1301    1    1361    1358  # NT-CT
   1302    2    1362    1358  # HN-NT
   1303    3    1363    1359  # CT-CT
   1304    4    1364    1359  # HC-CT
   1305    4    1365    1359  # HC-CT
   1306    3    1366    1360  # CT-CT
   1307    4    1367    1360  # HC-CT
   1308    4    1368    1360  # HC-CT
   1309    3    1369    1361  # CT-CT
   1310    4    1370    1361  # HC-CT
   1311    4    1371    1361  # HC-CT
   1312    4    1372    1363  # HC-CT
   1313    4    1373    1363  # HC-CT
   1314    4    1374    1363  # HC-CT
   1315    4    1375    1366  # HC-CT
   1316    4    1376    1366  # HC-CT
   1317    4    1377    1366  # HC-CT
   1318    4    1378    1369  # HC-CT
   1319    4    1379    1369  # HC-CT
   1320    4    1380    1369  # HC-CT
   1321    1    1382    1381  # NT-CT
   1322    1    1383    1381  # NT-CT
   1323    1    1384    1381  # NT-CT
   1324    2    1385    1381  # HN-NT
   1325    3    1386    1382  # CT-CT
   1326    4    1387    1382  # HC-CT
   1327    4    1388    1382  # HC-CT
   1328    3    1389    1383  # CT-CT
   1329    4    1390    1383  # HC-CT
   1330    4    1391    1383  # HC-CT
   1331    3    1392    1384  # CT-CT
   1332    4    1393    1384  # HC-CT
   1333    4    1394    1384  # HC-CT
   1334    4    1395    1386  # HC-CT
   1335    4    1396    1386  # HC-CT
   1336    4    1397    1386  # HC-CT
   1337    4    1398    1389  # HC-CT
   1338    4    1399    1389  # HC-CT
   1339    4    1400    1389  # HC-CT
   1340    4    1401    1392  # HC-CT
   1341    4    1402    1392  # HC-CT
   1342    4    1403    1392  # HC-CT
   1343    1    1405    1404  # NT-CT
   1344    1    1406    1404  # NT-CT
   1345    1    1407    1404  # NT-CT
   1346    2    1408    1404  # HN-NT
   1347    3    1409    1405  # CT-CT
   1348    4    1410    1405  # HC-CT
   1349    4    1411    1405  # HC-CT
   1350    3    1412    1406  # CT-CT
   1351    4    1413    1406  # HC-CT
   1352    4    1414    1406  # HC-CT
   1353    3    1415    1407  # CT-CT
   1354    4    1416    1407  # HC-CT
   1355    4    1417    1407  # HC-CT
   1356    4    1418    1409  # HC-CT
   1357    4    1419    1409  # HC-CT
   1358    4    1420    1409  # HC-CT
   1359    4    1421    1412  # HC-CT
   1360    4    1422    1412  # HC-CT
   1361    4    1423    1412  # HC-CT
   1362    4    1424    1415  # HC-CT
   1363    4    1425    1415  # HC-CT
   1364    4    1426    1415  # HC-CT
   1365    1    1428    1427  # NT-CT
   1366    1    1429    1427  # NT-CT
   1367    1    1430    1427  # NT-CT
   1368    2    1431    1427  # HN-NT
   1369    3    1432    1428  # CT-CT
   1370    4    1433    1428  # HC-CT
   1371    4    1434    1428  # HC-CT
   1372    3    1435    1429  # CT-CT
   1373    4    1436    1429  # HC-CT
   1374    4    1437    1429  # HC-CT
   1375    3    1438    1430  # CT-CT
   1376    4    1439    1430  # HC-CT
   1377    4    1440    1430  # HC-CT
   1378    4    1441    1432  # HC-CT
   1379    4    1442    1432  # HC-CT
   1380    4    1443    1432  # HC-CT
   1381    4    1444    1435  # HC-CT
   1382    4    1445    1435  # HC-CT
   1383    4    1446    1435  # HC-CT
   1384    4    1447    1438  # HC-CT
   1385    4    1448    1438  # HC-CT
   1386    4    1449    1438  # HC-CT
   1387    1    1451    1450  # NT-CT
   1388    1    1452    1450  # NT-CT
   1389    1    1453    1450  # NT-CT
   1390    2    1454    1450  # HN-NT
   1391    3    1455    1451  # CT-CT
   1392    4    1456    1451  # HC-CT
   1393    4    1457    1451  # HC-CT
   1394    3    1458    1452  # CT-CT
   1395    4    1459    1452  # HC-CT
   1396    4    1460    1452  # HC-CT
   1397    3    1461    1453  # CT-CT
   1398    4    1462    1453  # HC-CT
   1399    4    1463    1453  # HC-CT
   1400    4    1464    1455  # HC-CT
   1401    4    1465    1455  # HC-CT
   1402    4    1466    1455  # HC-CT
   1403    4    1467    1458  # HC-CT
   1404    4    1468    1458  # HC-CT
   1405    4    1469    1458  # HC-CT
   1406    4    1470    1461  # HC-CT
   1407    4    1471    1461  # HC-CT
   1408    4    1472    1461  # HC-CT
   1409    1    1474    1473  # NT-CT
   1410    1    1475    1473  # NT-CT
   1411    1    1476    1473  # NT-CT
   1412    2    1477    1473  # HN-NT
   1413    3    1478    1474  # CT-CT
   1414    4    1479    1474  # HC-CT
   1415    4    1480    1474  # HC-CT
   1416    3    1481    1475  # CT-CT
   1417    4    1482    1475  # HC-CT
   1418    4    1483    1475  # HC-CT
   1419    3    1484    1476  # CT-CT
   1420    4    1485    1476  # HC-CT
   1421    4    1486    1476  # HC-CT
   1422    4    1487    1478  # HC-CT
   1423    4    1488    1478  # HC-CT
   1424    4    1489    1478  # HC-CT
   1425    4    1490    1481  # HC-CT
   1426    4    1491    1481  # HC-CT
   1427    4    1492    1481  # HC-CT
   1428    4    1493    1484  # HC-CT
   1429    4    1494    1484  # HC-CT
   1430    4    1495    1484  # HC-CT
   1431    1    1497    1496  # NT-CT
   1432    1    1498    1496  # NT-CT
   1433    1    1499    1496  # NT-CT
   1434    2    1500    1496  # HN-NT
   1435    3    1501    1497  # CT-CT
   1436    4    1502    1497  # HC-CT
   1437    4    1503    1497  # HC-CT
   1438    3    1504    1498  # CT-CT
   1439    4    1505    1498  # HC-CT
   1440    4    1506    1498  # HC-CT
   1441    3    1507    1499  # CT-CT
   1442    4    1508    1499  # HC-CT
   1443    4    1509    1499  # HC-CT
   1444    4    1510    1501  # HC-CT
   1445    4    1511    1501  # HC-CT
   1446    4    1512    1501  # HC-CT
   1447    4    1513    1504  # HC-CT
   1448    4    1514    1504  # HC-CT
   1449    4    1515    1504  # HC-CT
   1450    4    1516    1507  # HC-CT
   1451    4    1517    1507  # HC-CT
   1452    4    1518    1507  # HC-CT
   1453    1    1520    1519  # NT-CT
   1454    1    1521    1519  # NT-CT
   1455    1    1522    1519  # NT-CT
   1456    2    1523    1519  # HN-NT
   1457    3    1524    1520  # CT-CT
   1458    4    1525    1520  # HC-CT
   1459    4    1526    1520  # HC-CT
   1460    3    1527    1521  # CT-CT
   1461    4    1528    1521  # HC-CT
   1462    4    1529    1521  # HC-CT
   1463    3    1530    1522  # CT-CT
   1464    4    1531    1522  # HC-CT
   1465    4    1532    1522  # HC-CT
   1466    4    1533    1524  # HC-CT
   1467    4    1534    1524  # HC-CT
   1468    4    1535    1524  # HC-CT
   1469    4    1536    1527  # HC-CT
   1470    4    1537    1527  # HC-CT
   1471    4    1538    1527  # HC-CT
   1472    4    1539    1530  # HC-CT
   1473    4    1540    1530  # HC-CT
   1474    4    1541    1530  # HC-CT
   1475    1    1543    1542  # NT-CT
   1476    1    1544    1542  # NT-CT
   1477    1    1545    1542  # NT-CT
   1478    2    1546    1542  # HN-NT
   1479    3    1547    1543  # CT-CT
   1480    4    1548    1543  # HC-CT
   1481    4    1549    1543  # HC-CT
   1482    3    1550    1544  # CT-CT
   1483    4    1551    1544  # HC-CT
   1484    4    1552    1544  # HC-CT
   1485    3    1553    1545  # CT-CT
   1486    4    1554    1545  # HC-CT
   1487    4    1555    1545  # HC-CT
   1488    4    1556    1547  # HC-CT
   1489    4    1557    1547  # HC-CT
   1490    4    1558    1547  # HC-CT
   1491    4    1559    1550  # HC-CT
   1492    4    1560    1550  # HC-CT
   1493    4    1561    1550  # HC-CT
   1494    4    1562    1553  # HC-CT
   1495    4    1563    1553  # HC-CT
   1496    4    1564    1553  # HC-CT
   1497    1    1566    1565  # NT-CT
   1498    1    1567    1565  # NT-CT
   1499    1    1568    1565  # NT-CT
   1500    2    1569    1565  # HN-NT
   1501    3    1570    1566  # CT-CT
   1502    4    1571    1566  # HC-CT
   1503    4    1572    1566  # HC-CT
   1504    3    1573    1567  # CT-CT
   1505    4    1574    1567  # HC-CT
   1506    4    1575    1567  # HC-CT
   1507    3    1576    1568  # CT-CT
   1508    4    1577    1568  # HC-CT
   1509    4    1578    1568  # HC-CT
   1510    4    1579    1570  # HC-CT
   1511    4    1580    1570  # HC-CT
   1512    4    1581    1570  # HC-CT
   1513    4    1582    1573  # HC-CT
   1514    4    1583    1573  # HC-CT
   1515    4    1584    1573  # HC-CT
   1516    4    1585    1576  # HC-CT
   1517    4    1586    1576  # HC-CT
   1518    4    1587    1576  # HC-CT
   1519    1    1589    1588  # NT-CT
   1520    1    1590    1588  # NT-CT
   1521    1    1591    1588  # NT-CT
   1522    2    1592    1588  # HN-NT
   1523    3    1593    1589  # CT-CT
   1524    4    1594    1589  # HC-CT
   1525    4    1595    1589  # HC-CT
   1526    3    1596    1590  # CT-CT
   1527    4    1597    1590  # HC-CT
   1528    4    1598    1590  # HC-CT
   1529    3    1599    1591  # CT-CT
   1530    4    1600    1591  # HC-CT
   1531    4    1601    1591  # HC-CT
   1532    4    1602    1593  # HC-CT
   1533    4    1603    1593  # HC-CT
   1534    4    1604    1593  # HC-CT
   1535    4    1605    1596  # HC-CT
   1536    4    1606    1596  # HC-CT
   1537    4    1607    1596  # HC-CT
   1538    4    1608    1599  # HC-CT
   1539    4    1609    1599  # HC-CT
   1540    4    1610    1599  # HC-CT
   1541    1    1612    1611  # NT-CT
   1542    1    1613    1611  # NT-CT
   1543    1    1614    1611  # NT-CT
   1544    2    1615    1611  # HN-NT
   1545    3    1616    1612  # CT-CT
   1546    4    1617    1612  # HC-CT
   1547    4    1618    1612  # HC-CT
   1548    3    1619    1613  # CT-CT
   1549    4    1620    1613  # HC-CT
   1550    4    1621    1613  # HC-CT
   1551    3    1622    1614  # CT-CT
   1552    4    1623    1614  # HC-CT
   1553    4    1624    1614  # HC-CT
   1554    4    1625    1616  # HC-CT
   1555    4    1626    1616  # HC-CT
   1556    4    1627    1616  # HC-CT
   1557    4    1628    1619  # HC-CT
   1558    4    1629    1619  # HC-CT
   1559    4    1630    1619  # HC-CT
   1560    4    1631    1622  # HC-CT
   1561    4    1632    1622  # HC-CT
   1562    4    1633    1622  # HC-CT
   1563    1    1635    1634  # NT-CT
   1564    1    1636    1634  # NT-CT
   1565    1    1637    1634  # NT-CT
   1566    2    1638    1634  # HN-NT
   1567    3    1639    1635  # CT-CT
   1568    4    1640    1635  # HC-CT
   1569    4    1641    1635  # HC-CT
   1570    3    1642    1636  # CT-CT
   1571    4    1643    1636  # HC-CT
   1572    4    1644    1636  # HC-CT
   1573    3    1645    1637  # CT-CT
   1574    4    1646    1637  # HC-CT
   1575    4    1647    1637  # HC-CT
   1576    4    1648    1639  # HC-CT
   1577    4    1649    1639  # HC-CT
   1578    4    1650    1639  # HC-CT
   1579    4    1651    1642  # HC-CT
   1580    4    1652    1642  # HC-CT
   1581    4    1653    1642  # HC-CT
   1582    4    1654    1645  # HC-CT
   1583    4    1655    1645  # HC-CT
   1584    4    1656    1645  # HC-CT
   1585    1    1658    1657  # NT-CT
   1586    1    1659    1657  # NT-CT
   1587    1    1660    1657  # NT-CT
   1588    2    1661    1657  # HN-NT
   1589    3    1662    1658  # CT-CT
   1590    4    1663    1658  # HC-CT
   1591    4    1664    1658  # HC-CT
   1592    3    1665    1659  # CT-CT
   1593    4    1666    1659  # HC-CT
   1594    4    1667    1659  # HC-CT
   1595    3    1668    1660  # CT-CT
   1596    4    1669    1660  # HC-CT
   1597    4    1670    1660  # HC-CT
   1598    4    1671    1662  # HC-CT
   1599    4    1672    1662  # HC-CT
   1600    4    1673    1662  # HC-CT
   1601    4    1674    1665  # HC-CT
   1602    4    1675    1665  # HC-CT
   1603    4    1676    1665  # HC-CT
   1604    4    1677    1668  # HC-CT
   1605    4    1678    1668  # HC-CT
   1606    4    1679    1668  # HC-CT
   1607    1    1681    1680  # NT-CT
   1608    1    1682    1680  # NT-CT
   1609    1    1683    1680  # NT-CT
   1610    2    1684    1680  # HN-NT
   1611    3    1685    1681  # CT-CT
   1612    4    1686    1681  # HC-CT
   1613    4    1687    1681  # HC-CT
   1614    3    1688    1682  # CT-CT
   1615    4    1689    1682  # HC-CT
   1616    4    1690    1682  # HC-CT
   1617    3    1691    1683  # CT-CT
   1618    4    1692    1683  # HC-CT
   1619    4    1693    1683  # HC-CT
   1620    4    1694    1685  # HC-CT
   1621    4    1695    1685  # HC-CT
   1622    4    1696    1685  # HC-CT
   1623    4    1697    1688  # HC-CT
   1624    4    1698    1688  # HC-CT
   1625    4    1699    1688  # HC-CT
   1626    4    1700    1691  # HC-CT
   1627    4    1701    1691  # HC-CT
   1628    4    1702    1691  # HC-CT
   1629    5    1704    1703  # CT-CO
   1630    6    1705    1703  # CO-O2
   1631    6    1706    1703  # CO-O2
   1632    4    1707    1704  # HC-CT
   1633    4    1708    1704  # HC-CT
   1634    4    1709    1704  # HC-CT
   1635    5    1711    1710  # CT-CO
   1636    6    1712    1710  # CO-O2
   1637    6    1713    1710  # CO-O2
   1638    4    1714    1711  # HC-CT
   1639    4    1715    1711  # HC-CT
   1640    4    1716    1711  # HC-CT
   1641    5    1718    1717  # CT-CO
   1642    6    1719    1717  # CO-O2
   1643    6    1720    1717  # CO-O2
   1644    4    1721    1718  # HC-CT
   1645    4    1722    1718  # HC-CT
   1646    4    1723    1718  # HC-CT
   1647    5    1725    1724  # CT-CO
   1648    6    1726    1724  # CO-O2
   1649    6    1727    1724  # CO-O2
   1650    4    1728    1725  # HC-CT
   1651    4    1729    1725  # HC-CT
   1652    4    1730    1725  # HC-CT
   1653    5    1732    1731  # CT-CO
   1654    6    1733    1731  # CO-O2
   1655    6    1734    1731  # CO-O2
   1656    4    1735    1732  # HC-CT
   1657    4    1736    1732  # HC-CT
   1658    4    1737    1732  # HC-CT
   1659    5    1739    1738  # CT-CO
   1660    6    1740    1738  # CO-O2
   1661    6    1741    1738  # CO-O2
   1662    4    1742    1739  # HC-CT
   1663    4    1743    1739  # HC-CT
   1664    4    1744    1739  # HC-CT
   1665    5    1746    1745  # CT-CO
   1666    6    1747    1745  # CO-O2
   1667    6    1748    1745  # CO-O2
   1668    4    1749    1746  # HC-CT
   1669    4    1750    1746  # HC-CT
   1670    4    1751    1746  # HC-CT
   1671    5    1753    1752  # CT-CO
   1672    6    1754    1752  # CO-O2
   1673    6    1755    1752  # CO-O2
   1674    4    1756    1753  # HC-CT
   1675    4    1757    1753  # HC-CT
   1676    4    1758    1753  # HC-CT
   1677    5    1760    1759  # CT-CO
   1678    6    1761    1759  # CO-O2
   1679    6    1762    1759  # CO-O2
   1680    4    1763    1760  # HC-CT
   1681    4    1764    1760  # HC-CT
   1682    4    1765    1760  # HC-CT
   1683    5    1767    1766  # CT-CO
   1684    6    1768    1766  # CO-O2
   1685    6    1769    1766  # CO-O2
   1686    4    1770    1767  # HC-CT
   1687    4    1771    1767  # HC-CT
   1688    4    1772    1767  # HC-CT
   1689    5    1774    1773  # CT-CO
   1690    6    1775    1773  # CO-O2
   1691    6    1776    1773  # CO-O2
   1692    4    1777    1774  # HC-CT
   1693    4    1778    1774  # HC-CT
   1694    4    1779    1774  # HC-CT
   1695    5    1781    1780  # CT-CO
   1696    6    1782    1780  # CO-O2
   1697    6    1783    1780  # CO-O2
   1698    4    1784    1781  # HC-CT
   1699    4    1785    1781  # HC-CT
   1700    4    1786    1781  # HC-CT
   1701    5    1788    1787  # CT-CO
   1702    6    1789    1787  # CO-O2
   1703    6    1790    1787  # CO-O2
   1704    4    1791    1788  # HC-CT
   1705    4    1792    1788  # HC-CT
   1706    4    1793    1788  # HC-CT
   1707    5    1795    1794  # CT-CO
   1708    6    1796    1794  # CO-O2
   1709    6    1797    1794  # CO-O2
   1710    4    1798    1795  # HC-CT
   1711    4    1799    1795  # HC-CT
   1712    4    1800    1795  # HC-CT
   1713    5    1802    1801  # CT-CO
   1714    6    1803    1801  # CO-O2
   1715    6    1804    1801  # CO-O2
   1716    4    1805    1802  # HC-CT
   1717    4    1806    1802  # HC-CT
   1718    4    1807    1802  # HC-CT
   1719    5    1809    1808  # CT-CO
   1720    6    1810    1808  # CO-O2
   1721    6    1811    1808  # CO-O2
   1722    4    1812    1809  # HC-CT
   1723    4    1813    1809  # HC-CT
   1724    4    1814    1809  # HC-CT
   1725    5    1816    1815  # CT-CO
   1726    6    1817    1815  # CO-O2
   1727    6    1818    1815  # CO-O2
   1728    4    1819    1816  # HC-CT
   1729    4    1820    1816  # HC-CT
   1730    4    1821    1816  # HC-CT
   1731    5    1823    1822  # CT-CO
   1732    6    1824    1822  # CO-O2
   1733    6    1825    1822  # CO-O2
   1734    4    1826    1823  # HC-CT
   1735    4    1827    1823  # HC-CT
   1736    4    1828    1823  # HC-CT
   1737    5    1830    1829  # CT-CO
   1738    6    1831    1829  # CO-O2
   1739    6    1832    1829  # CO-O2
   1740    4    1833    1830  # HC-CT
   1741    4    1834    1830  # HC-CT
   1742    4    1835    1830  # HC-CT
   1743    5    1837    1836  # CT-CO
   1744    6    1838    1836  # CO-O2
   1745    6    1839    1836  # CO-O2
   1746    4    1840    1837  # HC-CT
   1747    4    1841    1837  # HC-CT
   1748    4    1842    1837  # HC-CT
   1749    5    1844    1843  # CT-CO
   1750    6    1845    1843  # CO-O2
   1751    6    1846    1843  # CO-O2
   1752    4    1847    1844  # HC-CT
   1753    4    1848    1844  # HC-CT
   1754    4    1849    1844  # HC-CT
   1755    5    1851    1850  # CT-CO
   1756    6    1852    1850  # CO-O2
   1757    6    1853    1850  # CO-O2
   1758    4    1854    1851  # HC-CT
   1759    4    1855    1851  # HC-CT
   1760    4    1856    1851  # HC-CT
   1761    5    1858    1857  # CT-CO
   1762    6    1859    1857  # CO-O2
   1763    6    1860    1857  # CO-O2
   1764    4    1861    1858  # HC-CT
   1765    4    1862    1858  # HC-CT
   1766    4    1863    1858  # HC-CT
   1767    5    1865    1864  # CT-CO
   1768    6    1866    1864  # CO-O2
   1769    6    1867    1864  # CO-O2
   1770    4    1868    1865  # HC-CT
   1771    4    1869    1865  # HC-CT
   1772    4    1870    1865  # HC-CT
   1773    5    1872    1871  # CT-CO
   1774    6    1873    1871  # CO-O2
   1775    6    1874    1871  # CO-O2
   1776    4    1875    1872  # HC-CT
   1777    4    1876    1872  # HC-CT
   1778    4    1877    1872  # HC-CT
   1779    5    1879    1878  # CT-CO
   1780    6    1880    1878  # CO-O2
   1781    6    1881    1878  # CO-O2
   1782    4    1882    1879  # HC-CT
   1783    4    1883    1879  # HC-CT
   1784    4    1884    1879  # HC-CT
   1785    5    1886    1885  # CT-CO
   1786    6    1887    1885  # CO-O2
   1787    6    1888    1885  # CO-O2
   1788    4    1889    1886  # HC-CT
   1789    4    1890    1886  # HC-CT
   1790    4    1891    1886  # HC-CT
   1791    5    1893    1892  # CT-CO
   1792    6    1894    1892  # CO-O2
   1793    6    1895    1892  # CO-O2
   1794    4    1896    1893  # HC-CT
   1795    4    1897    1893  # HC-CT
   1796    4    1898    1893  # HC-CT
   1797    5    1900    1899  # CT-CO
   1798    6    1901    1899  # CO-O2
   1799    6    1902    1899  # CO-O2
   1800    4    1903    1900  # HC-CT
   1801    4    1904    1900  # HC-CT
   1802    4    1905    1900  # HC-CT
   1803    5    1907    1906  # CT-CO
   1804    6    1908    1906  # CO-O2
   1805    6    1909    1906  # CO-O2
   1806    4    1910    1907  # HC-CT
   1807    4    1911    1907  # HC-CT
   1808    4    1912    1907  # HC-CT
   1809    5    1914    1913  # CT-CO
   1810    6    1915    1913  # CO-O2
   1811    6    1916    1913  # CO-O2
   1812    4    1917    1914  # HC-CT
   1813    4    1918    1914  # HC-CT
   1814    4    1919    1914  # HC-CT
   1815    5    1921    1920  # CT-CO
   1816    6    1922    1920  # CO-O2
   1817    6    1923    1920  # CO-O2
   1818    4    1924    1921  # HC-CT
   1819    4    1925    1921  # HC-CT
   1820    4    1926    1921  # HC-CT
   1821    5    1928    1927  # CT-CO
   1822    6    1929    1927  # CO-O2
   1823    6    1930    1927  # CO-O2
   1824    4    1931    1928  # HC-CT
   1825    4    1932    1928  # HC-CT
   1826    4    1933    1928  # HC-CT
   1827    5    1935    1934  # CT-CO
   1828    6    1936    1934  # CO-O2
   1829    6    1937    1934  # CO-O2
   1830    4    1938    1935  # HC-CT
   1831    4    1939    1935  # HC-CT
   1832    4    1940    1935  # HC-CT
   1833    5    1942    1941  # CT-CO
   1834    6    1943    1941  # CO-O2
   1835    6    1944    1941  # CO-O2
   1836    4    1945    1942  # HC-CT
   1837    4    1946    1942  # HC-CT
   1838    4    1947    1942  # HC-CT
   1839    5    1949    1948  # CT-CO
   1840    6    1950    1948  # CO-O2
   1841    6    1951    1948  # CO-O2
   1842    4    1952    1949  # HC-CT
   1843    4    1953    1949  # HC-CT
   1844    4    1954    1949  # HC-CT
   1845    5    1956    1955  # CT-CO
   1846    6    1957    1955  # CO-O2
   1847    6    1958    1955  # CO-O2
   1848    4    1959    1956  # HC-CT
   1849    4    1960    1956  # HC-CT
   1850    4    1961    1956  # HC-CT
   1851    5    1963    1962  # CT-CO
   1852    6    1964    1962  # CO-O2
   1853    6    1965    1962  # CO-O2
   1854    4    1966    1963  # HC-CT
   1855    4    1967    1963  # HC-CT
   1856    4    1968    1963  # HC-CT
   1857    5    1970    1969  # CT-CO
   1858    6    1971    1969  # CO-O2
   1859    6    1972    1969  # CO-O2
   1860    4    1973    1970  # HC-CT
   1861    4    1974    1970  # HC-CT
   1862    4    1975    1970  # HC-CT
   1863    5    1977    1976  # CT-CO
   1864    6    1978    1976  # CO-O2
   1865    6    1979    1976  # CO-O2
   1866    4    1980    1977  # HC-CT
   1867    4    1981    1977  # HC-CT
   1868    4    1982    1977  # HC-CT
   1869    5    1984    1983  # CT-CO
   1870    6    1985    1983  # CO-O2
   1871    6    1986    1983  # CO-O2
   1872    4    1987    1984  # HC-CT
   1873    4    1988    1984  # HC-CT
   1874    4    1989    1984  # HC-CT
   1875    5    1991    1990  # CT-CO
   1876    6    1992    1990  # CO-O2
   1877    6    1993    1990  # CO-O2
   1878    4    1994    1991  # HC-CT
   1879    4    1995    1991  # HC-CT
   1880    4    1996    1991  # HC-CT
   1881    5    1998    1997  # CT-CO
   1882    6    1999    1997  # CO-O2
   1883    6    2000    1997  # CO-O2
   1884    4    2001    1998  # HC-CT
   1885    4    2002    1998  # HC-CT
   1886    4    2003    1998  # HC-CT
   1887    5    2005    2004  # CT-CO
   1888    6    2006    2004  # CO-O2
   1889    6    2007    2004  # CO-O2
   1890    4    2008    2005  # HC-CT
   1891    4    2009    2005  # HC-CT
   1892    4    2010    2005  # HC-CT
   1893    5    2012    2011  # CT-CO
   1894    6    2013    2011  # CO-O2
   1895    6    2014    2011  # CO-O2
   1896    4    2015    2012  # HC-CT
   1897    4    2016    2012  # HC-CT
   1898    4    2017    2012  # HC-CT
   1899    5    2019    2018  # CT-CO
   1900    6    2020    2018  # CO-O2
   1901    6    2021    2018  # CO-O2
   1902    4    2022    2019  # HC-CT
   1903    4    2023    2019  # HC-CT
   1904    4    2024    2019  # HC-CT
   1905    5    2026    2025  # CT-CO
   1906    6    2027    2025  # CO-O2
   1907    6    2028    2025  # CO-O2
   1908    4    2029    2026  # HC-CT
   1909    4    2030    2026  # HC-CT
   1910    4    2031    2026  # HC-CT
   1911    5    2033    2032  # CT-CO
   1912    6    2034    2032  # CO-O2
   1913    6    2035    2032  # CO-O2
   1914    4    2036    2033  # HC-CT
   1915    4    2037    2033  # HC-CT
   1916    4    2038    2033  # HC-CT
   1917    5    2040    2039  # CT-CO
   1918    6    2041    2039  # CO-O2
   1919    6    2042    2039  # CO-O2
   1920    4    2043    2040  # HC-CT
   1921    4    2044    2040  # HC-CT
   1922    4    2045    2040  # HC-CT
   1923    5    2047    2046  # CT-CO
   1924    6    2048    2046  # CO-O2
   1925    6    2049    2046  # CO-O2
   1926    4    2050    2047  # HC-CT
   1927    4    2051    2047  # HC-CT
   1928    4    2052    2047  # HC-CT
   1929    5    2054    2053  # CT-CO
   1930    6    2055    2053  # CO-O2
   1931    6    2056    2053  # CO-O2
   1932    4    2057    2054  # HC-CT
   1933    4    2058    2054  # HC-CT
   1934    4    2059    2054  # HC-CT
   1935    5    2061    2060  # CT-CO
   1936    6    2062    2060  # CO-O2
   1937    6    2063    2060  # CO-O2
   1938    4    2064    2061  # HC-CT
   1939    4    2065    2061  # HC-CT
   1940    4    2066    2061  # HC-CT
   1941    5    2068    2067  # CT-CO
   1942    6    2069    2067  # CO-O2
   1943    6    2070    2067  # CO-O2
   1944    4    2071    2068  # HC-CT
   1945    4    2072    2068  # HC-CT
   1946    4    2073    2068  # HC-CT
   1947    5    2075    2074  # CT-CO
   1948    6    2076    2074  # CO-O2
   1949    6    2077    2074  # CO-O2
   1950    4    2078    2075  # HC-CT
   1951    4    2079    2075  # HC-CT
   1952    4    2080    2075  # HC-CT
   1953    5    2082    2081  # CT-CO
   1954    6    2083    2081  # CO-O2
   1955    6    2084    2081  # CO-O2
   1956    4    2085    2082  # HC-CT
   1957    4    2086    2082  # HC-CT
   1958    4    2087    2082  # HC-CT
   1959    5    2089    2088  # CT-CO
   1960    6    2090    2088  # CO-O2
   1961    6    2091    2088  # CO-O2
   1962    4    2092    2089  # HC-CT
   1963    4    2093    2089  # HC-CT
   1964    4    2094    2089  # HC-CT
   1965    5    2096    2095  # CT-CO
   1966    6    2097    2095  # CO-O2
   1967    6    2098    2095  # CO-O2
   1968    4    2099    2096  # HC-CT
   1969    4    2100    2096  # HC-CT
   1970    4    2101    2096  # HC-CT
   1971    5    2103    2102  # CT-CO
   1972    6    2104    2102  # CO-O2
   1973    6    2105    2102  # CO-O2
   1974    4    2106    2103  # HC-CT
   1975    4    2107    2103  # HC-CT
   1976    4    2108    2103  # HC-CT
   1977    5    2110    2109  # CT-CO
   1978    6    2111    2109  # CO-O2
   1979    6    2112    2109  # CO-O2
   1980    4    2113    2110  # HC-CT
   1981    4    2114    2110  # HC-CT
   1982    4    2115    2110  # HC-CT
   1983    5    2117    2116  # CT-CO
   1984    6    2118    2116  # CO-O2
   1985    6    2119    2116  # CO-O2
   1986    4    2120    2117  # HC-CT
   1987    4    2121    2117  # HC-CT
   1988    4    2122    2117  # HC-CT
   1989    5    2124    2123  # CT-CO
   1990    6    2125    2123  # CO-O2
   1991    6    2126    2123  # CO-O2
   1992    4    2127    2124  # HC-CT
   1993    4    2128    2124  # HC-CT
   1994    4    2129    2124  # HC-CT
   1995    5    2131    2130  # CT-CO
   1996    6    2132    2130  # CO-O2
   1997    6    2133    2130  # CO-O2
   1998    4    2134    2131  # HC-CT
   1999    4    2135    2131  # HC-CT
   2000    4    2136    2131  # HC-CT
   2001    5    2138    2137  # CT-CO
   2002    6    2139    2137  # CO-O2
   2003    6    2140    2137  # CO-O2
   2004    4    2141    2138  # HC-CT
   2005    4    2142    2138  # HC-CT
   2006    4    2143    2138  # HC-CT
   2007    5    2145    2144  # CT-CO
   2008    6    2146    2144  # CO-O2
   2009    6    2147    2144  # CO-O2
   2010    4    2148    2145  # HC-CT
   2011    4    2149    2145  # HC-CT
   2012    4    2150    2145  # HC-CT
   2013    5    2152    2151  # CT-CO
   2014    6    2153    2151  # CO-O2
   2015    6    2154    2151  # CO-O2
   2016    4    2155    2152  # HC-CT
   2017    4    2156    2152  # HC-CT
   2018    4    2157    2152  # HC-CT
   2019    5    2159    2158  # CT-CO
   2020    6    2160    2158  # CO-O2
   2021    6    2161    2158  # CO-O2
   2022    4    2162    2159  # HC-CT
   2023    4    2163    2159  # HC-CT
   2024    4    2164    2159  # HC-CT
   2025    5    2166    2165  # CT-CO
   2026    6    2167    2165  # CO-O2
   2027    6    2168    2165  # CO-O2
   2028    4    2169    2166  # HC-CT
   2029    4    2170    2166  # HC-CT
   2030    4    2171    2166  # HC-CT
   2031    5    2173    2172  # CT-CO
   2032    6    2174    2172  # CO-O2
   2033    6    2175    2172  # CO-O2
   2034    4    2176    2173  # HC-CT
   2035    4    2177    2173  # HC-CT
   2036    4    2178    2173  # HC-CT
   2037    5    2180    2179  # CT-CO
   2038    6    2181    2179  # CO-O2
   2039    6    2182    2179  # CO-O2
   2040    4    2183    2180  # HC-CT
   2041    4    2184    2180  # HC-CT
   2042    4    2185    2180  # HC-CT
   2043    5    2187    2186  # CT-CO
   2044    6    2188    2186  # CO-O2
   2045    6    2189    2186  # CO-O2
   2046    4    2190    2187  # HC-CT
   2047    4    2191    2187  # HC-CT
   2048    4    2192    2187  # HC-CT
   2049    5    2194    2193  # CT-CO
   2050    6    2195    2193  # CO-O2
   2051    6    2196    2193  # CO-O2
   2052    4    2197    2194  # HC-CT
   2053    4    2198    2194  # HC-CT
   2054    4    2199    2194  # HC-CT
   2055    5    2201    2200  # CT-CO
   2056    6    2202    2200  # CO-O2
   2057    6    2203    2200  # CO-O2
   2058    4    2204    2201  # HC-CT
   2059    4    2205    2201  # HC-CT
   2060    4    2206    2201  # HC-CT
   2061    5    2208    2207  # CT-CO
   2062    6    2209    2207  # CO-O2
   2063    6    2210    2207  # CO-O2
   2064    4    2211    2208  # HC-CT
   2065    4    2212    2208  # HC-CT
   2066    4    2213    2208  # HC-CT
   2067    5    2215    2214  # CT-CO
   2068    6    2216    2214  # CO-O2
   2069    6    2217    2214  # CO-O2
   2070    4    2218    2215  # HC-CT
   2071    4    2219    2215  # HC-CT
   2072    4    2220    2215  # HC-CT
   2073    5    2222    2221  # CT-CO
   2074    6    2223    2221  # CO-O2
   2075    6    2224    2221  # CO-O2
   2076    4    2225    2222  # HC-CT
   2077    4    2226    2222  # HC-CT
   2078    4    2227    2222  # HC-CT
   2079    5    2229    2228  # CT-CO
   2080    6    2230    2228  # CO-O2
   2081    6    2231    2228  # CO-O2
   2082    4    2232    2229  # HC-CT
   2083    4    2233    2229  # HC-CT
   2084    4    2234    2229  # HC-CT
   2085    5    2236    2235  # CT-CO
   2086    6    2237    2235  # CO-O2
   2087    6    2238    2235  # CO-O2
   2088    4    2239    2236  # HC-CT
   2089    4    2240    2236  # HC-CT
   2090    4    2241    2236  # HC-CT
   2091    7    2243    2242  # Ow-Hw
   2092    7    2244    2243  # Ow-Hw
   2093    7    2246    2245  # Ow-Hw
   2094    7    2247    2246  # Ow-Hw
   2095    7    2249    2248  # Ow-Hw
   2096    7    2250    2249  # Ow-Hw
   2097    7    2252    2251  # Ow-Hw
   2098    7    2253    2252  # Ow-Hw
   2099    7    2255    2254  # Ow-Hw
   2100    7    2256    2255  # Ow-Hw
   2101    7    2258    2257  # Ow-Hw
   2102    7    2259    2258  # Ow-Hw
   2103    7    2261    2260  # Ow-Hw
   2104    7    2262    2261  # Ow-Hw
   2105    7    2264    2263  # Ow-Hw
   2106    7    2265    2264  # Ow-Hw
   2107    7    2267    2266  # Ow-Hw
   2108    7    2268    2267  # Ow-Hw
   2109    7    2270    2269  # Ow-Hw
   2110    7    2271    2270  # Ow-Hw
   2111    7    2273    2272  # Ow-Hw
   2112    7    2274    2273  # Ow-Hw
   2113    7    2276    2275  # Ow-Hw
   2114    7    2277    2276  # Ow-Hw
   2115    7    2279    2278  # Ow-Hw
   2116    7    2280    2279  # Ow-Hw
   2117    7    2282    2281  # Ow-Hw
   2118    7    2283    2282  # Ow-Hw
   2119    7    2285    2284  # Ow-Hw
   2120    7    2286    2285  # Ow-Hw
   2121    7    2288    2287  # Ow-Hw
   2122    7    2289    2288  # Ow-Hw
   2123    7    2291    2290  # Ow-Hw
   2124    7    2292    2291  # Ow-Hw
   2125    7    2294    2293  # Ow-Hw
   2126    7    2295    2294  # Ow-Hw
   2127    7    2297    2296  # Ow-Hw
   2128    7    2298    2297  # Ow-Hw
   2129    7    2300    2299  # Ow-Hw
   2130    7    2301    2300  # Ow-Hw
   2131    7    2303    2302  # Ow-Hw
   2132    7    2304    2303  # Ow-Hw
   2133    7    2306    2305  # Ow-Hw
   2134    7    2307    2306  # Ow-Hw
   2135    7    2309    2308  # Ow-Hw
   2136    7    2310    2309  # Ow-Hw
   2137    7    2312    2311  # Ow-Hw
   2138    7    2313    2312  # Ow-Hw
   2139    7    2315    2314  # Ow-Hw
   2140    7    2316    2315  # Ow-Hw
   2141    7    2318    2317  # Ow-Hw
   2142    7    2319    2318  # Ow-Hw
   2143    7    2321    2320  # Ow-Hw
   2144    7    2322    2321  # Ow-Hw
   2145    7    2324    2323  # Ow-Hw
   2146    7    2325    2324  # Ow-Hw
   2147    7    2327    2326  # Ow-Hw
   2148    7    2328    2327  # Ow-Hw
   2149    7    2330    2329  # Ow-Hw
   2150    7    2331    2330  # Ow-Hw
   2151    7    2333    2332  # Ow-Hw
   2152    7    2334    2333  # Ow-Hw
   2153    7    2336    2335  # Ow-Hw
   2154    7    2337    2336  # Ow-Hw
   2155    7    2339    2338  # Ow-Hw
   2156    7    2340    2339  # Ow-Hw
   2157    7    2342    2341  # Ow-Hw
   2158    7    2343    2342  # Ow-Hw
   2159    7    2345    2344  # Ow-Hw
   2160    7    2346    2345  # Ow-Hw
   2161    7    2348    2347  # Ow-Hw
   2162    7    2349    2348  # Ow-Hw
   2163    7    2351    2350  # Ow-Hw
   2164    7    2352    2351  # Ow-Hw
   2165    7    2354    2353  # Ow-Hw
   2166    7    2355    2354  # Ow-Hw
   2167    7    2357    2356  # Ow-Hw
   2168    7    2358    2357  # Ow-Hw
   2169    7    2360    2359  # Ow-Hw
   2170    7    2361    2360  # Ow-Hw
   2171    7    2363    2362  # Ow-Hw
   2172    7    2364    2363  # Ow-Hw
   2173    7    2366    2365  # Ow-Hw
   2174    7    2367    2366  # Ow-Hw
   2175    7    2369    2368  # Ow-Hw
   2176    7    2370    2369  # Ow-Hw
   2177    7    2372    2371  # Ow-Hw
   2178    7    2373    2372  # Ow-Hw
   2179    7    2375    2374  # Ow-Hw
   2180    7    2376    2375  # Ow-Hw
   2181    7    2378    2377  # Ow-Hw
   2182    7    2379    2378  # Ow-Hw
   2183    7    2381    2380  # Ow-Hw
   2184    7    2382    2381  # Ow-Hw
   2185    7    2384    2383  # Ow-Hw
   2186    7    2385    2384  # Ow-Hw
   2187    7    2387    2386  # Ow-Hw
   2188    7    2388    2387  # Ow-Hw
   2189    7    2390    2389  # Ow-Hw
   2190    7    2391    2390  # Ow-Hw
   2191    7    2393    2392  # Ow-Hw
   2192    7    2394    2393  # Ow-Hw
   2193    7    2396    2395  # Ow-Hw
   2194    7    2397    2396  # Ow-Hw
   2195    7    2399    2398  # Ow-Hw
   2196    7    2400    2399  # Ow-Hw
   2197    7    2402    2401  # Ow-Hw
   2198    7    2403    2402  # Ow-Hw
   2199    7    2405    2404  # Ow-Hw
   2200    7    2406    2405  # Ow-Hw
   2201    7    2408    2407  # Ow-Hw
   2202    7    2409    2408  # Ow-Hw
   2203    7    2411    2410  # Ow-Hw
   2204    7    2412    2411  # Ow-Hw
   2205    7    2414    2413  # Ow-Hw
   2206    7    2415    2414  # Ow-Hw
   2207    7    2417    2416  # Ow-Hw
   2208    7    2418    2417  # Ow-Hw
   2209    7    2420    2419  # Ow-Hw
   2210    7    2421    2420  # Ow-Hw
   2211    7    2423    2422  # Ow-Hw
   2212    7    2424    2423  # Ow-Hw
   2213    7    2426    2425  # Ow-Hw
   2214    7    2427    2426  # Ow-Hw
   2215    7    2429    2428  # Ow-Hw
   2216    7    2430    2429  # Ow-Hw
   2217    7    2432    2431  # Ow-Hw
   2218    7    2433    2432  # Ow-Hw
   2219    7    2435    2434  # Ow-Hw
   2220    7    2436    2435  # Ow-Hw
   2221    7    2438    2437  # Ow-Hw
   2222    7    2439    2438  # Ow-Hw
   2223    7    2441    2440  # Ow-Hw
   2224    7    2442    2441  # Ow-Hw
   2225    7    2444    2443  # Ow-Hw
   2226    7    2445    2444  # Ow-Hw
   2227    7    2447    2446  # Ow-Hw
   2228    7    2448    2447  # Ow-Hw
   2229    7    2450    2449  # Ow-Hw
   2230    7    2451    2450  # Ow-Hw
   2231    7    2453    2452  # Ow-Hw
   2232    7    2454    2453  # Ow-Hw
   2233    7    2456    2455  # Ow-Hw
   2234    7    2457    2456  # Ow-Hw
   2235    7    2459    2458  # Ow-Hw
   2236    7    2460    2459  # Ow-Hw
   2237    7    2462    2461  # Ow-Hw
   2238    7    2463    2462  # Ow-Hw
   2239    7    2465    2464  # Ow-Hw
   2240    7    2466    2465  # Ow-Hw
   2241    7    2468    2467  # Ow-Hw
   2242    7    2469    2468  # Ow-Hw
   2243    7    2471    2470  # Ow-Hw
   2244    7    2472    2471  # Ow-Hw
   2245    7    2474    2473  # Ow-Hw
   2246    7    2475    2474  # Ow-Hw
   2247    7    2477    2476  # Ow-Hw
   2248    7    2478    2477  # Ow-Hw
   2249    7    2480    2479  # Ow-Hw
   2250    7    2481    2480  # Ow-Hw
   2251    7    2483    2482  # Ow-Hw
   2252    7    2484    2483  # Ow-Hw
   2253    7    2486    2485  # Ow-Hw
   2254    7    2487    2486  # Ow-Hw
   2255    7    2489    2488  # Ow-Hw
   2256    7    2490    2489  # Ow-Hw
   2257    7    2492    2491  # Ow-Hw
   2258    7    2493    2492  # Ow-Hw
   2259    7    2495    2494  # Ow-Hw
   2260    7    2496    2495  # Ow-Hw
   2261    7    2498    2497  # Ow-Hw
   2262    7    2499    2498  # Ow-Hw
   2263    7    2501    2500  # Ow-Hw
   2264    7    2502    2501  # Ow-Hw
   2265    7    2504    2503  # Ow-Hw
   2266    7    2505    2504  # Ow-Hw
   2267    7    2507    2506  # Ow-Hw
   2268    7    2508    2507  # Ow-Hw
   2269    7    2510    2509  # Ow-Hw
   2270    7    2511    2510  # Ow-Hw
   2271    7    2513    2512  # Ow-Hw
   2272    7    2514    2513  # Ow-Hw
   2273    7    2516    2515  # Ow-Hw
   2274    7    2517    2516  # Ow-Hw
   2275    7    2519    2518  # Ow-Hw
   2276    7    2520    2519  # Ow-Hw
   2277    7    2522    2521  # Ow-Hw
   2278    7    2523    2522  # Ow-Hw
   2279    7    2525    2524  # Ow-Hw
   2280    7    2526    2525  # Ow-Hw
   2281    7    2528    2527  # Ow-Hw
   2282    7    2529    2528  # Ow-Hw
   2283    7    2531    2530  # Ow-Hw
   2284    7    2532    2531  # Ow-Hw
   2285    7    2534    2533  # Ow-Hw
   2286    7    2535    2534  # Ow-Hw
   2287    7    2537    2536  # Ow-Hw
   2288    7    2538    2537  # Ow-Hw
   2289    7    2540    2539  # Ow-Hw
   2290    7    2541    2540  # Ow-Hw
   2291    7    2543    2542  # Ow-Hw
   2292    7    2544    2543  # Ow-Hw
   2293    7    2546    2545  # Ow-Hw
   2294    7    2547    2546  # Ow-Hw
   2295    7    2549    2548  # Ow-Hw
   2296    7    2550    2549  # Ow-Hw
   2297    7    2552    2551  # Ow-Hw
   2298    7    2553    2552  # Ow-Hw
   2299    7    2555    2554  # Ow-Hw
   2300    7    2556    2555  # Ow-Hw
   2301    7    2558    2557  # Ow-Hw
   2302    7    2559    2558  # Ow-Hw
   2303    7    2561    2560  # Ow-Hw
   2304    7    2562    2561  # Ow-Hw
   2305    7    2564    2563  # Ow-Hw
   2306    7    2565    2564  # Ow-Hw
   2307    7    2567    2566  # Ow-Hw
   2308    7    2568    2567  # Ow-Hw
   2309    7    2570    2569  # Ow-Hw
   2310    7    2571    2570  # Ow-Hw
   2311    7    2573    2572  # Ow-Hw
   2312    7    2574    2573  # Ow-Hw
   2313    7    2576    2575  # Ow-Hw
   2314    7    2577    2576  # Ow-Hw
   2315    7    2579    2578  # Ow-Hw
   2316    7    2580    2579  # Ow-Hw
   2317    7    2582    2581  # Ow-Hw
   2318    7    2583    2582  # Ow-Hw
   2319    7    2585    2584  # Ow-Hw
   2320    7    2586    2585  # Ow-Hw
   2321    7    2588    2587  # Ow-Hw
   2322    7    2589    2588  # Ow-Hw
   2323    7    2591    2590  # Ow-Hw
   2324    7    2592    2591  # Ow-Hw
   2325    7    2594    2593  # Ow-Hw
   2326    7    2595    2594  # Ow-Hw
   2327    7    2597    2596  # Ow-Hw
   2328    7    2598    2597  # Ow-Hw
   2329    7    2600    2599  # Ow-Hw
   2330    7    2601    2600  # Ow-Hw
   2331    7    2603    2602  # Ow-Hw
   2332    7    2604    2603  # Ow-Hw
   2333    7    2606    2605  # Ow-Hw
   2334    7    2607    2606  # Ow-Hw
   2335    7    2609    2608  # Ow-Hw
   2336    7    2610    2609  # Ow-Hw
   2337    7    2612    2611  # Ow-Hw
   2338    7    2613    2612  # Ow-Hw
   2339    7    2615    2614  # Ow-Hw
   2340    7    2616    2615  # Ow-Hw
   2341    7    2618    2617  # Ow-Hw
   2342    7    2619    2618  # Ow-Hw
   2343    7    2621    2620  # Ow-Hw
   2344    7    2622    2621  # Ow-Hw
   2345    7    2624    2623  # Ow-Hw
   2346    7    2625    2624  # Ow-Hw
   2347    7    2627    2626  # Ow-Hw
   2348    7    2628    2627  # Ow-Hw
   2349    7    2630    2629  # Ow-Hw
   2350    7    2631    2630  # Ow-Hw
   2351    7    2633    2632  # Ow-Hw
   2352    7    2634    2633  # Ow-Hw
   2353    7    2636    2635  # Ow-Hw
   2354    7    2637    2636  # Ow-Hw
   2355    7    2639    2638  # Ow-Hw
   2356    7    2640    2639  # Ow-Hw
   2357    7    2642    2641  # Ow-Hw
   2358    7    2643    2642  # Ow-Hw
   2359    7    2645    2644  # Ow-Hw
   2360    7    2646    2645  # Ow-Hw
   2361    7    2648    2647  # Ow-Hw
   2362    7    2649    2648  # Ow-Hw
   2363    7    2651    2650  # Ow-Hw
   2364    7    2652    2651  # Ow-Hw
   2365    7    2654    2653  # Ow-Hw
   2366    7    2655    2654  # Ow-Hw
   2367    7    2657    2656  # Ow-Hw
   2368    7    2658    2657  # Ow-Hw
   2369    7    2660    2659  # Ow-Hw
   2370    7    2661    2660  # Ow-Hw
   2371    7    2663    2662  # Ow-Hw
   2372    7    2664    2663  # Ow-Hw
   2373    7    2666    2665  # Ow-Hw
   2374    7    2667    2666  # Ow-Hw
   2375    7    2669    2668  # Ow-Hw
   2376    7    2670    2669  # Ow-Hw
   2377    7    2672    2671  # Ow-Hw
   2378    7    2673    2672  # Ow-Hw
   2379    7    2675    2674  # Ow-Hw
   2380    7    2676    2675  # Ow-Hw
   2381    7    2678    2677  # Ow-Hw
   2382    7    2679    2678  # Ow-Hw
   2383    7    2681    2680  # Ow-Hw
   2384    7    2682    2681  # Ow-Hw
   2385    7    2684    2683  # Ow-Hw
   2386    7    2685    2684  # Ow-Hw
   2387    7    2687    2686  # Ow-Hw
   2388    7    2688    2687  # Ow-Hw
   2389    7    2690    2689  # Ow-Hw
   2390    7    2691    2690  # Ow-Hw
   2391    7    2693    2692  # Ow-Hw
   2392    7    2694    2693  # Ow-Hw
   2393    7    2696    2695  # Ow-Hw
   2394    7    2697    2696  # Ow-Hw
   2395    7    2699    2698  # Ow-Hw
   2396    7    2700    2699  # Ow-Hw
   2397    7    2702    2701  # Ow-Hw
   2398    7    2703    2702  # Ow-Hw
   2399    7    2705    2704  # Ow-Hw
   2400    7    2706    2705  # Ow-Hw
   2401    7    2708    2707  # Ow-Hw
   2402    7    2709    2708  # Ow-Hw
   2403    7    2711    2710  # Ow-Hw
   2404    7    2712    2711  # Ow-Hw
   2405    7    2714    2713  # Ow-Hw
   2406    7    2715    2714  # Ow-Hw
   2407    7    2717    2716  # Ow-Hw
   2408    7    2718    2717  # Ow-Hw
   2409    7    2720    2719  # Ow-Hw
   2410    7    2721    2720  # Ow-Hw
   2411    7    2723    2722  # Ow-Hw
   2412    7    2724    2723  # Ow-Hw
   2413    7    2726    2725  # Ow-Hw
   2414    7    2727    2726  # Ow-Hw
   2415    7    2729    2728  # Ow-Hw
   2416    7    2730    2729  # Ow-Hw
   2417    7    2732    2731  # Ow-Hw
   2418    7    2733    2732  # Ow-Hw
   2419    7    2735    2734  # Ow-Hw
   2420    7    2736    2735  # Ow-Hw
   2421    7    2738    2737  # Ow-Hw
   2422    7    2739    2738  # Ow-Hw
   2423    7    2741    2740  # Ow-Hw
   2424    7    2742    2741  # Ow-Hw
   2425    7    2744    2743  # Ow-Hw
   2426    7    2745    2744  # Ow-Hw
   2427    7    2747    2746  # Ow-Hw
   2428    7    2748    2747  # Ow-Hw
   2429    7    2750    2749  # Ow-Hw
   2430    7    2751    2750  # Ow-Hw
   2431    7    2753    2752  # Ow-Hw
   2432    7    2754    2753  # Ow-Hw
   2433    7    2756    2755  # Ow-Hw
   2434    7    2757    2756  # Ow-Hw
   2435    7    2759    2758  # Ow-Hw
   2436    7    2760    2759  # Ow-Hw
   2437    7    2762    2761  # Ow-Hw
   2438    7    2763    2762  # Ow-Hw
   2439    7    2765    2764  # Ow-Hw
   2440    7    2766    2765  # Ow-Hw
   2441    7    2768    2767  # Ow-Hw
   2442    7    2769    2768  # Ow-Hw
   2443    7    2771    2770  # Ow-Hw
   2444    7    2772    2771  # Ow-Hw
   2445    7    2774    2773  # Ow-Hw
   2446    7    2775    2774  # Ow-Hw
   2447    7    2777    2776  # Ow-Hw
   2448    7    2778    2777  # Ow-Hw
   2449    7    2780    2779  # Ow-Hw
   2450    7    2781    2780  # Ow-Hw
   2451    7    2783    2782  # Ow-Hw
   2452    7    2784    2783  # Ow-Hw
   2453    7    2786    2785  # Ow-Hw
   2454    7    2787    2786  # Ow-Hw
   2455    7    2789    2788  # Ow-Hw
   2456    7    2790    2789  # Ow-Hw
   2457    7    2792    2791  # Ow-Hw
   2458    7    2793    2792  # Ow-Hw
   2459    7    2795    2794  # Ow-Hw
   2460    7    2796    2795  # Ow-Hw
   2461    7    2798    2797  # Ow-Hw
   2462    7    2799    2798  # Ow-Hw
   2463    7    2801    2800  # Ow-Hw
   2464    7    2802    2801  # Ow-Hw
   2465    7    2804    2803  # Ow-Hw
   2466    7    2805    2804  # Ow-Hw
   2467    7    2807    2806  # Ow-Hw
   2468    7    2808    2807  # Ow-Hw
   2469    7    2810    2809  # Ow-Hw
   2470    7    2811    2810  # Ow-Hw
   2471    7    2813    2812  # Ow-Hw
   2472    7    2814    2813  # Ow-Hw
   2473    7    2816    2815  # Ow-Hw
   2474    7    2817    2816  # Ow-Hw
   2475    7    2819    2818  # Ow-Hw
   2476    7    2820    2819  # Ow-Hw
   2477    7    2822    2821  # Ow-Hw
   2478    7    2823    2822  # Ow-Hw
   2479    7    2825    2824  # Ow-Hw
   2480    7    2826    2825  # Ow-Hw
   2481    7    2828    2827  # Ow-Hw
   2482    7    2829    2828  # Ow-Hw
   2483    7    2831    2830  # Ow-Hw
   2484    7    2832    2831  # Ow-Hw
   2485    7    2834    2833  # Ow-Hw
   2486    7    2835    2834  # Ow-Hw
   2487    7    2837    2836  # Ow-Hw
   2488    7    2838    2837  # Ow-Hw
   2489    7    2840    2839  # Ow-Hw
   2490    7    2841    2840  # Ow-Hw
   2491    7    2843    2842  # Ow-Hw
   2492    7    2844    2843  # Ow-Hw
   2493    7    2846    2845  # Ow-Hw
   2494    7    2847    2846  # Ow-Hw
   2495    7    2849    2848  # Ow-Hw
   2496    7    2850    2849  # Ow-Hw
   2497    7    2852    2851  # Ow-Hw
   2498    7    2853    2852  # Ow-Hw
   2499    7    2855    2854  # Ow-Hw
   2500    7    2856    2855  # Ow-Hw
   2501    7    2858    2857  # Ow-Hw
   2502    7    2859    2858  # Ow-Hw
   2503    7    2861    2860  # Ow-Hw
   2504    7    2862    2861  # Ow-Hw
   2505    7    2864    2863  # Ow-Hw
   2506    7    2865    2864  # Ow-Hw
   2507    7    2867    2866  # Ow-Hw
   2508    7    2868    2867  # Ow-Hw
   2509    7    2870    2869  # Ow-Hw
   2510    7    2871    2870  # Ow-Hw
   2511    7    2873    2872  # Ow-Hw
   2512    7    2874    2873  # Ow-Hw
   2513    7    2876    2875  # Ow-Hw
   2514    7    2877    2876  # Ow-Hw
   2515    7    2879    2878  # Ow-Hw
   2516    7    2880    2879  # Ow-Hw
   2517    7    2882    2881  # Ow-Hw
   2518    7    2883    2882  # Ow-Hw
   2519    7    2885    2884  # Ow-Hw
   2520    7    2886    2885  # Ow-Hw
   2521    7    2888    2887  # Ow-Hw
   2522    7    2889    2888  # Ow-Hw
   2523    7    2891    2890  # Ow-Hw
   2524    7    2892    2891  # Ow-Hw
   2525    7    2894    2893  # Ow-Hw
   2526    7    2895    2894  # Ow-Hw
   2527    7    2897    2896  # Ow-Hw
   2528    7    2898    2897  # Ow-Hw
   2529    7    2900    2899  # Ow-Hw
   2530    7    2901    2900  # Ow-Hw
   2531    7    2903    2902  # Ow-Hw
   2532    7    2904    2903  # Ow-Hw
   2533    7    2906    2905  # Ow-Hw
   2534    7    2907    2906  # Ow-Hw
   2535    7    2909    2908  # Ow-Hw
   2536    7    2910    2909  # Ow-Hw
   2537    7    2912    2911  # Ow-Hw
   2538    7    2913    2912  # Ow-Hw
   2539    7    2915    2914  # Ow-Hw
   2540    7    2916    2915  # Ow-Hw
   2541    7    2918    2917  # Ow-Hw
   2542    7    2919    2918  # Ow-Hw
   2543    7    2921    2920  # Ow-Hw
   2544    7    2922    2921  # Ow-Hw
   2545    7    2924    2923  # Ow-Hw
   2546    7    2925    2924  # Ow-Hw
   2547    7    2927    2926  # Ow-Hw
   2548    7    2928    2927  # Ow-Hw
   2549    7    2930    2929  # Ow-Hw
   2550    7    2931    2930  # Ow-Hw
   2551    7    2933    2932  # Ow-Hw
   2552    7    2934    2933  # Ow-Hw
   2553    7    2936    2935  # Ow-Hw
   2554    7    2937    2936  # Ow-Hw
   2555    7    2939    2938  # Ow-Hw
   2556    7    2940    2939  # Ow-Hw
   2557    7    2942    2941  # Ow-Hw
   2558    7    2943    2942  # Ow-Hw
   2559    7    2945    2944  # Ow-Hw
   2560    7    2946    2945  # Ow-Hw
   2561    7    2948    2947  # Ow-Hw
   2562    7    2949    2948  # Ow-Hw
   2563    7    2951    2950  # Ow-Hw
   2564    7    2952    2951  # Ow-Hw
   2565    7    2954    2953  # Ow-Hw
   2566    7    2955    2954  # Ow-Hw
   2567    7    2957    2956  # Ow-Hw
   2568    7    2958    2957  # Ow-Hw
   2569    7    2960    2959  # Ow-Hw
   2570    7    2961    2960  # Ow-Hw
   2571    7    2963    2962  # Ow-Hw
   2572    7    2964    2963  # Ow-Hw
   2573    7    2966    2965  # Ow-Hw
   2574    7    2967    2966  # Ow-Hw
   2575    7    2969    2968  # Ow-Hw
   2576    7    2970    2969  # Ow-Hw
   2577    7    2972    2971  # Ow-Hw
   2578    7    2973    2972  # Ow-Hw
   2579    7    2975    2974  # Ow-Hw
   2580    7    2976    2975  # Ow-Hw
   2581    7    2978    2977  # Ow-Hw
   2582    7    2979    2978  # Ow-Hw
   2583    7    2981    2980  # Ow-Hw
   2584    7    2982    2981  # Ow-Hw
   2585    7    2984    2983  # Ow-Hw
   2586    7    2985    2984  # Ow-Hw
   2587    7    2987    2986  # Ow-Hw
   2588    7    2988    2987  # Ow-Hw
   2589    7    2990    2989  # Ow-Hw
   2590    7    2991    2990  # Ow-Hw
   2591    7    2993    2992  # Ow-Hw
   2592    7    2994    2993  # Ow-Hw
   2593    7    2996    2995  # Ow-Hw
   2594    7    2997    2996  # Ow-Hw
   2595    7    2999    2998  # Ow-Hw
   2596    7    3000    2999  # Ow-Hw
   2597    7    3002    3001  # Ow-Hw
   2598    7    3003    3002  # Ow-Hw
   2599    7    3005    3004  # Ow-Hw
   2600    7    3006    3005  # Ow-Hw
   2601    7    3008    3007  # Ow-Hw
   2602    7    3009    3008  # Ow-Hw
   2603    7    3011    3010  # Ow-Hw
   2604    7    3012    3011  # Ow-Hw
   2605    7    3014    3013  # Ow-Hw
   2606    7    3015    3014  # Ow-Hw
   2607    7    3017    3016  # Ow-Hw
   2608    7    3018    3017  # Ow-Hw
   2609    7    3020    3019  # Ow-Hw
   2610    7    3021    3020  # Ow-Hw
   2611    7    3023    3022  # Ow-Hw
   2612    7    3024    3023  # Ow-Hw
   2613    7    3026    3025  # Ow-Hw
   2614    7    3027    3026  # Ow-Hw
   2615    7    3029    3028  # Ow-Hw
   2616    7    3030    3029  # Ow-Hw
   2617    7    3032    3031  # Ow-Hw
   2618    7    3033    3032  # Ow-Hw
   2619    7    3035    3034  # Ow-Hw
   2620    7    3036    3035  # Ow-Hw
   2621    7    3038    3037  # Ow-Hw
   2622    7    3039    3038  # Ow-Hw
   2623    7    3041    3040  # Ow-Hw
   2624    7    3042    3041  # Ow-Hw
   2625    7    3044    3043  # Ow-Hw
   2626    7    3045    3044  # Ow-Hw
   2627    7    3047    3046  # Ow-Hw
   2628    7    3048    3047  # Ow-Hw
   2629    7    3050    3049  # Ow-Hw
   2630    7    3051    3050  # Ow-Hw
   2631    7    3053    3052  # Ow-Hw
   2632    7    3054    3053  # Ow-Hw
   2633    7    3056    3055  # Ow-Hw
   2634    7    3057    3056  # Ow-Hw
   2635    7    3059    3058  # Ow-Hw
   2636    7    3060    3059  # Ow-Hw
   2637    7    3062    3061  # Ow-Hw
   2638    7    3063    3062  # Ow-Hw
   2639    7    3065    3064  # Ow-Hw
   2640    7    3066    3065  # Ow-Hw
   2641    7    3068    3067  # Ow-Hw
   2642    7    3069    3068  # Ow-Hw
   2643    7    3071    3070  # Ow-Hw
   2644    7    3072    3071  # Ow-Hw
   2645    7    3074    3073  # Ow-Hw
   2646    7    3075    3074  # Ow-Hw
   2647    7    3077    3076  # Ow-Hw
   2648    7    3078    3077  # Ow-Hw
   2649    7    3080    3079  # Ow-Hw
   2650    7    3081    3080  # Ow-Hw
   2651    7    3083    3082  # Ow-Hw
   2652    7    3084    3083  # Ow-Hw
   2653    7    3086    3085  # Ow-Hw
   2654    7    3087    3086  # Ow-Hw
   2655    7    3089    3088  # Ow-Hw
   2656    7    3090    3089  # Ow-Hw
   2657    7    3092    3091  # Ow-Hw
   2658    7    3093    3092  # Ow-Hw
   2659    7    3095    3094  # Ow-Hw
   2660    7    3096    3095  # Ow-Hw
   2661    7    3098    3097  # Ow-Hw
   2662    7    3099    3098  # Ow-Hw
   2663    7    3101    3100  # Ow-Hw
   2664    7    3102    3101  # Ow-Hw
   2665    7    3104    3103  # Ow-Hw
   2666    7    3105    3104  # Ow-Hw
   2667    7    3107    3106  # Ow-Hw
   2668    7    3108    3107  # Ow-Hw
   2669    7    3110    3109  # Ow-Hw
   2670    7    3111    3110  # Ow-Hw
   2671    7    3113    3112  # Ow-Hw
   2672    7    3114    3113  # Ow-Hw
   2673    7    3116    3115  # Ow-Hw
   2674    7    3117    3116  # Ow-Hw
   2675    7    3119    3118  # Ow-Hw
   2676    7    3120    3119  # Ow-Hw
   2677    7    3122    3121  # Ow-Hw
   2678    7    3123    3122  # Ow-Hw
   2679    7    3125    3124  # Ow-Hw
   2680    7    3126    3125  # Ow-Hw
   2681    7    3128    3127  # Ow-Hw
   2682    7    3129    3128  # Ow-Hw

Angles

      1    1       2       1       3  # CT-NT-CT
      2    1       2       1       4  # CT-NT-CT
      3    2       2       1       5  # HN-NT-CT
      4    1       3       1       4  # CT-NT-CT
      5    2       3       1       5  # HN-NT-CT
      6    2       4       1       5  # HN-NT-CT
      7    3       1       2       6  # NT-CT-CT
      8    4       1       2       7  # HC-CT-NT
      9    4       1       2       8  # HC-CT-NT
     10    5       6       2       7  # CT-CT-HC
     11    5       6       2       8  # CT-CT-HC
     12    6       7       2       8  # HC-CT-HC
     13    3       1       3       9  # NT-CT-CT
     14    4       1       3      10  # HC-CT-NT
     15    4       1       3      11  # HC-CT-NT
     16    5       9       3      10  # CT-CT-HC
     17    5       9       3      11  # CT-CT-HC
     18    6      10       3      11  # HC-CT-HC
     19    3       1       4      12  # NT-CT-CT
     20    4       1       4      13  # HC-CT-NT
     21    4       1       4      14  # HC-CT-NT
     22    5      12       4      13  # CT-CT-HC
     23    5      12       4      14  # CT-CT-HC
     24    6      13       4      14  # HC-CT-HC
     25    5       2       6      15  # CT-CT-HC
     26    5       2       6      16  # CT-CT-HC
     27    5       2       6      17  # CT-CT-HC
     28    6      15       6      16  # HC-CT-HC
     29    6      15       6      17  # HC-CT-HC
     30    6      16       6      17  # HC-CT-HC
     31    5       3       9      18  # CT-CT-HC
     32    5       3       9      19  # CT-CT-HC
     33    5       3       9      20  # CT-CT-HC
     34    6      18       9      19  # HC-CT-HC
     35    6      18       9      20  # HC-CT-HC
     36    6      19       9      20  # HC-CT-HC
     37    5       4      12      21  # CT-CT-HC
     38    5       4      12      22  # CT-CT-HC
     39    5       4      12      23  # CT-CT-HC
     40    6      21      12      22  # HC-CT-HC
     41    6      21      12      23  # HC-CT-HC
     42    6      22      12      23  # HC-CT-HC
     43    1      25      24      26  # CT-NT-CT
     44    1      25      24      27  # CT-NT-CT
     45    2      25      24      28  # HN-NT-CT
     46    1      26      24      27  # CT-NT-CT
     47    2      26      24      28  # HN-NT-CT
     48    2      27      24      28  # HN-NT-CT
     49    3      24      25      29  # NT-CT-CT
     50    4      24      25      30  # HC-CT-NT
     51    4      24      25      31  # HC-CT-NT
     52    5      29      25      30  # CT-CT-HC
     53    5      29      25      31  # CT-CT-HC
     54    6      30      25      31  # HC-CT-HC
     55    3      24      26      32  # NT-CT-CT
     56    4      24      26      33  # HC-CT-NT
     57    4      24      26      34  # HC-CT-NT
     58    5      32      26      33  # CT-CT-HC
     59    5      32      26      34  # CT-CT-HC
     60    6      33      26      34  # HC-CT-HC
     61    3      24      27      35  # NT-CT-CT
     62    4      24      27      36  # HC-CT-NT
     63    4      24      27      37  # HC-CT-NT
     64    5      35      27      36  # CT-CT-HC
     65    5      35      27      37  # CT-CT-HC
     66    6      36      27      37  # HC-CT-HC
     67    5      25      29      38  # CT-CT-HC
     68    5      25      29      39  # CT-CT-HC
     69    5      25      29      40  # CT-CT-HC
     70    6      38      29      39  # HC-CT-HC
     71    6      38      29      40  # HC-CT-HC
     72    6      39      29      40  # HC-CT-HC
     73    5      26      32      41  # CT-CT-HC
     74    5      26      32      42  # CT-CT-HC
     75    5      26      32      43  # CT-CT-HC
     76    6      41      32      42  # HC-CT-HC
     77    6      41      32      43  # HC-CT-HC
     78    6      42      32      43  # HC-CT-HC
     79    5      27      35      44  # CT-CT-HC
     80    5      27      35      45  # CT-CT-HC
     81    5      27      35      46  # CT-CT-HC
     82    6      44      35      45  # HC-CT-HC
     83    6      44      35      46  # HC-CT-HC
     84    6      45      35      46  # HC-CT-HC
     85    1      48      47      49  # CT-NT-CT
     86    1      48      47      50  # CT-NT-CT
     87    2      48      47      51  # HN-NT-CT
     88    1      49      47      50  # CT-NT-CT
     89    2      49      47      51  # HN-NT-CT
     90    2      50      47      51  # HN-NT-CT
     91    3      47      48      52  # NT-CT-CT
     92    4      47      48      53  # HC-CT-NT
     93    4      47      48      54  # HC-CT-NT
     94    5      52      48      53  # CT-CT-HC
     95    5      52      48      54  # CT-CT-HC
     96    6      53      48      54  # HC-CT-HC
     97    3      47      49      55  # NT-CT-CT
     98    4      47      49      56  # HC-CT-NT
     99    4      47      49      57  # HC-CT-NT
    100    5      55      49      56  # CT-CT-HC
    101    5      55      49      57  # CT-CT-HC
    102    6      56      49      57  # HC-CT-HC
    103    3      47      50      58  # NT-CT-CT
    104    4      47      50      59  # HC-CT-NT
    105    4      47      50      60  # HC-CT-NT
    106    5      58      50      59  # CT-CT-HC
    107    5      58      50      60  # CT-CT-HC
    108    6      59      50      60  # HC-CT-HC
    109    5      48      52      61  # CT-CT-HC
    110    5      48      52      62  # CT-CT-HC
    111    5      48      52      63  # CT-CT-HC
    112    6      61      52      62  # HC-CT-HC
    113    6      61      52      63  # HC-CT-HC
    114    6      62      52      63  # HC-CT-HC
    115    5      49      55      64  # CT-CT-HC
    116    5      49      55      65  # CT-CT-HC
    117    5      49      55      66  # CT-CT-HC
    118    6      64      55      65  # HC-CT-HC
    119    6      64      55      66  # HC-CT-HC
    120    6      65      55      66  # HC-CT-HC
    121    5      50      58      67  # CT-CT-HC
    122    5      50      58      68  # CT-CT-HC
    123    5      50      58      69  # CT-CT-HC
    124    6      67      58      68  # HC-CT-HC
    125    6      67      58      69  # HC-CT-HC
    126    6      68      58      69  # HC-CT-HC
    127    1      71      70      72  # CT-NT-CT
    128    1      71      70      73  # CT-NT-CT
    129    2      71      70      74  # HN-NT-CT
    130    1      72      70      73  # CT-NT-CT
    131    2      72      70      74  # HN-NT-CT
    132    2      73      70      74  # HN-NT-CT
    133    3      70      71      75  # NT-CT-CT
    134    4      70      71      76  # HC-CT-NT
    135    4      70      71      77  # HC-CT-NT
    136    5      75      71      76  # CT-CT-HC
    137    5      75      71      77  # CT-CT-HC
    138    6      76      71      77  # HC-CT-HC
    139    3      70      72      78  # NT-CT-CT
    140    4      70      72      79  # HC-CT-NT
    141    4      70      72      80  # HC-CT-NT
    142    5      78      72      79  # CT-CT-HC
    143    5      78      72      80  # CT-CT-HC
    144    6      79      72      80  # HC-CT-HC
    145    3      70      73      81  # NT-CT-CT
    146    4      70      73      82  # HC-CT-NT
    147    4      70      73      83  # HC-CT-NT
    148    5      81      73      82  # CT-CT-HC
    149    5      81      73      83  # CT-CT-HC
    150    6      82      73      83  # HC-CT-HC
    151    5      71      75      84  # CT-CT-HC
    152    5      71      75      85  # CT-CT-HC
    153    5      71      75      86  # CT-CT-HC
    154    6      84      75      85  # HC-CT-HC
    155    6      84      75      86  # HC-CT-HC
    156    6      85      75      86  # HC-CT-HC
    157    5      72      78      87  # CT-CT-HC
    158    5      72      78      88  # CT-CT-HC
    159    5      72      78      89  # CT-CT-HC
    160    6      87      78      88  # HC-CT-HC
    161    6      87      78      89  # HC-CT-HC
    162    6      88      78      89  # HC-CT-HC
    163    5      73      81      90  # CT-CT-HC
    164    5      73      81      91  # CT-CT-HC
    165    5      73      81      92  # CT-CT-HC
    166    6      90      81      91  # HC-CT-HC
    167    6      90      81      92  # HC-CT-HC
    168    6      91      81      92  # HC-CT-HC
    169    1      94      93      95  # CT-NT-CT
    170    1      94      93      96  # CT-NT-CT
    171    2      94      93      97  # HN-NT-CT
    172    1      95      93      96  # CT-NT-CT
    173    2      95      93      97  # HN-NT-CT
    174    2      96      93      97  # HN-NT-CT
    175    3      93      94      98  # NT-CT-CT
    176    4      93      94      99  # HC-CT-NT
    177    4      93      94     100  # HC-CT-NT
    178    5      98      94      99  # CT-CT-HC
    179    5      98      94     100  # CT-CT-HC
    180    6      99      94     100  # HC-CT-HC
    181    3      93      95     101  # NT-CT-CT
    182    4      93      95     102  # HC-CT-NT
    183    4      93      95     103  # HC-CT-NT
    184    5     101      95     102  # CT-CT-HC
    185    5     101      95     103  # CT-CT-HC
    186    6     102      95     103  # HC-CT-HC
    187    3      93      96     104  # NT-CT-CT
    188    4      93      96     105  # HC-CT-NT
    189    4      93      96     106  # HC-CT-NT
    190    5     104      96     105  # CT-CT-HC
    191    5     104      96     106  # CT-CT-HC
    192    6     105      96     106  # HC-CT-HC
    193    5      94      98     107  # CT-CT-HC
    194    5      94      98     108  # CT-CT-HC
    195    5      94      98     109  # CT-CT-HC
    196    6     107      98     108  # HC-CT-HC
    197    6     107      98     109  # HC-CT-HC
    198    6     108      98     109  # HC-CT-HC
    199    5      95     101     110  # CT-CT-HC
    200    5      95     101     111  # CT-CT-HC
    201    5      95     101     112  # CT-CT-HC
    202    6     110     101     111  # HC-CT-HC
    203    6     110     101     112  # HC-CT-HC
    204    6     111     101     112  # HC-CT-HC
    205    5      96     104     113  # CT-CT-HC
    206    5      96     104     114  # CT-CT-HC
    207    5      96     104     115  # CT-CT-HC
    208    6     113     104     114  # HC-CT-HC
    209    6     113     104     115  # HC-CT-HC
    210    6     114     104     115  # HC-CT-HC
    211    1     117     116     118  # CT-NT-CT
    212    1     117     116     119  # CT-NT-CT
    213    2     117     116     120  # HN-NT-CT
    214    1     118     116     119  # CT-NT-CT
    215    2     118     116     120  # HN-NT-CT
    216    2     119     116     120  # HN-NT-CT
    217    3     116     117     121  # NT-CT-CT
    218    4     116     117     122  # HC-CT-NT
    219    4     116     117     123  # HC-CT-NT
    220    5     121     117     122  # CT-CT-HC
    221    5     121     117     123  # CT-CT-HC
    222    6     122     117     123  # HC-CT-HC
    223    3     116     118     124  # NT-CT-CT
    224    4     116     118     125  # HC-CT-NT
    225    4     116     118     126  # HC-CT-NT
    226    5     124     118     125  # CT-CT-HC
    227    5     124     118     126  # CT-CT-HC
    228    6     125     118     126  # HC-CT-HC
    229    3     116     119     127  # NT-CT-CT
    230    4     116     119     128  # HC-CT-NT
    231    4     116     119     129  # HC-CT-NT
    232    5     127     119     128  # CT-CT-HC
    233    5     127     119     129  # CT-CT-HC
    234    6     128     119     129  # HC-CT-HC
    235    5     117     121     130  # CT-CT-HC
    236    5     117     121     131  # CT-CT-HC
    237    5     117     121     132  # CT-CT-HC
    238    6     130     121     131  # HC-CT-HC
    239    6     130     121     132  # HC-CT-HC
    240    6     131     121     132  # HC-CT-HC
    241    5     118     124     133  # CT-CT-HC
    242    5     118     124     134  # CT-CT-HC
    243    5     118     124     135  # CT-CT-HC
    244    6     133     124     134  # HC-CT-HC
    245    6     133     124     135  # HC-CT-HC
    246    6     134     124     135  # HC-CT-HC
    247    5     119     127     136  # CT-CT-HC
    248    5     119     127     137  # CT-CT-HC
    249    5     119     127     138  # CT-CT-HC
    250    6     136     127     137  # HC-CT-HC
    251    6     136     127     138  # HC-CT-HC
    252    6     137     127     138  # HC-CT-HC
    253    1     140     139     141  # CT-NT-CT
    254    1     140     139     142  # CT-NT-CT
    255    2     140     139     143  # HN-NT-CT
    256    1     141     139     142  # CT-NT-CT
    257    2     141     139     143  # HN-NT-CT
    258    2     142     139     143  # HN-NT-CT
    259    3     139     140     144  # NT-CT-CT
    260    4     139     140     145  # HC-CT-NT
    261    4     139     140     146  # HC-CT-NT
    262    5     144     140     145  # CT-CT-HC
    263    5     144     140     146  # CT-CT-HC
    264    6     145     140     146  # HC-CT-HC
    265    3     139     141     147  # NT-CT-CT
    266    4     139     141     148  # HC-CT-NT
    267    4     139     141     149  # HC-CT-NT
    268    5     147     141     148  # CT-CT-HC
    269    5     147     141     149  # CT-CT-HC
    270    6     148     141     149  # HC-CT-HC
    271    3     139     142     150  # NT-CT-CT
    272    4     139     142     151  # HC-CT-NT
    273    4     139     142     152  # HC-CT-NT
    274    5     150     142     151  # CT-CT-HC
    275    5     150     142     152  # CT-CT-HC
    276    6     151     142     152  # HC-CT-HC
    277    5     140     144     153  # CT-CT-HC
    278    5     140     144     154  # CT-CT-HC
    279    5     140     144     155  # CT-CT-HC
    280    6     153     144     154  # HC-CT-HC
    281    6     153     144     155  # HC-CT-HC
    282    6     154     144     155  # HC-CT-HC
    283    5     141     147     156  # CT-CT-HC
    284    5     141     147     157  # CT-CT-HC
    285    5     141     147     158  # CT-CT-HC
    286    6     156     147     157  # HC-CT-HC
    287    6     156     147     158  # HC-CT-HC
    288    6     157     147     158  # HC-CT-HC
    289    5     142     150     159  # CT-CT-HC
    290    5     142     150     160  # CT-CT-HC
    291    5     142     150     161  # CT-CT-HC
    292    6     159     150     160  # HC-CT-HC
    293    6     159     150     161  # HC-CT-HC
    294    6     160     150     161  # HC-CT-HC
    295    1     163     162     164  # CT-NT-CT
    296    1     163     162     165  # CT-NT-CT
    297    2     163     162     166  # HN-NT-CT
    298    1     164     162     165  # CT-NT-CT
    299    2     164     162     166  # HN-NT-CT
    300    2     165     162     166  # HN-NT-CT
    301    3     162     163     167  # NT-CT-CT
    302    4     162     163     168  # HC-CT-NT
    303    4     162     163     169  # HC-CT-NT
    304    5     167     163     168  # CT-CT-HC
    305    5     167     163     169  # CT-CT-HC
    306    6     168     163     169  # HC-CT-HC
    307    3     162     164     170  # NT-CT-CT
    308    4     162     164     171  # HC-CT-NT
    309    4     162     164     172  # HC-CT-NT
    310    5     170     164     171  # CT-CT-HC
    311    5     170     164     172  # CT-CT-HC
    312    6     171     164     172  # HC-CT-HC
    313    3     162     165     173  # NT-CT-CT
    314    4     162     165     174  # HC-CT-NT
    315    4     162     165     175  # HC-CT-NT
    316    5     173     165     174  # CT-CT-HC
    317    5     173     165     175  # CT-CT-HC
    318    6     174     165     175  # HC-CT-HC
    319    5     163     167     176  # CT-CT-HC
    320    5     163     167     177  # CT-CT-HC
    321    5     163     167     178  # CT-CT-HC
    322    6     176     167     177  # HC-CT-HC
    323    6     176     167     178  # HC-CT-HC
    324    6     177     167     178  # HC-CT-HC
    325    5     164     170     179  # CT-CT-HC
    326    5     164     170     180  # CT-CT-HC
    327    5     164     170     181  # CT-CT-HC
    328    6     179     170     180  # HC-CT-HC
    329    6     179     170     181  # HC-CT-HC
    330    6     180     170     181  # HC-CT-HC
    331    5     165     173     182  # CT-CT-HC
    332    5     165     173     183  # CT-CT-HC
    333    5     165     173     184  # CT-CT-HC
    334    6     182     173     183  # HC-CT-HC
    335    6     182     173     184  # HC-CT-HC
    336    6     183     173     184  # HC-CT-HC
    337    1     186     185     187  # CT-NT-CT
    338    1     186     185     188  # CT-NT-CT
    339    2     186     185     189  # HN-NT-CT
    340    1     187     185     188  # CT-NT-CT
    341    2     187     185     189  # HN-NT-CT
    342    2     188     185     189  # HN-NT-CT
    343    3     185     186     190  # NT-CT-CT
    344    4     185     186     191  # HC-CT-NT
    345    4     185     186     192  # HC-CT-NT
    346    5     190     186     191  # CT-CT-HC
    347    5     190     186     192  # CT-CT-HC
    348    6     191     186     192  # HC-CT-HC
    349    3     185     187     193  # NT-CT-CT
    350    4     185     187     194  # HC-CT-NT
    351    4     185     187     195  # HC-CT-NT
    352    5     193     187     194  # CT-CT-HC
    353    5     193     187     195  # CT-CT-HC
    354    6     194     187     195  # HC-CT-HC
    355    3     185     188     196  # NT-CT-CT
    356    4     185     188     197  # HC-CT-NT
    357    4     185     188     198  # HC-CT-NT
    358    5     196     188     197  # CT-CT-HC
    359    5     196     188     198  # CT-CT-HC
    360    6     197     188     198  # HC-CT-HC
    361    5     186     190     199  # CT-CT-HC
    362    5     186     190     200  # CT-CT-HC
    363    5     186     190     201  # CT-CT-HC
    364    6     199     190     200  # HC-CT-HC
    365    6     199     190     201  # HC-CT-HC
    366    6     200     190     201  # HC-CT-HC
    367    5     187     193     202  # CT-CT-HC
    368    5     187     193     203  # CT-CT-HC
    369    5     187     193     204  # CT-CT-HC
    370    6     202     193     203  # HC-CT-HC
    371    6     202     193     204  # HC-CT-HC
    372    6     203     193     204  # HC-CT-HC
    373    5     188     196     205  # CT-CT-HC
    374    5     188     196     206  # CT-CT-HC
    375    5     188     196     207  # CT-CT-HC
    376    6     205     196     206  # HC-CT-HC
    377    6     205     196     207  # HC-CT-HC
    378    6     206     196     207  # HC-CT-HC
    379    1     209     208     210  # CT-NT-CT
    380    1     209     208     211  # CT-NT-CT
    381    2     209     208     212  # HN-NT-CT
    382    1     210     208     211  # CT-NT-CT
    383    2     210     208     212  # HN-NT-CT
    384    2     211     208     212  # HN-NT-CT
    385    3     208     209     213  # NT-CT-CT
    386    4     208     209     214  # HC-CT-NT
    387    4     208     209     215  # HC-CT-NT
    388    5     213     209     214  # CT-CT-HC
    389    5     213     209     215  # CT-CT-HC
    390    6     214     209     215  # HC-CT-HC
    391    3     208     210     216  # NT-CT-CT
    392    4     208     210     217  # HC-CT-NT
    393    4     208     210     218  # HC-CT-NT
    394    5     216     210     217  # CT-CT-HC
    395    5     216     210     218  # CT-CT-HC
    396    6     217     210     218  # HC-CT-HC
    397    3     208     211     219  # NT-CT-CT
    398    4     208     211     220  # HC-CT-NT
    399    4     208     211     221  # HC-CT-NT
    400    5     219     211     220  # CT-CT-HC
    401    5     219     211     221  # CT-CT-HC
    402    6     220     211     221  # HC-CT-HC
    403    5     209     213     222  # CT-CT-HC
    404    5     209     213     223  # CT-CT-HC
    405    5     209     213     224  # CT-CT-HC
    406    6     222     213     223  # HC-CT-HC
    407    6     222     213     224  # HC-CT-HC
    408    6     223     213     224  # HC-CT-HC
    409    5     210     216     225  # CT-CT-HC
    410    5     210     216     226  # CT-CT-HC
    411    5     210     216     227  # CT-CT-HC
    412    6     225     216     226  # HC-CT-HC
    413    6     225     216     227  # HC-CT-HC
    414    6     226     216     227  # HC-CT-HC
    415    5     211     219     228  # CT-CT-HC
    416    5     211     219     229  # CT-CT-HC
    417    5     211     219     230  # CT-CT-HC
    418    6     228     219     229  # HC-CT-HC
    419    6     228     219     230  # HC-CT-HC
    420    6     229     219     230  # HC-CT-HC
    421    1     232     231     233  # CT-NT-CT
    422    1     232     231     234  # CT-NT-CT
    423    2     232     231     235  # HN-NT-CT
    424    1     233     231     234  # CT-NT-CT
    425    2     233     231     235  # HN-NT-CT
    426    2     234     231     235  # HN-NT-CT
    427    3     231     232     236  # NT-CT-CT
    428    4     231     232     237  # HC-CT-NT
    429    4     231     232     238  # HC-CT-NT
    430    5     236     232     237  # CT-CT-HC
    431    5     236     232     238  # CT-CT-HC
    432    6     237     232     238  # HC-CT-HC
    433    3     231     233     239  # NT-CT-CT
    434    4     231     233     240  # HC-CT-NT
    435    4     231     233     241  # HC-CT-NT
    436    5     239     233     240  # CT-CT-HC
    437    5     239     233     241  # CT-CT-HC
    438    6     240     233     241  # HC-CT-HC
    439    3     231     234     242  # NT-CT-CT
    440    4     231     234     243  # HC-CT-NT
    441    4     231     234     244  # HC-CT-NT
    442    5     242     234     243  # CT-CT-HC
    443    5     242     234     244  # CT-CT-HC
    444    6     243     234     244  # HC-CT-HC
    445    5     232     236     245  # CT-CT-HC
    446    5     232     236     246  # CT-CT-HC
    447    5     232     236     247  # CT-CT-HC
    448    6     245     236     246  # HC-CT-HC
    449    6     245     236     247  # HC-CT-HC
    450    6     246     236     247  # HC-CT-HC
    451    5     233     239     248  # CT-CT-HC
    452    5     233     239     249  # CT-CT-HC
    453    5     233     239     250  # CT-CT-HC
    454    6     248     239     249  # HC-CT-HC
    455    6     248     239     250  # HC-CT-HC
    456    6     249     239     250  # HC-CT-HC
    457    5     234     242     251  # CT-CT-HC
    458    5     234     242     252  # CT-CT-HC
    459    5     234     242     253  # CT-CT-HC
    460    6     251     242     252  # HC-CT-HC
    461    6     251     242     253  # HC-CT-HC
    462    6     252     242     253  # HC-CT-HC
    463    1     255     254     256  # CT-NT-CT
    464    1     255     254     257  # CT-NT-CT
    465    2     255     254     258  # HN-NT-CT
    466    1     256     254     257  # CT-NT-CT
    467    2     256     254     258  # HN-NT-CT
    468    2     257     254     258  # HN-NT-CT
    469    3     254     255     259  # NT-CT-CT
    470    4     254     255     260  # HC-CT-NT
    471    4     254     255     261  # HC-CT-NT
    472    5     259     255     260  # CT-CT-HC
    473    5     259     255     261  # CT-CT-HC
    474    6     260     255     261  # HC-CT-HC
    475    3     254     256     262  # NT-CT-CT
    476    4     254     256     263  # HC-CT-NT
    477    4     254     256     264  # HC-CT-NT
    478    5     262     256     263  # CT-CT-HC
    479    5     262     256     264  # CT-CT-HC
    480    6     263     256     264  # HC-CT-HC
    481    3     254     257     265  # NT-CT-CT
    482    4     254     257     266  # HC-CT-NT
    483    4     254     257     267  # HC-CT-NT
    484    5     265     257     266  # CT-CT-HC
    485    5     265     257     267  # CT-CT-HC
    486    6     266     257     267  # HC-CT-HC
    487    5     255     259     268  # CT-CT-HC
    488    5     255     259     269  # CT-CT-HC
    489    5     255     259     270  # CT-CT-HC
    490    6     268     259     269  # HC-CT-HC
    491    6     268     259     270  # HC-CT-HC
    492    6     269     259     270  # HC-CT-HC
    493    5     256     262     271  # CT-CT-HC
    494    5     256     262     272  # CT-CT-HC
    495    5     256     262     273  # CT-CT-HC
    496    6     271     262     272  # HC-CT-HC
    497    6     271     262     273  # HC-CT-HC
    498    6     272     262     273  # HC-CT-HC
    499    5     257     265     274  # CT-CT-HC
    500    5     257     265     275  # CT-CT-HC
    501    5     257     265     276  # CT-CT-HC
    502    6     274     265     275  # HC-CT-HC
    503    6     274     265     276  # HC-CT-HC
    504    6     275     265     276  # HC-CT-HC
    505    1     278     277     279  # CT-NT-CT
    506    1     278     277     280  # CT-NT-CT
    507    2     278     277     281  # HN-NT-CT
    508    1     279     277     280  # CT-NT-CT
    509    2     279     277     281  # HN-NT-CT
    510    2     280     277     281  # HN-NT-CT
    511    3     277     278     282  # NT-CT-CT
    512    4     277     278     283  # HC-CT-NT
    513    4     277     278     284  # HC-CT-NT
    514    5     282     278     283  # CT-CT-HC
    515    5     282     278     284  # CT-CT-HC
    516    6     283     278     284  # HC-CT-HC
    517    3     277     279     285  # NT-CT-CT
    518    4     277     279     286  # HC-CT-NT
    519    4     277     279     287  # HC-CT-NT
    520    5     285     279     286  # CT-CT-HC
    521    5     285     279     287  # CT-CT-HC
    522    6     286     279     287  # HC-CT-HC
    523    3     277     280     288  # NT-CT-CT
    524    4     277     280     289  # HC-CT-NT
    525    4     277     280     290  # HC-CT-NT
    526    5     288     280     289  # CT-CT-HC
    527    5     288     280     290  # CT-CT-HC
    528    6     289     280     290  # HC-CT-HC
    529    5     278     282     291  # CT-CT-HC
    530    5     278     282     292  # CT-CT-HC
    531    5     278     282     293  # CT-CT-HC
    532    6     291     282     292  # HC-CT-HC
    533    6     291     282     293  # HC-CT-HC
    534    6     292     282     293  # HC-CT-HC
    535    5     279     285     294  # CT-CT-HC
    536    5     279     285     295  # CT-CT-HC
    537    5     279     285     296  # CT-CT-HC
    538    6     294     285     295  # HC-CT-HC
    539    6     294     285     296  # HC-CT-HC
    540    6     295     285     296  # HC-CT-HC
    541    5     280     288     297  # CT-CT-HC
    542    5     280     288     298  # CT-CT-HC
    543    5     280     288     299  # CT-CT-HC
    544    6     297     288     298  # HC-CT-HC
    545    6     297     288     299  # HC-CT-HC
    546    6     298     288     299  # HC-CT-HC
    547    1     301     300     302  # CT-NT-CT
    548    1     301     300     303  # CT-NT-CT
    549    2     301     300     304  # HN-NT-CT
    550    1     302     300     303  # CT-NT-CT
    551    2     302     300     304  # HN-NT-CT
    552    2     303     300     304  # HN-NT-CT
    553    3     300     301     305  # NT-CT-CT
    554    4     300     301     306  # HC-CT-NT
    555    4     300     301     307  # HC-CT-NT
    556    5     305     301     306  # CT-CT-HC
    557    5     305     301     307  # CT-CT-HC
    558    6     306     301     307  # HC-CT-HC
    559    3     300     302     308  # NT-CT-CT
    560    4     300     302     309  # HC-CT-NT
    561    4     300     302     310  # HC-CT-NT
    562    5     308     302     309  # CT-CT-HC
    563    5     308     302     310  # CT-CT-HC
    564    6     309     302     310  # HC-CT-HC
    565    3     300     303     311  # NT-CT-CT
    566    4     300     303     312  # HC-CT-NT
    567    4     300     303     313  # HC-CT-NT
    568    5     311     303     312  # CT-CT-HC
    569    5     311     303     313  # CT-CT-HC
    570    6     312     303     313  # HC-CT-HC
    571    5     301     305     314  # CT-CT-HC
    572    5     301     305     315  # CT-CT-HC
    573    5     301     305     316  # CT-CT-HC
    574    6     314     305     315  # HC-CT-HC
    575    6     314     305     316  # HC-CT-HC
    576    6     315     305     316  # HC-CT-HC
    577    5     302     308     317  # CT-CT-HC
    578    5     302     308     318  # CT-CT-HC
    579    5     302     308     319  # CT-CT-HC
    580    6     317     308     318  # HC-CT-HC
    581    6     317     308     319  # HC-CT-HC
    582    6     318     308     319  # HC-CT-HC
    583    5     303     311     320  # CT-CT-HC
    584    5     303     311     321  # CT-CT-HC
    585    5     303     311     322  # CT-CT-HC
    586    6     320     311     321  # HC-CT-HC
    587    6     320     311     322  # HC-CT-HC
    588    6     321     311     322  # HC-CT-HC
    589    1     324     323     325  # CT-NT-CT
    590    1     324     323     326  # CT-NT-CT
    591    2     324     323     327  # HN-NT-CT
    592    1     325     323     326  # CT-NT-CT
    593    2     325     323     327  # HN-NT-CT
    594    2     326     323     327  # HN-NT-CT
    595    3     323     324     328  # NT-CT-CT
    596    4     323     324     329  # HC-CT-NT
    597    4     323     324     330  # HC-CT-NT
    598    5     328     324     329  # CT-CT-HC
    599    5     328     324     330  # CT-CT-HC
    600    6     329     324     330  # HC-CT-HC
    601    3     323     325     331  # NT-CT-CT
    602    4     323     325     332  # HC-CT-NT
    603    4     323     325     333  # HC-CT-NT
    604    5     331     325     332  # CT-CT-HC
    605    5     331     325     333  # CT-CT-HC
    606    6     332     325     333  # HC-CT-HC
    607    3     323     326     334  # NT-CT-CT
    608    4     323     326     335  # HC-CT-NT
    609    4     323     326     336  # HC-CT-NT
    610    5     334     326     335  # CT-CT-HC
    611    5     334     326     336  # CT-CT-HC
    612    6     335     326     336  # HC-CT-HC
    613    5     324     328     337  # CT-CT-HC
    614    5     324     328     338  # CT-CT-HC
    615    5     324     328     339  # CT-CT-HC
    616    6     337     328     338  # HC-CT-HC
    617    6     337     328     339  # HC-CT-HC
    618    6     338     328     339  # HC-CT-HC
    619    5     325     331     340  # CT-CT-HC
    620    5     325     331     341  # CT-CT-HC
    621    5     325     331     342  # CT-CT-HC
    622    6     340     331     341  # HC-CT-HC
    623    6     340     331     342  # HC-CT-HC
    624    6     341     331     342  # HC-CT-HC
    625    5     326     334     343  # CT-CT-HC
    626    5     326     334     344  # CT-CT-HC
    627    5     326     334     345  # CT-CT-HC
    628    6     343     334     344  # HC-CT-HC
    629    6     343     334     345  # HC-CT-HC
    630    6     344     334     345  # HC-CT-HC
    631    1     347     346     348  # CT-NT-CT
    632    1     347     346     349  # CT-NT-CT
    633    2     347     346     350  # HN-NT-CT
    634    1     348     346     349  # CT-NT-CT
    635    2     348     346     350  # HN-NT-CT
    636    2     349     346     350  # HN-NT-CT
    637    3     346     347     351  # NT-CT-CT
    638    4     346     347     352  # HC-CT-NT
    639    4     346     347     353  # HC-CT-NT
    640    5     351     347     352  # CT-CT-HC
    641    5     351     347     353  # CT-CT-HC
    642    6     352     347     353  # HC-CT-HC
    643    3     346     348     354  # NT-CT-CT
    644    4     346     348     355  # HC-CT-NT
    645    4     346     348     356  # HC-CT-NT
    646    5     354     348     355  # CT-CT-HC
    647    5     354     348     356  # CT-CT-HC
    648    6     355     348     356  # HC-CT-HC
    649    3     346     349     357  # NT-CT-CT
    650    4     346     349     358  # HC-CT-NT
    651    4     346     349     359  # HC-CT-NT
    652    5     357     349     358  # CT-CT-HC
    653    5     357     349     359  # CT-CT-HC
    654    6     358     349     359  # HC-CT-HC
    655    5     347     351     360  # CT-CT-HC
    656    5     347     351     361  # CT-CT-HC
    657    5     347     351     362  # CT-CT-HC
    658    6     360     351     361  # HC-CT-HC
    659    6     360     351     362  # HC-CT-HC
    660    6     361     351     362  # HC-CT-HC
    661    5     348     354     363  # CT-CT-HC
    662    5     348     354     364  # CT-CT-HC
    663    5     348     354     365  # CT-CT-HC
    664    6     363     354     364  # HC-CT-HC
    665    6     363     354     365  # HC-CT-HC
    666    6     364     354     365  # HC-CT-HC
    667    5     349     357     366  # CT-CT-HC
    668    5     349     357     367  # CT-CT-HC
    669    5     349     357     368  # CT-CT-HC
    670    6     366     357     367  # HC-CT-HC
    671    6     366     357     368  # HC-CT-HC
    672    6     367     357     368  # HC-CT-HC
    673    1     370     369     371  # CT-NT-CT
    674    1     370     369     372  # CT-NT-CT
    675    2     370     369     373  # HN-NT-CT
    676    1     371     369     372  # CT-NT-CT
    677    2     371     369     373  # HN-NT-CT
    678    2     372     369     373  # HN-NT-CT
    679    3     369     370     374  # NT-CT-CT
    680    4     369     370     375  # HC-CT-NT
    681    4     369     370     376  # HC-CT-NT
    682    5     374     370     375  # CT-CT-HC
    683    5     374     370     376  # CT-CT-HC
    684    6     375     370     376  # HC-CT-HC
    685    3     369     371     377  # NT-CT-CT
    686    4     369     371     378  # HC-CT-NT
    687    4     369     371     379  # HC-CT-NT
    688    5     377     371     378  # CT-CT-HC
    689    5     377     371     379  # CT-CT-HC
    690    6     378     371     379  # HC-CT-HC
    691    3     369     372     380  # NT-CT-CT
    692    4     369     372     381  # HC-CT-NT
    693    4     369     372     382  # HC-CT-NT
    694    5     380     372     381  # CT-CT-HC
    695    5     380     372     382  # CT-CT-HC
    696    6     381     372     382  # HC-CT-HC
    697    5     370     374     383  # CT-CT-HC
    698    5     370     374     384  # CT-CT-HC
    699    5     370     374     385  # CT-CT-HC
    700    6     383     374     384  # HC-CT-HC
    701    6     383     374     385  # HC-CT-HC
    702    6     384     374     385  # HC-CT-HC
    703    5     371     377     386  # CT-CT-HC
    704    5     371     377     387  # CT-CT-HC
    705    5     371     377     388  # CT-CT-HC
    706    6     386     377     387  # HC-CT-HC
    707    6     386     377     388  # HC-CT-HC
    708    6     387     377     388  # HC-CT-HC
    709    5     372     380     389  # CT-CT-HC
    710    5     372     380     390  # CT-CT-HC
    711    5     372     380     391  # CT-CT-HC
    712    6     389     380     390  # HC-CT-HC
    713    6     389     380     391  # HC-CT-HC
    714    6     390     380     391  # HC-CT-HC
    715    1     393     392     394  # CT-NT-CT
    716    1     393     392     395  # CT-NT-CT
    717    2     393     392     396  # HN-NT-CT
    718    1     394     392     395  # CT-NT-CT
    719    2     394     392     396  # HN-NT-CT
    720    2     395     392     396  # HN-NT-CT
    721    3     392     393     397  # NT-CT-CT
    722    4     392     393     398  # HC-CT-NT
    723    4     392     393     399  # HC-CT-NT
    724    5     397     393     398  # CT-CT-HC
    725    5     397     393     399  # CT-CT-HC
    726    6     398     393     399  # HC-CT-HC
    727    3     392     394     400  # NT-CT-CT
    728    4     392     394     401  # HC-CT-NT
    729    4     392     394     402  # HC-CT-NT
    730    5     400     394     401  # CT-CT-HC
    731    5     400     394     402  # CT-CT-HC
    732    6     401     394     402  # HC-CT-HC
    733    3     392     395     403  # NT-CT-CT
    734    4     392     395     404  # HC-CT-NT
    735    4     392     395     405  # HC-CT-NT
    736    5     403     395     404  # CT-CT-HC
    737    5     403     395     405  # CT-CT-HC
    738    6     404     395     405  # HC-CT-HC
    739    5     393     397     406  # CT-CT-HC
    740    5     393     397     407  # CT-CT-HC
    741    5     393     397     408  # CT-CT-HC
    742    6     406     397     407  # HC-CT-HC
    743    6     406     397     408  # HC-CT-HC
    744    6     407     397     408  # HC-CT-HC
    745    5     394     400     409  # CT-CT-HC
    746    5     394     400     410  # CT-CT-HC
    747    5     394     400     411  # CT-CT-HC
    748    6     409     400     410  # HC-CT-HC
    749    6     409     400     411  # HC-CT-HC
    750    6     410     400     411  # HC-CT-HC
    751    5     395     403     412  # CT-CT-HC
    752    5     395     403     413  # CT-CT-HC
    753    5     395     403     414  # CT-CT-HC
    754    6     412     403     413  # HC-CT-HC
    755    6     412     403     414  # HC-CT-HC
    756    6     413     403     414  # HC-CT-HC
    757    1     416     415     417  # CT-NT-CT
    758    1     416     415     418  # CT-NT-CT
    759    2     416     415     419  # HN-NT-CT
    760    1     417     415     418  # CT-NT-CT
    761    2     417     415     419  # HN-NT-CT
    762    2     418     415     419  # HN-NT-CT
    763    3     415     416     420  # NT-CT-CT
    764    4     415     416     421  # HC-CT-NT
    765    4     415     416     422  # HC-CT-NT
    766    5     420     416     421  # CT-CT-HC
    767    5     420     416     422  # CT-CT-HC
    768    6     421     416     422  # HC-CT-HC
    769    3     415     417     423  # NT-CT-CT
    770    4     415     417     424  # HC-CT-NT
    771    4     415     417     425  # HC-CT-NT
    772    5     423     417     424  # CT-CT-HC
    773    5     423     417     425  # CT-CT-HC
    774    6     424     417     425  # HC-CT-HC
    775    3     415     418     426  # NT-CT-CT
    776    4     415     418     427  # HC-CT-NT
    777    4     415     418     428  # HC-CT-NT
    778    5     426     418     427  # CT-CT-HC
    779    5     426     418     428  # CT-CT-HC
    780    6     427     418     428  # HC-CT-HC
    781    5     416     420     429  # CT-CT-HC
    782    5     416     420     430  # CT-CT-HC
    783    5     416     420     431  # CT-CT-HC
    784    6     429     420     430  # HC-CT-HC
    785    6     429     420     431  # HC-CT-HC
    786    6     430     420     431  # HC-CT-HC
    787    5     417     423     432  # CT-CT-HC
    788    5     417     423     433  # CT-CT-HC
    789    5     417     423     434  # CT-CT-HC
    790    6     432     423     433  # HC-CT-HC
    791    6     432     423     434  # HC-CT-HC
    792    6     433     423     434  # HC-CT-HC
    793    5     418     426     435  # CT-CT-HC
    794    5     418     426     436  # CT-CT-HC
    795    5     418     426     437  # CT-CT-HC
    796    6     435     426     436  # HC-CT-HC
    797    6     435     426     437  # HC-CT-HC
    798    6     436     426     437  # HC-CT-HC
    799    1     439     438     440  # CT-NT-CT
    800    1     439     438     441  # CT-NT-CT
    801    2     439     438     442  # HN-NT-CT
    802    1     440     438     441  # CT-NT-CT
    803    2     440     438     442  # HN-NT-CT
    804    2     441     438     442  # HN-NT-CT
    805    3     438     439     443  # NT-CT-CT
    806    4     438     439     444  # HC-CT-NT
    807    4     438     439     445  # HC-CT-NT
    808    5     443     439     444  # CT-CT-HC
    809    5     443     439     445  # CT-CT-HC
    810    6     444     439     445  # HC-CT-HC
    811    3     438     440     446  # NT-CT-CT
    812    4     438     440     447  # HC-CT-NT
    813    4     438     440     448  # HC-CT-NT
    814    5     446     440     447  # CT-CT-HC
    815    5     446     440     448  # CT-CT-HC
    816    6     447     440     448  # HC-CT-HC
    817    3     438     441     449  # NT-CT-CT
    818    4     438     441     450  # HC-CT-NT
    819    4     438     441     451  # HC-CT-NT
    820    5     449     441     450  # CT-CT-HC
    821    5     449     441     451  # CT-CT-HC
    822    6     450     441     451  # HC-CT-HC
    823    5     439     443     452  # CT-CT-HC
    824    5     439     443     453  # CT-CT-HC
    825    5     439     443     454  # CT-CT-HC
    826    6     452     443     453  # HC-CT-HC
    827    6     452     443     454  # HC-CT-HC
    828    6     453     443     454  # HC-CT-HC
    829    5     440     446     455  # CT-CT-HC
    830    5     440     446     456  # CT-CT-HC
    831    5     440     446     457  # CT-CT-HC
    832    6     455     446     456  # HC-CT-HC
    833    6     455     446     457  # HC-CT-HC
    834    6     456     446     457  # HC-CT-HC
    835    5     441     449     458  # CT-CT-HC
    836    5     441     449     459  # CT-CT-HC
    837    5     441     449     460  # CT-CT-HC
    838    6     458     449     459  # HC-CT-HC
    839    6     458     449     460  # HC-CT-HC
    840    6     459     449     460  # HC-CT-HC
    841    1     462     461     463  # CT-NT-CT
    842    1     462     461     464  # CT-NT-CT
    843    2     462     461     465  # HN-NT-CT
    844    1     463     461     464  # CT-NT-CT
    845    2     463     461     465  # HN-NT-CT
    846    2     464     461     465  # HN-NT-CT
    847    3     461     462     466  # NT-CT-CT
    848    4     461     462     467  # HC-CT-NT
    849    4     461     462     468  # HC-CT-NT
    850    5     466     462     467  # CT-CT-HC
    851    5     466     462     468  # CT-CT-HC
    852    6     467     462     468  # HC-CT-HC
    853    3     461     463     469  # NT-CT-CT
    854    4     461     463     470  # HC-CT-NT
    855    4     461     463     471  # HC-CT-NT
    856    5     469     463     470  # CT-CT-HC
    857    5     469     463     471  # CT-CT-HC
    858    6     470     463     471  # HC-CT-HC
    859    3     461     464     472  # NT-CT-CT
    860    4     461     464     473  # HC-CT-NT
    861    4     461     464     474  # HC-CT-NT
    862    5     472     464     473  # CT-CT-HC
    863    5     472     464     474  # CT-CT-HC
    864    6     473     464     474  # HC-CT-HC
    865    5     462     466     475  # CT-CT-HC
    866    5     462     466     476  # CT-CT-HC
    867    5     462     466     477  # CT-CT-HC
    868    6     475     466     476  # HC-CT-HC
    869    6     475     466     477  # HC-CT-HC
    870    6     476     466     477  # HC-CT-HC
    871    5     463     469     478  # CT-CT-HC
    872    5     463     469     479  # CT-CT-HC
    873    5     463     469     480  # CT-CT-HC
    874    6     478     469     479  # HC-CT-HC
    875    6     478     469     480  # HC-CT-HC
    876    6     479     469     480  # HC-CT-HC
    877    5     464     472     481  # CT-CT-HC
    878    5     464     472     482  # CT-CT-HC
    879    5     464     472     483  # CT-CT-HC
    880    6     481     472     482  # HC-CT-HC
    881    6     481     472     483  # HC-CT-HC
    882    6     482     472     483  # HC-CT-HC
    883    1     485     484     486  # CT-NT-CT
    884    1     485     484     487  # CT-NT-CT
    885    2     485     484     488  # HN-NT-CT
    886    1     486     484     487  # CT-NT-CT
    887    2     486     484     488  # HN-NT-CT
    888    2     487     484     488  # HN-NT-CT
    889    3     484     485     489  # NT-CT-CT
    890    4     484     485     490  # HC-CT-NT
    891    4     484     485     491  # HC-CT-NT
    892    5     489     485     490  # CT-CT-HC
    893    5     489     485     491  # CT-CT-HC
    894    6     490     485     491  # HC-CT-HC
    895    3     484     486     492  # NT-CT-CT
    896    4     484     486     493  # HC-CT-NT
    897    4     484     486     494  # HC-CT-NT
    898    5     492     486     493  # CT-CT-HC
    899    5     492     486     494  # CT-CT-HC
    900    6     493     486     494  # HC-CT-HC
    901    3     484     487     495  # NT-CT-CT
    902    4     484     487     496  # HC-CT-NT
    903    4     484     487     497  # HC-CT-NT
    904    5     495     487     496  # CT-CT-HC
    905    5     495     487     497  # CT-CT-HC
    906    6     496     487     497  # HC-CT-HC
    907    5     485     489     498  # CT-CT-HC
    908    5     485     489     499  # CT-CT-HC
    909    5     485     489     500  # CT-CT-HC
    910    6     498     489     499  # HC-CT-HC
    911    6     498     489     500  # HC-CT-HC
    912    6     499     489     500  # HC-CT-HC
    913    5     486     492     501  # CT-CT-HC
    914    5     486     492     502  # CT-CT-HC
    915    5     486     492     503  # CT-CT-HC
    916    6     501     492     502  # HC-CT-HC
    917    6     501     492     503  # HC-CT-HC
    918    6     502     492     503  # HC-CT-HC
    919    5     487     495     504  # CT-CT-HC
    920    5     487     495     505  # CT-CT-HC
    921    5     487     495     506  # CT-CT-HC
    922    6     504     495     505  # HC-CT-HC
    923    6     504     495     506  # HC-CT-HC
    924    6     505     495     506  # HC-CT-HC
    925    1     508     507     509  # CT-NT-CT
    926    1     508     507     510  # CT-NT-CT
    927    2     508     507     511  # HN-NT-CT
    928    1     509     507     510  # CT-NT-CT
    929    2     509     507     511  # HN-NT-CT
    930    2     510     507     511  # HN-NT-CT
    931    3     507     508     512  # NT-CT-CT
    932    4     507     508     513  # HC-CT-NT
    933    4     507     508     514  # HC-CT-NT
    934    5     512     508     513  # CT-CT-HC
    935    5     512     508     514  # CT-CT-HC
    936    6     513     508     514  # HC-CT-HC
    937    3     507     509     515  # NT-CT-CT
    938    4     507     509     516  # HC-CT-NT
    939    4     507     509     517  # HC-CT-NT
    940    5     515     509     516  # CT-CT-HC
    941    5     515     509     517  # CT-CT-HC
    942    6     516     509     517  # HC-CT-HC
    943    3     507     510     518  # NT-CT-CT
    944    4     507     510     519  # HC-CT-NT
    945    4     507     510     520  # HC-CT-NT
    946    5     518     510     519  # CT-CT-HC
    947    5     518     510     520  # CT-CT-HC
    948    6     519     510     520  # HC-CT-HC
    949    5     508     512     521  # CT-CT-HC
    950    5     508     512     522  # CT-CT-HC
    951    5     508     512     523  # CT-CT-HC
    952    6     521     512     522  # HC-CT-HC
    953    6     521     512     523  # HC-CT-HC
    954    6     522     512     523  # HC-CT-HC
    955    5     509     515     524  # CT-CT-HC
    956    5     509     515     525  # CT-CT-HC
    957    5     509     515     526  # CT-CT-HC
    958    6     524     515     525  # HC-CT-HC
    959    6     524     515     526  # HC-CT-HC
    960    6     525     515     526  # HC-CT-HC
    961    5     510     518     527  # CT-CT-HC
    962    5     510     518     528  # CT-CT-HC
    963    5     510     518     529  # CT-CT-HC
    964    6     527     518     528  # HC-CT-HC
    965    6     527     518     529  # HC-CT-HC
    966    6     528     518     529  # HC-CT-HC
    967    1     531     530     532  # CT-NT-CT
    968    1     531     530     533  # CT-NT-CT
    969    2     531     530     534  # HN-NT-CT
    970    1     532     530     533  # CT-NT-CT
    971    2     532     530     534  # HN-NT-CT
    972    2     533     530     534  # HN-NT-CT
    973    3     530     531     535  # NT-CT-CT
    974    4     530     531     536  # HC-CT-NT
    975    4     530     531     537  # HC-CT-NT
    976    5     535     531     536  # CT-CT-HC
    977    5     535     531     537  # CT-CT-HC
    978    6     536     531     537  # HC-CT-HC
    979    3     530     532     538  # NT-CT-CT
    980    4     530     532     539  # HC-CT-NT
    981    4     530     532     540  # HC-CT-NT
    982    5     538     532     539  # CT-CT-HC
    983    5     538     532     540  # CT-CT-HC
    984    6     539     532     540  # HC-CT-HC
    985    3     530     533     541  # NT-CT-CT
    986    4     530     533     542  # HC-CT-NT
    987    4     530     533     543  # HC-CT-NT
    988    5     541     533     542  # CT-CT-HC
    989    5     541     533     543  # CT-CT-HC
    990    6     542     533     543  # HC-CT-HC
    991    5     531     535     544  # CT-CT-HC
    992    5     531     535     545  # CT-CT-HC
    993    5     531     535     546  # CT-CT-HC
    994    6     544     535     545  # HC-CT-HC
    995    6     544     535     546  # HC-CT-HC
    996    6     545     535     546  # HC-CT-HC
    997    5     532     538     547  # CT-CT-HC
    998    5     532     538     548  # CT-CT-HC
    999    5     532     538     549  # CT-CT-HC
   1000    6     547     538     548  # HC-CT-HC
   1001    6     547     538     549  # HC-CT-HC
   1002    6     548     538     549  # HC-CT-HC
   1003    5     533     541     550  # CT-CT-HC
   1004    5     533     541     551  # CT-CT-HC
   1005    5     533     541     552  # CT-CT-HC
   1006    6     550     541     551  # HC-CT-HC
   1007    6     550     541     552  # HC-CT-HC
   1008    6     551     541     552  # HC-CT-HC
   1009    1     554     553     555  # CT-NT-CT
   1010    1     554     553     556  # CT-NT-CT
   1011    2     554     553     557  # HN-NT-CT
   1012    1     555     553     556  # CT-NT-CT
   1013    2     555     553     557  # HN-NT-CT
   1014    2     556     553     557  # HN-NT-CT
   1015    3     553     554     558  # NT-CT-CT
   1016    4     553     554     559  # HC-CT-NT
   1017    4     553     554     560  # HC-CT-NT
   1018    5     558     554     559  # CT-CT-HC
   1019    5     558     554     560  # CT-CT-HC
   1020    6     559     554     560  # HC-CT-HC
   1021    3     553     555     561  # NT-CT-CT
   1022    4     553     555     562  # HC-CT-NT
   1023    4     553     555     563  # HC-CT-NT
   1024    5     561     555     562  # CT-CT-HC
   1025    5     561     555     563  # CT-CT-HC
   1026    6     562     555     563  # HC-CT-HC
   1027    3     553     556     564  # NT-CT-CT
   1028    4     553     556     565  # HC-CT-NT
   1029    4     553     556     566  # HC-CT-NT
   1030    5     564     556     565  # CT-CT-HC
   1031    5     564     556     566  # CT-CT-HC
   1032    6     565     556     566  # HC-CT-HC
   1033    5     554     558     567  # CT-CT-HC
   1034    5     554     558     568  # CT-CT-HC
   1035    5     554     558     569  # CT-CT-HC
   1036    6     567     558     568  # HC-CT-HC
   1037    6     567     558     569  # HC-CT-HC
   1038    6     568     558     569  # HC-CT-HC
   1039    5     555     561     570  # CT-CT-HC
   1040    5     555     561     571  # CT-CT-HC
   1041    5     555     561     572  # CT-CT-HC
   1042    6     570     561     571  # HC-CT-HC
   1043    6     570     561     572  # HC-CT-HC
   1044    6     571     561     572  # HC-CT-HC
   1045    5     556     564     573  # CT-CT-HC
   1046    5     556     564     574  # CT-CT-HC
   1047    5     556     564     575  # CT-CT-HC
   1048    6     573     564     574  # HC-CT-HC
   1049    6     573     564     575  # HC-CT-HC
   1050    6     574     564     575  # HC-CT-HC
   1051    1     577     576     578  # CT-NT-CT
   1052    1     577     576     579  # CT-NT-CT
   1053    2     577     576     580  # HN-NT-CT
   1054    1     578     576     579  # CT-NT-CT
   1055    2     578     576     580  # HN-NT-CT
   1056    2     579     576     580  # HN-NT-CT
   1057    3     576     577     581  # NT-CT-CT
   1058    4     576     577     582  # HC-CT-NT
   1059    4     576     577     583  # HC-CT-NT
   1060    5     581     577     582  # CT-CT-HC
   1061    5     581     577     583  # CT-CT-HC
   1062    6     582     577     583  # HC-CT-HC
   1063    3     576     578     584  # NT-CT-CT
   1064    4     576     578     585  # HC-CT-NT
   1065    4     576     578     586  # HC-CT-NT
   1066    5     584     578     585  # CT-CT-HC
   1067    5     584     578     586  # CT-CT-HC
   1068    6     585     578     586  # HC-CT-HC
   1069    3     576     579     587  # NT-CT-CT
   1070    4     576     579     588  # HC-CT-NT
   1071    4     576     579     589  # HC-CT-NT
   1072    5     587     579     588  # CT-CT-HC
   1073    5     587     579     589  # CT-CT-HC
   1074    6     588     579     589  # HC-CT-HC
   1075    5     577     581     590  # CT-CT-HC
   1076    5     577     581     591  # CT-CT-HC
   1077    5     577     581     592  # CT-CT-HC
   1078    6     590     581     591  # HC-CT-HC
   1079    6     590     581     592  # HC-CT-HC
   1080    6     591     581     592  # HC-CT-HC
   1081    5     578     584     593  # CT-CT-HC
   1082    5     578     584     594  # CT-CT-HC
   1083    5     578     584     595  # CT-CT-HC
   1084    6     593     584     594  # HC-CT-HC
   1085    6     593     584     595  # HC-CT-HC
   1086    6     594     584     595  # HC-CT-HC
   1087    5     579     587     596  # CT-CT-HC
   1088    5     579     587     597  # CT-CT-HC
   1089    5     579     587     598  # CT-CT-HC
   1090    6     596     587     597  # HC-CT-HC
   1091    6     596     587     598  # HC-CT-HC
   1092    6     597     587     598  # HC-CT-HC
   1093    1     600     599     601  # CT-NT-CT
   1094    1     600     599     602  # CT-NT-CT
   1095    2     600     599     603  # HN-NT-CT
   1096    1     601     599     602  # CT-NT-CT
   1097    2     601     599     603  # HN-NT-CT
   1098    2     602     599     603  # HN-NT-CT
   1099    3     599     600     604  # NT-CT-CT
   1100    4     599     600     605  # HC-CT-NT
   1101    4     599     600     606  # HC-CT-NT
   1102    5     604     600     605  # CT-CT-HC
   1103    5     604     600     606  # CT-CT-HC
   1104    6     605     600     606  # HC-CT-HC
   1105    3     599     601     607  # NT-CT-CT
   1106    4     599     601     608  # HC-CT-NT
   1107    4     599     601     609  # HC-CT-NT
   1108    5     607     601     608  # CT-CT-HC
   1109    5     607     601     609  # CT-CT-HC
   1110    6     608     601     609  # HC-CT-HC
   1111    3     599     602     610  # NT-CT-CT
   1112    4     599     602     611  # HC-CT-NT
   1113    4     599     602     612  # HC-CT-NT
   1114    5     610     602     611  # CT-CT-HC
   1115    5     610     602     612  # CT-CT-HC
   1116    6     611     602     612  # HC-CT-HC
   1117    5     600     604     613  # CT-CT-HC
   1118    5     600     604     614  # CT-CT-HC
   1119    5     600     604     615  # CT-CT-HC
   1120    6     613     604     614  # HC-CT-HC
   1121    6     613     604     615  # HC-CT-HC
   1122    6     614     604     615  # HC-CT-HC
   1123    5     601     607     616  # CT-CT-HC
   1124    5     601     607     617  # CT-CT-HC
   1125    5     601     607     618  # CT-CT-HC
   1126    6     616     607     617  # HC-CT-HC
   1127    6     616     607     618  # HC-CT-HC
   1128    6     617     607     618  # HC-CT-HC
   1129    5     602     610     619  # CT-CT-HC
   1130    5     602     610     620  # CT-CT-HC
   1131    5     602     610     621  # CT-CT-HC
   1132    6     619     610     620  # HC-CT-HC
   1133    6     619     610     621  # HC-CT-HC
   1134    6     620     610     621  # HC-CT-HC
   1135    1     623     622     624  # CT-NT-CT
   1136    1     623     622     625  # CT-NT-CT
   1137    2     623     622     626  # HN-NT-CT
   1138    1     624     622     625  # CT-NT-CT
   1139    2     624     622     626  # HN-NT-CT
   1140    2     625     622     626  # HN-NT-CT
   1141    3     622     623     627  # NT-CT-CT
   1142    4     622     623     628  # HC-CT-NT
   1143    4     622     623     629  # HC-CT-NT
   1144    5     627     623     628  # CT-CT-HC
   1145    5     627     623     629  # CT-CT-HC
   1146    6     628     623     629  # HC-CT-HC
   1147    3     622     624     630  # NT-CT-CT
   1148    4     622     624     631  # HC-CT-NT
   1149    4     622     624     632  # HC-CT-NT
   1150    5     630     624     631  # CT-CT-HC
   1151    5     630     624     632  # CT-CT-HC
   1152    6     631     624     632  # HC-CT-HC
   1153    3     622     625     633  # NT-CT-CT
   1154    4     622     625     634  # HC-CT-NT
   1155    4     622     625     635  # HC-CT-NT
   1156    5     633     625     634  # CT-CT-HC
   1157    5     633     625     635  # CT-CT-HC
   1158    6     634     625     635  # HC-CT-HC
   1159    5     623     627     636  # CT-CT-HC
   1160    5     623     627     637  # CT-CT-HC
   1161    5     623     627     638  # CT-CT-HC
   1162    6     636     627     637  # HC-CT-HC
   1163    6     636     627     638  # HC-CT-HC
   1164    6     637     627     638  # HC-CT-HC
   1165    5     624     630     639  # CT-CT-HC
   1166    5     624     630     640  # CT-CT-HC
   1167    5     624     630     641  # CT-CT-HC
   1168    6     639     630     640  # HC-CT-HC
   1169    6     639     630     641  # HC-CT-HC
   1170    6     640     630     641  # HC-CT-HC
   1171    5     625     633     642  # CT-CT-HC
   1172    5     625     633     643  # CT-CT-HC
   1173    5     625     633     644  # CT-CT-HC
   1174    6     642     633     643  # HC-CT-HC
   1175    6     642     633     644  # HC-CT-HC
   1176    6     643     633     644  # HC-CT-HC
   1177    1     646     645     647  # CT-NT-CT
   1178    1     646     645     648  # CT-NT-CT
   1179    2     646     645     649  # HN-NT-CT
   1180    1     647     645     648  # CT-NT-CT
   1181    2     647     645     649  # HN-NT-CT
   1182    2     648     645     649  # HN-NT-CT
   1183    3     645     646     650  # NT-CT-CT
   1184    4     645     646     651  # HC-CT-NT
   1185    4     645     646     652  # HC-CT-NT
   1186    5     650     646     651  # CT-CT-HC
   1187    5     650     646     652  # CT-CT-HC
   1188    6     651     646     652  # HC-CT-HC
   1189    3     645     647     653  # NT-CT-CT
   1190    4     645     647     654  # HC-CT-NT
   1191    4     645     647     655  # HC-CT-NT
   1192    5     653     647     654  # CT-CT-HC
   1193    5     653     647     655  # CT-CT-HC
   1194    6     654     647     655  # HC-CT-HC
   1195    3     645     648     656  # NT-CT-CT
   1196    4     645     648     657  # HC-CT-NT
   1197    4     645     648     658  # HC-CT-NT
   1198    5     656     648     657  # CT-CT-HC
   1199    5     656     648     658  # CT-CT-HC
   1200    6     657     648     658  # HC-CT-HC
   1201    5     646     650     659  # CT-CT-HC
   1202    5     646     650     660  # CT-CT-HC
   1203    5     646     650     661  # CT-CT-HC
   1204    6     659     650     660  # HC-CT-HC
   1205    6     659     650     661  # HC-CT-HC
   1206    6     660     650     661  # HC-CT-HC
   1207    5     647     653     662  # CT-CT-HC
   1208    5     647     653     663  # CT-CT-HC
   1209    5     647     653     664  # CT-CT-HC
   1210    6     662     653     663  # HC-CT-HC
   1211    6     662     653     664  # HC-CT-HC
   1212    6     663     653     664  # HC-CT-HC
   1213    5     648     656     665  # CT-CT-HC
   1214    5     648     656     666  # CT-CT-HC
   1215    5     648     656     667  # CT-CT-HC
   1216    6     665     656     666  # HC-CT-HC
   1217    6     665     656     667  # HC-CT-HC
   1218    6     666     656     667  # HC-CT-HC
   1219    1     669     668     670  # CT-NT-CT
   1220    1     669     668     671  # CT-NT-CT
   1221    2     669     668     672  # HN-NT-CT
   1222    1     670     668     671  # CT-NT-CT
   1223    2     670     668     672  # HN-NT-CT
   1224    2     671     668     672  # HN-NT-CT
   1225    3     668     669     673  # NT-CT-CT
   1226    4     668     669     674  # HC-CT-NT
   1227    4     668     669     675  # HC-CT-NT
   1228    5     673     669     674  # CT-CT-HC
   1229    5     673     669     675  # CT-CT-HC
   1230    6     674     669     675  # HC-CT-HC
   1231    3     668     670     676  # NT-CT-CT
   1232    4     668     670     677  # HC-CT-NT
   1233    4     668     670     678  # HC-CT-NT
   1234    5     676     670     677  # CT-CT-HC
   1235    5     676     670     678  # CT-CT-HC
   1236    6     677     670     678  # HC-CT-HC
   1237    3     668     671     679  # NT-CT-CT
   1238    4     668     671     680  # HC-CT-NT
   1239    4     668     671     681  # HC-CT-NT
   1240    5     679     671     680  # CT-CT-HC
   1241    5     679     671     681  # CT-CT-HC
   1242    6     680     671     681  # HC-CT-HC
   1243    5     669     673     682  # CT-CT-HC
   1244    5     669     673     683  # CT-CT-HC
   1245    5     669     673     684  # CT-CT-HC
   1246    6     682     673     683  # HC-CT-HC
   1247    6     682     673     684  # HC-CT-HC
   1248    6     683     673     684  # HC-CT-HC
   1249    5     670     676     685  # CT-CT-HC
   1250    5     670     676     686  # CT-CT-HC
   1251    5     670     676     687  # CT-CT-HC
   1252    6     685     676     686  # HC-CT-HC
   1253    6     685     676     687  # HC-CT-HC
   1254    6     686     676     687  # HC-CT-HC
   1255    5     671     679     688  # CT-CT-HC
   1256    5     671     679     689  # CT-CT-HC
   1257    5     671     679     690  # CT-CT-HC
   1258    6     688     679     689  # HC-CT-HC
   1259    6     688     679     690  # HC-CT-HC
   1260    6     689     679     690  # HC-CT-HC
   1261    1     692     691     693  # CT-NT-CT
   1262    1     692     691     694  # CT-NT-CT
   1263    2     692     691     695  # HN-NT-CT
   1264    1     693     691     694  # CT-NT-CT
   1265    2     693     691     695  # HN-NT-CT
   1266    2     694     691     695  # HN-NT-CT
   1267    3     691     692     696  # NT-CT-CT
   1268    4     691     692     697  # HC-CT-NT
   1269    4     691     692     698  # HC-CT-NT
   1270    5     696     692     697  # CT-CT-HC
   1271    5     696     692     698  # CT-CT-HC
   1272    6     697     692     698  # HC-CT-HC
   1273    3     691     693     699  # NT-CT-CT
   1274    4     691     693     700  # HC-CT-NT
   1275    4     691     693     701  # HC-CT-NT
   1276    5     699     693     700  # CT-CT-HC
   1277    5     699     693     701  # CT-CT-HC
   1278    6     700     693     701  # HC-CT-HC
   1279    3     691     694     702  # NT-CT-CT
   1280    4     691     694     703  # HC-CT-NT
   1281    4     691     694     704  # HC-CT-NT
   1282    5     702     694     703  # CT-CT-HC
   1283    5     702     694     704  # CT-CT-HC
   1284    6     703     694     704  # HC-CT-HC
   1285    5     692     696     705  # CT-CT-HC
   1286    5     692     696     706  # CT-CT-HC
   1287    5     692     696     707  # CT-CT-HC
   1288    6     705     696     706  # HC-CT-HC
   1289    6     705     696     707  # HC-CT-HC
   1290    6     706     696     707  # HC-CT-HC
   1291    5     693     699     708  # CT-CT-HC
   1292    5     693     699     709  # CT-CT-HC
   1293    5     693     699     710  # CT-CT-HC
   1294    6     708     699     709  # HC-CT-HC
   1295    6     708     699     710  # HC-CT-HC
   1296    6     709     699     710  # HC-CT-HC
   1297    5     694     702     711  # CT-CT-HC
   1298    5     694     702     712  # CT-CT-HC
   1299    5     694     702     713  # CT-CT-HC
   1300    6     711     702     712  # HC-CT-HC
   1301    6     711     702     713  # HC-CT-HC
   1302    6     712     702     713  # HC-CT-HC
   1303    1     715     714     716  # CT-NT-CT
   1304    1     715     714     717  # CT-NT-CT
   1305    2     715     714     718  # HN-NT-CT
   1306    1     716     714     717  # CT-NT-CT
   1307    2     716     714     718  # HN-NT-CT
   1308    2     717     714     718  # HN-NT-CT
   1309    3     714     715     719  # NT-CT-CT
   1310    4     714     715     720  # HC-CT-NT
   1311    4     714     715     721  # HC-CT-NT
   1312    5     719     715     720  # CT-CT-HC
   1313    5     719     715     721  # CT-CT-HC
   1314    6     720     715     721  # HC-CT-HC
   1315    3     714     716     722  # NT-CT-CT
   1316    4     714     716     723  # HC-CT-NT
   1317    4     714     716     724  # HC-CT-NT
   1318    5     722     716     723  # CT-CT-HC
   1319    5     722     716     724  # CT-CT-HC
   1320    6     723     716     724  # HC-CT-HC
   1321    3     714     717     725  # NT-CT-CT
   1322    4     714     717     726  # HC-CT-NT
   1323    4     714     717     727  # HC-CT-NT
   1324    5     725     717     726  # CT-CT-HC
   1325    5     725     717     727  # CT-CT-HC
   1326    6     726     717     727  # HC-CT-HC
   1327    5     715     719     728  # CT-CT-HC
   1328    5     715     719     729  # CT-CT-HC
   1329    5     715     719     730  # CT-CT-HC
   1330    6     728     719     729  # HC-CT-HC
   1331    6     728     719     730  # HC-CT-HC
   1332    6     729     719     730  # HC-CT-HC
   1333    5     716     722     731  # CT-CT-HC
   1334    5     716     722     732  # CT-CT-HC
   1335    5     716     722     733  # CT-CT-HC
   1336    6     731     722     732  # HC-CT-HC
   1337    6     731     722     733  # HC-CT-HC
   1338    6     732     722     733  # HC-CT-HC
   1339    5     717     725     734  # CT-CT-HC
   1340    5     717     725     735  # CT-CT-HC
   1341    5     717     725     736  # CT-CT-HC
   1342    6     734     725     735  # HC-CT-HC
   1343    6     734     725     736  # HC-CT-HC
   1344    6     735     725     736  # HC-CT-HC
   1345    1     738     737     739  # CT-NT-CT
   1346    1     738     737     740  # CT-NT-CT
   1347    2     738     737     741  # HN-NT-CT
   1348    1     739     737     740  # CT-NT-CT
   1349    2     739     737     741  # HN-NT-CT
   1350    2     740     737     741  # HN-NT-CT
   1351    3     737     738     742  # NT-CT-CT
   1352    4     737     738     743  # HC-CT-NT
   1353    4     737     738     744  # HC-CT-NT
   1354    5     742     738     743  # CT-CT-HC
   1355    5     742     738     744  # CT-CT-HC
   1356    6     743     738     744  # HC-CT-HC
   1357    3     737     739     745  # NT-CT-CT
   1358    4     737     739     746  # HC-CT-NT
   1359    4     737     739     747  # HC-CT-NT
   1360    5     745     739     746  # CT-CT-HC
   1361    5     745     739     747  # CT-CT-HC
   1362    6     746     739     747  # HC-CT-HC
   1363    3     737     740     748  # NT-CT-CT
   1364    4     737     740     749  # HC-CT-NT
   1365    4     737     740     750  # HC-CT-NT
   1366    5     748     740     749  # CT-CT-HC
   1367    5     748     740     750  # CT-CT-HC
   1368    6     749     740     750  # HC-CT-HC
   1369    5     738     742     751  # CT-CT-HC
   1370    5     738     742     752  # CT-CT-HC
   1371    5     738     742     753  # CT-CT-HC
   1372    6     751     742     752  # HC-CT-HC
   1373    6     751     742     753  # HC-CT-HC
   1374    6     752     742     753  # HC-CT-HC
   1375    5     739     745     754  # CT-CT-HC
   1376    5     739     745     755  # CT-CT-HC
   1377    5     739     745     756  # CT-CT-HC
   1378    6     754     745     755  # HC-CT-HC
   1379    6     754     745     756  # HC-CT-HC
   1380    6     755     745     756  # HC-CT-HC
   1381    5     740     748     757  # CT-CT-HC
   1382    5     740     748     758  # CT-CT-HC
   1383    5     740     748     759  # CT-CT-HC
   1384    6     757     748     758  # HC-CT-HC
   1385    6     757     748     759  # HC-CT-HC
   1386    6     758     748     759  # HC-CT-HC
   1387    1     761     760     762  # CT-NT-CT
   1388    1     761     760     763  # CT-NT-CT
   1389    2     761     760     764  # HN-NT-CT
   1390    1     762     760     763  # CT-NT-CT
   1391    2     762     760     764  # HN-NT-CT
   1392    2     763     760     764  # HN-NT-CT
   1393    3     760     761     765  # NT-CT-CT
   1394    4     760     761     766  # HC-CT-NT
   1395    4     760     761     767  # HC-CT-NT
   1396    5     765     761     766  # CT-CT-HC
   1397    5     765     761     767  # CT-CT-HC
   1398    6     766     761     767  # HC-CT-HC
   1399    3     760     762     768  # NT-CT-CT
   1400    4     760     762     769  # HC-CT-NT
   1401    4     760     762     770  # HC-CT-NT
   1402    5     768     762     769  # CT-CT-HC
   1403    5     768     762     770  # CT-CT-HC
   1404    6     769     762     770  # HC-CT-HC
   1405    3     760     763     771  # NT-CT-CT
   1406    4     760     763     772  # HC-CT-NT
   1407    4     760     763     773  # HC-CT-NT
   1408    5     771     763     772  # CT-CT-HC
   1409    5     771     763     773  # CT-CT-HC
   1410    6     772     763     773  # HC-CT-HC
   1411    5     761     765     774  # CT-CT-HC
   1412    5     761     765     775  # CT-CT-HC
   1413    5     761     765     776  # CT-CT-HC
   1414    6     774     765     775  # HC-CT-HC
   1415    6     774     765     776  # HC-CT-HC
   1416    6     775     765     776  # HC-CT-HC
   1417    5     762     768     777  # CT-CT-HC
   1418    5     762     768     778  # CT-CT-HC
   1419    5     762     768     779  # CT-CT-HC
   1420    6     777     768     778  # HC-CT-HC
   1421    6     777     768     779  # HC-CT-HC
   1422    6     778     768     779  # HC-CT-HC
   1423    5     763     771     780  # CT-CT-HC
   1424    5     763     771     781  # CT-CT-HC
   1425    5     763     771     782  # CT-CT-HC
   1426    6     780     771     781  # HC-CT-HC
   1427    6     780     771     782  # HC-CT-HC
   1428    6     781     771     782  # HC-CT-HC
   1429    1     784     783     785  # CT-NT-CT
   1430    1     784     783     786  # CT-NT-CT
   1431    2     784     783     787  # HN-NT-CT
   1432    1     785     783     786  # CT-NT-CT
   1433    2     785     783     787  # HN-NT-CT
   1434    2     786     783     787  # HN-NT-CT
   1435    3     783     784     788  # NT-CT-CT
   1436    4     783     784     789  # HC-CT-NT
   1437    4     783     784     790  # HC-CT-NT
   1438    5     788     784     789  # CT-CT-HC
   1439    5     788     784     790  # CT-CT-HC
   1440    6     789     784     790  # HC-CT-HC
   1441    3     783     785     791  # NT-CT-CT
   1442    4     783     785     792  # HC-CT-NT
   1443    4     783     785     793  # HC-CT-NT
   1444    5     791     785     792  # CT-CT-HC
   1445    5     791     785     793  # CT-CT-HC
   1446    6     792     785     793  # HC-CT-HC
   1447    3     783     786     794  # NT-CT-CT
   1448    4     783     786     795  # HC-CT-NT
   1449    4     783     786     796  # HC-CT-NT
   1450    5     794     786     795  # CT-CT-HC
   1451    5     794     786     796  # CT-CT-HC
   1452    6     795     786     796  # HC-CT-HC
   1453    5     784     788     797  # CT-CT-HC
   1454    5     784     788     798  # CT-CT-HC
   1455    5     784     788     799  # CT-CT-HC
   1456    6     797     788     798  # HC-CT-HC
   1457    6     797     788     799  # HC-CT-HC
   1458    6     798     788     799  # HC-CT-HC
   1459    5     785     791     800  # CT-CT-HC
   1460    5     785     791     801  # CT-CT-HC
   1461    5     785     791     802  # CT-CT-HC
   1462    6     800     791     801  # HC-CT-HC
   1463    6     800     791     802  # HC-CT-HC
   1464    6     801     791     802  # HC-CT-HC
   1465    5     786     794     803  # CT-CT-HC
   1466    5     786     794     804  # CT-CT-HC
   1467    5     786     794     805  # CT-CT-HC
   1468    6     803     794     804  # HC-CT-HC
   1469    6     803     794     805  # HC-CT-HC
   1470    6     804     794     805  # HC-CT-HC
   1471    1     807     806     808  # CT-NT-CT
   1472    1     807     806     809  # CT-NT-CT
   1473    2     807     806     810  # HN-NT-CT
   1474    1     808     806     809  # CT-NT-CT
   1475    2     808     806     810  # HN-NT-CT
   1476    2     809     806     810  # HN-NT-CT
   1477    3     806     807     811  # NT-CT-CT
   1478    4     806     807     812  # HC-CT-NT
   1479    4     806     807     813  # HC-CT-NT
   1480    5     811     807     812  # CT-CT-HC
   1481    5     811     807     813  # CT-CT-HC
   1482    6     812     807     813  # HC-CT-HC
   1483    3     806     808     814  # NT-CT-CT
   1484    4     806     808     815  # HC-CT-NT
   1485    4     806     808     816  # HC-CT-NT
   1486    5     814     808     815  # CT-CT-HC
   1487    5     814     808     816  # CT-CT-HC
   1488    6     815     808     816  # HC-CT-HC
   1489    3     806     809     817  # NT-CT-CT
   1490    4     806     809     818  # HC-CT-NT
   1491    4     806     809     819  # HC-CT-NT
   1492    5     817     809     818  # CT-CT-HC
   1493    5     817     809     819  # CT-CT-HC
   1494    6     818     809     819  # HC-CT-HC
   1495    5     807     811     820  # CT-CT-HC
   1496    5     807     811     821  # CT-CT-HC
   1497    5     807     811     822  # CT-CT-HC
   1498    6     820     811     821  # HC-CT-HC
   1499    6     820     811     822  # HC-CT-HC
   1500    6     821     811     822  # HC-CT-HC
   1501    5     808     814     823  # CT-CT-HC
   1502    5     808     814     824  # CT-CT-HC
   1503    5     808     814     825  # CT-CT-HC
   1504    6     823     814     824  # HC-CT-HC
   1505    6     823     814     825  # HC-CT-HC
   1506    6     824     814     825  # HC-CT-HC
   1507    5     809     817     826  # CT-CT-HC
   1508    5     809     817     827  # CT-CT-HC
   1509    5     809     817     828  # CT-CT-HC
   1510    6     826     817     827  # HC-CT-HC
   1511    6     826     817     828  # HC-CT-HC
   1512    6     827     817     828  # HC-CT-HC
   1513    1     830     829     831  # CT-NT-CT
   1514    1     830     829     832  # CT-NT-CT
   1515    2     830     829     833  # HN-NT-CT
   1516    1     831     829     832  # CT-NT-CT
   1517    2     831     829     833  # HN-NT-CT
   1518    2     832     829     833  # HN-NT-CT
   1519    3     829     830     834  # NT-CT-CT
   1520    4     829     830     835  # HC-CT-NT
   1521    4     829     830     836  # HC-CT-NT
   1522    5     834     830     835  # CT-CT-HC
   1523    5     834     830     836  # CT-CT-HC
   1524    6     835     830     836  # HC-CT-HC
   1525    3     829     831     837  # NT-CT-CT
   1526    4     829     831     838  # HC-CT-NT
   1527    4     829     831     839  # HC-CT-NT
   1528    5     837     831     838  # CT-CT-HC
   1529    5     837     831     839  # CT-CT-HC
   1530    6     838     831     839  # HC-CT-HC
   1531    3     829     832     840  # NT-CT-CT
   1532    4     829     832     841  # HC-CT-NT
   1533    4     829     832     842  # HC-CT-NT
   1534    5     840     832     841  # CT-CT-HC
   1535    5     840     832     842  # CT-CT-HC
   1536    6     841     832     842  # HC-CT-HC
   1537    5     830     834     843  # CT-CT-HC
   1538    5     830     834     844  # CT-CT-HC
   1539    5     830     834     845  # CT-CT-HC
   1540    6     843     834     844  # HC-CT-HC
   1541    6     843     834     845  # HC-CT-HC
   1542    6     844     834     845  # HC-CT-HC
   1543    5     831     837     846  # CT-CT-HC
   1544    5     831     837     847  # CT-CT-HC
   1545    5     831     837     848  # CT-CT-HC
   1546    6     846     837     847  # HC-CT-HC
   1547    6     846     837     848  # HC-CT-HC
   1548    6     847     837     848  # HC-CT-HC
   1549    5     832     840     849  # CT-CT-HC
   1550    5     832     840     850  # CT-CT-HC
   1551    5     832     840     851  # CT-CT-HC
   1552    6     849     840     850  # HC-CT-HC
   1553    6     849     840     851  # HC-CT-HC
   1554    6     850     840     851  # HC-CT-HC
   1555    1     853     852     854  # CT-NT-CT
   1556    1     853     852     855  # CT-NT-CT
   1557    2     853     852     856  # HN-NT-CT
   1558    1     854     852     855  # CT-NT-CT
   1559    2     854     852     856  # HN-NT-CT
   1560    2     855     852     856  # HN-NT-CT
   1561    3     852     853     857  # NT-CT-CT
   1562    4     852     853     858  # HC-CT-NT
   1563    4     852     853     859  # HC-CT-NT
   1564    5     857     853     858  # CT-CT-HC
   1565    5     857     853     859  # CT-CT-HC
   1566    6     858     853     859  # HC-CT-HC
   1567    3     852     854     860  # NT-CT-CT
   1568    4     852     854     861  # HC-CT-NT
   1569    4     852     854     862  # HC-CT-NT
   1570    5     860     854     861  # CT-CT-HC
   1571    5     860     854     862  # CT-CT-HC
   1572    6     861     854     862  # HC-CT-HC
   1573    3     852     855     863  # NT-CT-CT
   1574    4     852     855     864  # HC-CT-NT
   1575    4     852     855     865  # HC-CT-NT
   1576    5     863     855     864  # CT-CT-HC
   1577    5     863     855     865  # CT-CT-HC
   1578    6     864     855     865  # HC-CT-HC
   1579    5     853     857     866  # CT-CT-HC
   1580    5     853     857     867  # CT-CT-HC
   1581    5     853     857     868  # CT-CT-HC
   1582    6     866     857     867  # HC-CT-HC
   1583    6     866     857     868  # HC-CT-HC
   1584    6     867     857     868  # HC-CT-HC
   1585    5     854     860     869  # CT-CT-HC
   1586    5     854     860     870  # CT-CT-HC
   1587    5     854     860     871  # CT-CT-HC
   1588    6     869     860     870  # HC-CT-HC
   1589    6     869     860     871  # HC-CT-HC
   1590    6     870     860     871  # HC-CT-HC
   1591    5     855     863     872  # CT-CT-HC
   1592    5     855     863     873  # CT-CT-HC
   1593    5     855     863     874  # CT-CT-HC
   1594    6     872     863     873  # HC-CT-HC
   1595    6     872     863     874  # HC-CT-HC
   1596    6     873     863     874  # HC-CT-HC
   1597    1     876     875     877  # CT-NT-CT
   1598    1     876     875     878  # CT-NT-CT
   1599    2     876     875     879  # HN-NT-CT
   1600    1     877     875     878  # CT-NT-CT
   1601    2     877     875     879  # HN-NT-CT
   1602    2     878     875     879  # HN-NT-CT
   1603    3     875     876     880  # NT-CT-CT
   1604    4     875     876     881  # HC-CT-NT
   1605    4     875     876     882  # HC-CT-NT
   1606    5     880     876     881  # CT-CT-HC
   1607    5     880     876     882  # CT-CT-HC
   1608    6     881     876     882  # HC-CT-HC
   1609    3     875     877     883  # NT-CT-CT
   1610    4     875     877     884  # HC-CT-NT
   1611    4     875     877     885  # HC-CT-NT
   1612    5     883     877     884  # CT-CT-HC
   1613    5     883     877     885  # CT-CT-HC
   1614    6     884     877     885  # HC-CT-HC
   1615    3     875     878     886  # NT-CT-CT
   1616    4     875     878     887  # HC-CT-NT
   1617    4     875     878     888  # HC-CT-NT
   1618    5     886     878     887  # CT-CT-HC
   1619    5     886     878     888  # CT-CT-HC
   1620    6     887     878     888  # HC-CT-HC
   1621    5     876     880     889  # CT-CT-HC
   1622    5     876     880     890  # CT-CT-HC
   1623    5     876     880     891  # CT-CT-HC
   1624    6     889     880     890  # HC-CT-HC
   1625    6     889     880     891  # HC-CT-HC
   1626    6     890     880     891  # HC-CT-HC
   1627    5     877     883     892  # CT-CT-HC
   1628    5     877     883     893  # CT-CT-HC
   1629    5     877     883     894  # CT-CT-HC
   1630    6     892     883     893  # HC-CT-HC
   1631    6     892     883     894  # HC-CT-HC
   1632    6     893     883     894  # HC-CT-HC
   1633    5     878     886     895  # CT-CT-HC
   1634    5     878     886     896  # CT-CT-HC
   1635    5     878     886     897  # CT-CT-HC
   1636    6     895     886     896  # HC-CT-HC
   1637    6     895     886     897  # HC-CT-HC
   1638    6     896     886     897  # HC-CT-HC
   1639    1     899     898     900  # CT-NT-CT
   1640    1     899     898     901  # CT-NT-CT
   1641    2     899     898     902  # HN-NT-CT
   1642    1     900     898     901  # CT-NT-CT
   1643    2     900     898     902  # HN-NT-CT
   1644    2     901     898     902  # HN-NT-CT
   1645    3     898     899     903  # NT-CT-CT
   1646    4     898     899     904  # HC-CT-NT
   1647    4     898     899     905  # HC-CT-NT
   1648    5     903     899     904  # CT-CT-HC
   1649    5     903     899     905  # CT-CT-HC
   1650    6     904     899     905  # HC-CT-HC
   1651    3     898     900     906  # NT-CT-CT
   1652    4     898     900     907  # HC-CT-NT
   1653    4     898     900     908  # HC-CT-NT
   1654    5     906     900     907  # CT-CT-HC
   1655    5     906     900     908  # CT-CT-HC
   1656    6     907     900     908  # HC-CT-HC
   1657    3     898     901     909  # NT-CT-CT
   1658    4     898     901     910  # HC-CT-NT
   1659    4     898     901     911  # HC-CT-NT
   1660    5     909     901     910  # CT-CT-HC
   1661    5     909     901     911  # CT-CT-HC
   1662    6     910     901     911  # HC-CT-HC
   1663    5     899     903     912  # CT-CT-HC
   1664    5     899     903     913  # CT-CT-HC
   1665    5     899     903     914  # CT-CT-HC
   1666    6     912     903     913  # HC-CT-HC
   1667    6     912     903     914  # HC-CT-HC
   1668    6     913     903     914  # HC-CT-HC
   1669    5     900     906     915  # CT-CT-HC
   1670    5     900     906     916  # CT-CT-HC
   1671    5     900     906     917  # CT-CT-HC
   1672    6     915     906     916  # HC-CT-HC
   1673    6     915     906     917  # HC-CT-HC
   1674    6     916     906     917  # HC-CT-HC
   1675    5     901     909     918  # CT-CT-HC
   1676    5     901     909     919  # CT-CT-HC
   1677    5     901     909     920  # CT-CT-HC
   1678    6     918     909     919  # HC-CT-HC
   1679    6     918     909     920  # HC-CT-HC
   1680    6     919     909     920  # HC-CT-HC
   1681    1     922     921     923  # CT-NT-CT
   1682    1     922     921     924  # CT-NT-CT
   1683    2     922     921     925  # HN-NT-CT
   1684    1     923     921     924  # CT-NT-CT
   1685    2     923     921     925  # HN-NT-CT
   1686    2     924     921     925  # HN-NT-CT
   1687    3     921     922     926  # NT-CT-CT
   1688    4     921     922     927  # HC-CT-NT
   1689    4     921     922     928  # HC-CT-NT
   1690    5     926     922     927  # CT-CT-HC
   1691    5     926     922     928  # CT-CT-HC
   1692    6     927     922     928  # HC-CT-HC
   1693    3     921     923     929  # NT-CT-CT
   1694    4     921     923     930  # HC-CT-NT
   1695    4     921     923     931  # HC-CT-NT
   1696    5     929     923     930  # CT-CT-HC
   1697    5     929     923     931  # CT-CT-HC
   1698    6     930     923     931  # HC-CT-HC
   1699    3     921     924     932  # NT-CT-CT
   1700    4     921     924     933  # HC-CT-NT
   1701    4     921     924     934  # HC-CT-NT
   1702    5     932     924     933  # CT-CT-HC
   1703    5     932     924     934  # CT-CT-HC
   1704    6     933     924     934  # HC-CT-HC
   1705    5     922     926     935  # CT-CT-HC
   1706    5     922     926     936  # CT-CT-HC
   1707    5     922     926     937  # CT-CT-HC
   1708    6     935     926     936  # HC-CT-HC
   1709    6     935     926     937  # HC-CT-HC
   1710    6     936     926     937  # HC-CT-HC
   1711    5     923     929     938  # CT-CT-HC
   1712    5     923     929     939  # CT-CT-HC
   1713    5     923     929     940  # CT-CT-HC
   1714    6     938     929     939  # HC-CT-HC
   1715    6     938     929     940  # HC-CT-HC
   1716    6     939     929     940  # HC-CT-HC
   1717    5     924     932     941  # CT-CT-HC
   1718    5     924     932     942  # CT-CT-HC
   1719    5     924     932     943  # CT-CT-HC
   1720    6     941     932     942  # HC-CT-HC
   1721    6     941     932     943  # HC-CT-HC
   1722    6     942     932     943  # HC-CT-HC
   1723    1     945     944     946  # CT-NT-CT
   1724    1     945     944     947  # CT-NT-CT
   1725    2     945     944     948  # HN-NT-CT
   1726    1     946     944     947  # CT-NT-CT
   1727    2     946     944     948  # HN-NT-CT
   1728    2     947     944     948  # HN-NT-CT
   1729    3     944     945     949  # NT-CT-CT
   1730    4     944     945     950  # HC-CT-NT
   1731    4     944     945     951  # HC-CT-NT
   1732    5     949     945     950  # CT-CT-HC
   1733    5     949     945     951  # CT-CT-HC
   1734    6     950     945     951  # HC-CT-HC
   1735    3     944     946     952  # NT-CT-CT
   1736    4     944     946     953  # HC-CT-NT
   1737    4     944     946     954  # HC-CT-NT
   1738    5     952     946     953  # CT-CT-HC
   1739    5     952     946     954  # CT-CT-HC
   1740    6     953     946     954  # HC-CT-HC
   1741    3     944     947     955  # NT-CT-CT
   1742    4     944     947     956  # HC-CT-NT
   1743    4     944     947     957  # HC-CT-NT
   1744    5     955     947     956  # CT-CT-HC
   1745    5     955     947     957  # CT-CT-HC
   1746    6     956     947     957  # HC-CT-HC
   1747    5     945     949     958  # CT-CT-HC
   1748    5     945     949     959  # CT-CT-HC
   1749    5     945     949     960  # CT-CT-HC
   1750    6     958     949     959  # HC-CT-HC
   1751    6     958     949     960  # HC-CT-HC
   1752    6     959     949     960  # HC-CT-HC
   1753    5     946     952     961  # CT-CT-HC
   1754    5     946     952     962  # CT-CT-HC
   1755    5     946     952     963  # CT-CT-HC
   1756    6     961     952     962  # HC-CT-HC
   1757    6     961     952     963  # HC-CT-HC
   1758    6     962     952     963  # HC-CT-HC
   1759    5     947     955     964  # CT-CT-HC
   1760    5     947     955     965  # CT-CT-HC
   1761    5     947     955     966  # CT-CT-HC
   1762    6     964     955     965  # HC-CT-HC
   1763    6     964     955     966  # HC-CT-HC
   1764    6     965     955     966  # HC-CT-HC
   1765    1     968     967     969  # CT-NT-CT
   1766    1     968     967     970  # CT-NT-CT
   1767    2     968     967     971  # HN-NT-CT
   1768    1     969     967     970  # CT-NT-CT
   1769    2     969     967     971  # HN-NT-CT
   1770    2     970     967     971  # HN-NT-CT
   1771    3     967     968     972  # NT-CT-CT
   1772    4     967     968     973  # HC-CT-NT
   1773    4     967     968     974  # HC-CT-NT
   1774    5     972     968     973  # CT-CT-HC
   1775    5     972     968     974  # CT-CT-HC
   1776    6     973     968     974  # HC-CT-HC
   1777    3     967     969     975  # NT-CT-CT
   1778    4     967     969     976  # HC-CT-NT
   1779    4     967     969     977  # HC-CT-NT
   1780    5     975     969     976  # CT-CT-HC
   1781    5     975     969     977  # CT-CT-HC
   1782    6     976     969     977  # HC-CT-HC
   1783    3     967     970     978  # NT-CT-CT
   1784    4     967     970     979  # HC-CT-NT
   1785    4     967     970     980  # HC-CT-NT
   1786    5     978     970     979  # CT-CT-HC
   1787    5     978     970     980  # CT-CT-HC
   1788    6     979     970     980  # HC-CT-HC
   1789    5     968     972     981  # CT-CT-HC
   1790    5     968     972     982  # CT-CT-HC
   1791    5     968     972     983  # CT-CT-HC
   1792    6     981     972     982  # HC-CT-HC
   1793    6     981     972     983  # HC-CT-HC
   1794    6     982     972     983  # HC-CT-HC
   1795    5     969     975     984  # CT-CT-HC
   1796    5     969     975     985  # CT-CT-HC
   1797    5     969     975     986  # CT-CT-HC
   1798    6     984     975     985  # HC-CT-HC
   1799    6     984     975     986  # HC-CT-HC
   1800    6     985     975     986  # HC-CT-HC
   1801    5     970     978     987  # CT-CT-HC
   1802    5     970     978     988  # CT-CT-HC
   1803    5     970     978     989  # CT-CT-HC
   1804    6     987     978     988  # HC-CT-HC
   1805    6     987     978     989  # HC-CT-HC
   1806    6     988     978     989  # HC-CT-HC
   1807    1     991     990     992  # CT-NT-CT
   1808    1     991     990     993  # CT-NT-CT
   1809    2     991     990     994  # HN-NT-CT
   1810    1     992     990     993  # CT-NT-CT
   1811    2     992     990     994  # HN-NT-CT
   1812    2     993     990     994  # HN-NT-CT
   1813    3     990     991     995  # NT-CT-CT
   1814    4     990     991     996  # HC-CT-NT
   1815    4     990     991     997  # HC-CT-NT
   1816    5     995     991     996  # CT-CT-HC
   1817    5     995     991     997  # CT-CT-HC
   1818    6     996     991     997  # HC-CT-HC
   1819    3     990     992     998  # NT-CT-CT
   1820    4     990     992     999  # HC-CT-NT
   1821    4     990     992    1000  # HC-CT-NT
   1822    5     998     992     999  # CT-CT-HC
   1823    5     998     992    1000  # CT-CT-HC
   1824    6     999     992    1000  # HC-CT-HC
   1825    3     990     993    1001  # NT-CT-CT
   1826    4     990     993    1002  # HC-CT-NT
   1827    4     990     993    1003  # HC-CT-NT
   1828    5    1001     993    1002  # CT-CT-HC
   1829    5    1001     993    1003  # CT-CT-HC
   1830    6    1002     993    1003  # HC-CT-HC
   1831    5     991     995    1004  # CT-CT-HC
   1832    5     991     995    1005  # CT-CT-HC
   1833    5     991     995    1006  # CT-CT-HC
   1834    6    1004     995    1005  # HC-CT-HC
   1835    6    1004     995    1006  # HC-CT-HC
   1836    6    1005     995    1006  # HC-CT-HC
   1837    5     992     998    1007  # CT-CT-HC
   1838    5     992     998    1008  # CT-CT-HC
   1839    5     992     998    1009  # CT-CT-HC
   1840    6    1007     998    1008  # HC-CT-HC
   1841    6    1007     998    1009  # HC-CT-HC
   1842    6    1008     998    1009  # HC-CT-HC
   1843    5     993    1001    1010  # CT-CT-HC
   1844    5     993    1001    1011  # CT-CT-HC
   1845    5     993    1001    1012  # CT-CT-HC
   1846    6    1010    1001    1011  # HC-CT-HC
   1847    6    1010    1001    1012  # HC-CT-HC
   1848    6    1011    1001    1012  # HC-CT-HC
   1849    1    1014    1013    1015  # CT-NT-CT
   1850    1    1014    1013    1016  # CT-NT-CT
   1851    2    1014    1013    1017  # HN-NT-CT
   1852    1    1015    1013    1016  # CT-NT-CT
   1853    2    1015    1013    1017  # HN-NT-CT
   1854    2    1016    1013    1017  # HN-NT-CT
   1855    3    1013    1014    1018  # NT-CT-CT
   1856    4    1013    1014    1019  # HC-CT-NT
   1857    4    1013    1014    1020  # HC-CT-NT
   1858    5    1018    1014    1019  # CT-CT-HC
   1859    5    1018    1014    1020  # CT-CT-HC
   1860    6    1019    1014    1020  # HC-CT-HC
   1861    3    1013    1015    1021  # NT-CT-CT
   1862    4    1013    1015    1022  # HC-CT-NT
   1863    4    1013    1015    1023  # HC-CT-NT
   1864    5    1021    1015    1022  # CT-CT-HC
   1865    5    1021    1015    1023  # CT-CT-HC
   1866    6    1022    1015    1023  # HC-CT-HC
   1867    3    1013    1016    1024  # NT-CT-CT
   1868    4    1013    1016    1025  # HC-CT-NT
   1869    4    1013    1016    1026  # HC-CT-NT
   1870    5    1024    1016    1025  # CT-CT-HC
   1871    5    1024    1016    1026  # CT-CT-HC
   1872    6    1025    1016    1026  # HC-CT-HC
   1873    5    1014    1018    1027  # CT-CT-HC
   1874    5    1014    1018    1028  # CT-CT-HC
   1875    5    1014    1018    1029  # CT-CT-HC
   1876    6    1027    1018    1028  # HC-CT-HC
   1877    6    1027    1018    1029  # HC-CT-HC
   1878    6    1028    1018    1029  # HC-CT-HC
   1879    5    1015    1021    1030  # CT-CT-HC
   1880    5    1015    1021    1031  # CT-CT-HC
   1881    5    1015    1021    1032  # CT-CT-HC
   1882    6    1030    1021    1031  # HC-CT-HC
   1883    6    1030    1021    1032  # HC-CT-HC
   1884    6    1031    1021    1032  # HC-CT-HC
   1885    5    1016    1024    1033  # CT-CT-HC
   1886    5    1016    1024    1034  # CT-CT-HC
   1887    5    1016    1024    1035  # CT-CT-HC
   1888    6    1033    1024    1034  # HC-CT-HC
   1889    6    1033    1024    1035  # HC-CT-HC
   1890    6    1034    1024    1035  # HC-CT-HC
   1891    1    1037    1036    1038  # CT-NT-CT
   1892    1    1037    1036    1039  # CT-NT-CT
   1893    2    1037    1036    1040  # HN-NT-CT
   1894    1    1038    1036    1039  # CT-NT-CT
   1895    2    1038    1036    1040  # HN-NT-CT
   1896    2    1039    1036    1040  # HN-NT-CT
   1897    3    1036    1037    1041  # NT-CT-CT
   1898    4    1036    1037    1042  # HC-CT-NT
   1899    4    1036    1037    1043  # HC-CT-NT
   1900    5    1041    1037    1042  # CT-CT-HC
   1901    5    1041    1037    1043  # CT-CT-HC
   1902    6    1042    1037    1043  # HC-CT-HC
   1903    3    1036    1038    1044  # NT-CT-CT
   1904    4    1036    1038    1045  # HC-CT-NT
   1905    4    1036    1038    1046  # HC-CT-NT
   1906    5    1044    1038    1045  # CT-CT-HC
   1907    5    1044    1038    1046  # CT-CT-HC
   1908    6    1045    1038    1046  # HC-CT-HC
   1909    3    1036    1039    1047  # NT-CT-CT
   1910    4    1036    1039    1048  # HC-CT-NT
   1911    4    1036    1039    1049  # HC-CT-NT
   1912    5    1047    1039    1048  # CT-CT-HC
   1913    5    1047    1039    1049  # CT-CT-HC
   1914    6    1048    1039    1049  # HC-CT-HC
   1915    5    1037    1041    1050  # CT-CT-HC
   1916    5    1037    1041    1051  # CT-CT-HC
   1917    5    1037    1041    1052  # CT-CT-HC
   1918    6    1050    1041    1051  # HC-CT-HC
   1919    6    1050    1041    1052  # HC-CT-HC
   1920    6    1051    1041    1052  # HC-CT-HC
   1921    5    1038    1044    1053  # CT-CT-HC
   1922    5    1038    1044    1054  # CT-CT-HC
   1923    5    1038    1044    1055  # CT-CT-HC
   1924    6    1053    1044    1054  # HC-CT-HC
   1925    6    1053    1044    1055  # HC-CT-HC
   1926    6    1054    1044    1055  # HC-CT-HC
   1927    5    1039    1047    1056  # CT-CT-HC
   1928    5    1039    1047    1057  # CT-CT-HC
   1929    5    1039    1047    1058  # CT-CT-HC
   1930    6    1056    1047    1057  # HC-CT-HC
   1931    6    1056    1047    1058  # HC-CT-HC
   1932    6    1057    1047    1058  # HC-CT-HC
   1933    1    1060    1059    1061  # CT-NT-CT
   1934    1    1060    1059    1062  # CT-NT-CT
   1935    2    1060    1059    1063  # HN-NT-CT
   1936    1    1061    1059    1062  # CT-NT-CT
   1937    2    1061    1059    1063  # HN-NT-CT
   1938    2    1062    1059    1063  # HN-NT-CT
   1939    3    1059    1060    1064  # NT-CT-CT
   1940    4    1059    1060    1065  # HC-CT-NT
   1941    4    1059    1060    1066  # HC-CT-NT
   1942    5    1064    1060    1065  # CT-CT-HC
   1943    5    1064    1060    1066  # CT-CT-HC
   1944    6    1065    1060    1066  # HC-CT-HC
   1945    3    1059    1061    1067  # NT-CT-CT
   1946    4    1059    1061    1068  # HC-CT-NT
   1947    4    1059    1061    1069  # HC-CT-NT
   1948    5    1067    1061    1068  # CT-CT-HC
   1949    5    1067    1061    1069  # CT-CT-HC
   1950    6    1068    1061    1069  # HC-CT-HC
   1951    3    1059    1062    1070  # NT-CT-CT
   1952    4    1059    1062    1071  # HC-CT-NT
   1953    4    1059    1062    1072  # HC-CT-NT
   1954    5    1070    1062    1071  # CT-CT-HC
   1955    5    1070    1062    1072  # CT-CT-HC
   1956    6    1071    1062    1072  # HC-CT-HC
   1957    5    1060    1064    1073  # CT-CT-HC
   1958    5    1060    1064    1074  # CT-CT-HC
   1959    5    1060    1064    1075  # CT-CT-HC
   1960    6    1073    1064    1074  # HC-CT-HC
   1961    6    1073    1064    1075  # HC-CT-HC
   1962    6    1074    1064    1075  # HC-CT-HC
   1963    5    1061    1067    1076  # CT-CT-HC
   1964    5    1061    1067    1077  # CT-CT-HC
   1965    5    1061    1067    1078  # CT-CT-HC
   1966    6    1076    1067    1077  # HC-CT-HC
   1967    6    1076    1067    1078  # HC-CT-HC
   1968    6    1077    1067    1078  # HC-CT-HC
   1969    5    1062    1070    1079  # CT-CT-HC
   1970    5    1062    1070    1080  # CT-CT-HC
   1971    5    1062    1070    1081  # CT-CT-HC
   1972    6    1079    1070    1080  # HC-CT-HC
   1973    6    1079    1070    1081  # HC-CT-HC
   1974    6    1080    1070    1081  # HC-CT-HC
   1975    1    1083    1082    1084  # CT-NT-CT
   1976    1    1083    1082    1085  # CT-NT-CT
   1977    2    1083    1082    1086  # HN-NT-CT
   1978    1    1084    1082    1085  # CT-NT-CT
   1979    2    1084    1082    1086  # HN-NT-CT
   1980    2    1085    1082    1086  # HN-NT-CT
   1981    3    1082    1083    1087  # NT-CT-CT
   1982    4    1082    1083    1088  # HC-CT-NT
   1983    4    1082    1083    1089  # HC-CT-NT
   1984    5    1087    1083    1088  # CT-CT-HC
   1985    5    1087    1083    1089  # CT-CT-HC
   1986    6    1088    1083    1089  # HC-CT-HC
   1987    3    1082    1084    1090  # NT-CT-CT
   1988    4    1082    1084    1091  # HC-CT-NT
   1989    4    1082    1084    1092  # HC-CT-NT
   1990    5    1090    1084    1091  # CT-CT-HC
   1991    5    1090    1084    1092  # CT-CT-HC
   1992    6    1091    1084    1092  # HC-CT-HC
   1993    3    1082    1085    1093  # NT-CT-CT
   1994    4    1082    1085    1094  # HC-CT-NT
   1995    4    1082    1085    1095  # HC-CT-NT
   1996    5    1093    1085    1094  # CT-CT-HC
   1997    5    1093    1085    1095  # CT-CT-HC
   1998    6    1094    1085    1095  # HC-CT-HC
   1999    5    1083    1087    1096  # CT-CT-HC
   2000    5    1083    1087    1097  # CT-CT-HC
   2001    5    1083    1087    1098  # CT-CT-HC
   2002    6    1096    1087    1097  # HC-CT-HC
   2003    6    1096    1087    1098  # HC-CT-HC
   2004    6    1097    1087    1098  # HC-CT-HC
   2005    5    1084    1090    1099  # CT-CT-HC
   2006    5    1084    1090    1100  # CT-CT-HC
   2007    5    1084    1090    1101  # CT-CT-HC
   2008    6    1099    1090    1100  # HC-CT-HC
   2009    6    1099    1090    1101  # HC-CT-HC
   2010    6    1100    1090    1101  # HC-CT-HC
   2011    5    1085    1093    1102  # CT-CT-HC
   2012    5    1085    1093    1103  # CT-CT-HC
   2013    5    1085    1093    1104  # CT-CT-HC
   2014    6    1102    1093    1103  # HC-CT-HC
   2015    6    1102    1093    1104  # HC-CT-HC
   2016    6    1103    1093    1104  # HC-CT-HC
   2017    1    1106    1105    1107  # CT-NT-CT
   2018    1    1106    1105    1108  # CT-NT-CT
   2019    2    1106    1105    1109  # HN-NT-CT
   2020    1    1107    1105    1108  # CT-NT-CT
   2021    2    1107    1105    1109  # HN-NT-CT
   2022    2    1108    1105    1109  # HN-NT-CT
   2023    3    1105    1106    1110  # NT-CT-CT
   2024    4    1105    1106    1111  # HC-CT-NT
   2025    4    1105    1106    1112  # HC-CT-NT
   2026    5    1110    1106    1111  # CT-CT-HC
   2027    5    1110    1106    1112  # CT-CT-HC
   2028    6    1111    1106    1112  # HC-CT-HC
   2029    3    1105    1107    1113  # NT-CT-CT
   2030    4    1105    1107    1114  # HC-CT-NT
   2031    4    1105    1107    1115  # HC-CT-NT
   2032    5    1113    1107    1114  # CT-CT-HC
   2033    5    1113    1107    1115  # CT-CT-HC
   2034    6    1114    1107    1115  # HC-CT-HC
   2035    3    1105    1108    1116  # NT-CT-CT
   2036    4    1105    1108    1117  # HC-CT-NT
   2037    4    1105    1108    1118  # HC-CT-NT
   2038    5    1116    1108    1117  # CT-CT-HC
   2039    5    1116    1108    1118  # CT-CT-HC
   2040    6    1117    1108    1118  # HC-CT-HC
   2041    5    1106    1110    1119  # CT-CT-HC
   2042    5    1106    1110    1120  # CT-CT-HC
   2043    5    1106    1110    1121  # CT-CT-HC
   2044    6    1119    1110    1120  # HC-CT-HC
   2045    6    1119    1110    1121  # HC-CT-HC
   2046    6    1120    1110    1121  # HC-CT-HC
   2047    5    1107    1113    1122  # CT-CT-HC
   2048    5    1107    1113    1123  # CT-CT-HC
   2049    5    1107    1113    1124  # CT-CT-HC
   2050    6    1122    1113    1123  # HC-CT-HC
   2051    6    1122    1113    1124  # HC-CT-HC
   2052    6    1123    1113    1124  # HC-CT-HC
   2053    5    1108    1116    1125  # CT-CT-HC
   2054    5    1108    1116    1126  # CT-CT-HC
   2055    5    1108    1116    1127  # CT-CT-HC
   2056    6    1125    1116    1126  # HC-CT-HC
   2057    6    1125    1116    1127  # HC-CT-HC
   2058    6    1126    1116    1127  # HC-CT-HC
   2059    1    1129    1128    1130  # CT-NT-CT
   2060    1    1129    1128    1131  # CT-NT-CT
   2061    2    1129    1128    1132  # HN-NT-CT
   2062    1    1130    1128    1131  # CT-NT-CT
   2063    2    1130    1128    1132  # HN-NT-CT
   2064    2    1131    1128    1132  # HN-NT-CT
   2065    3    1128    1129    1133  # NT-CT-CT
   2066    4    1128    1129    1134  # HC-CT-NT
   2067    4    1128    1129    1135  # HC-CT-NT
   2068    5    1133    1129    1134  # CT-CT-HC
   2069    5    1133    1129    1135  # CT-CT-HC
   2070    6    1134    1129    1135  # HC-CT-HC
   2071    3    1128    1130    1136  # NT-CT-CT
   2072    4    1128    1130    1137  # HC-CT-NT
   2073    4    1128    1130    1138  # HC-CT-NT
   2074    5    1136    1130    1137  # CT-CT-HC
   2075    5    1136    1130    1138  # CT-CT-HC
   2076    6    1137    1130    1138  # HC-CT-HC
   2077    3    1128    1131    1139  # NT-CT-CT
   2078    4    1128    1131    1140  # HC-CT-NT
   2079    4    1128    1131    1141  # HC-CT-NT
   2080    5    1139    1131    1140  # CT-CT-HC
   2081    5    1139    1131    1141  # CT-CT-HC
   2082    6    1140    1131    1141  # HC-CT-HC
   2083    5    1129    1133    1142  # CT-CT-HC
   2084    5    1129    1133    1143  # CT-CT-HC
   2085    5    1129    1133    1144  # CT-CT-HC
   2086    6    1142    1133    1143  # HC-CT-HC
   2087    6    1142    1133    1144  # HC-CT-HC
   2088    6    1143    1133    1144  # HC-CT-HC
   2089    5    1130    1136    1145  # CT-CT-HC
   2090    5    1130    1136    1146  # CT-CT-HC
   2091    5    1130    1136    1147  # CT-CT-HC
   2092    6    1145    1136    1146  # HC-CT-HC
   2093    6    1145    1136    1147  # HC-CT-HC
   2094    6    1146    1136    1147  # HC-CT-HC
   2095    5    1131    1139    1148  # CT-CT-HC
   2096    5    1131    1139    1149  # CT-CT-HC
   2097    5    1131    1139    1150  # CT-CT-HC
   2098    6    1148    1139    1149  # HC-CT-HC
   2099    6    1148    1139    1150  # HC-CT-HC
   2100    6    1149    1139    1150  # HC-CT-HC
   2101    1    1152    1151    1153  # CT-NT-CT
   2102    1    1152    1151    1154  # CT-NT-CT
   2103    2    1152    1151    1155  # HN-NT-CT
   2104    1    1153    1151    1154  # CT-NT-CT
   2105    2    1153    1151    1155  # HN-NT-CT
   2106    2    1154    1151    1155  # HN-NT-CT
   2107    3    1151    1152    1156  # NT-CT-CT
   2108    4    1151    1152    1157  # HC-CT-NT
   2109    4    1151    1152    1158  # HC-CT-NT
   2110    5    1156    1152    1157  # CT-CT-HC
   2111    5    1156    1152    1158  # CT-CT-HC
   2112    6    1157    1152    1158  # HC-CT-HC
   2113    3    1151    1153    1159  # NT-CT-CT
   2114    4    1151    1153    1160  # HC-CT-NT
   2115    4    1151    1153    1161  # HC-CT-NT
   2116    5    1159    1153    1160  # CT-CT-HC
   2117    5    1159    1153    1161  # CT-CT-HC
   2118    6    1160    1153    1161  # HC-CT-HC
   2119    3    1151    1154    1162  # NT-CT-CT
   2120    4    1151    1154    1163  # HC-CT-NT
   2121    4    1151    1154    1164  # HC-CT-NT
   2122    5    1162    1154    1163  # CT-CT-HC
   2123    5    1162    1154    1164  # CT-CT-HC
   2124    6    1163    1154    1164  # HC-CT-HC
   2125    5    1152    1156    1165  # CT-CT-HC
   2126    5    1152    1156    1166  # CT-CT-HC
   2127    5    1152    1156    1167  # CT-CT-HC
   2128    6    1165    1156    1166  # HC-CT-HC
   2129    6    1165    1156    1167  # HC-CT-HC
   2130    6    1166    1156    1167  # HC-CT-HC
   2131    5    1153    1159    1168  # CT-CT-HC
   2132    5    1153    1159    1169  # CT-CT-HC
   2133    5    1153    1159    1170  # CT-CT-HC
   2134    6    1168    1159    1169  # HC-CT-HC
   2135    6    1168    1159    1170  # HC-CT-HC
   2136    6    1169    1159    1170  # HC-CT-HC
   2137    5    1154    1162    1171  # CT-CT-HC
   2138    5    1154    1162    1172  # CT-CT-HC
   2139    5    1154    1162    1173  # CT-CT-HC
   2140    6    1171    1162    1172  # HC-CT-HC
   2141    6    1171    1162    1173  # HC-CT-HC
   2142    6    1172    1162    1173  # HC-CT-HC
   2143    1    1175    1174    1176  # CT-NT-CT
   2144    1    1175    1174    1177  # CT-NT-CT
   2145    2    1175    1174    1178  # HN-NT-CT
   2146    1    1176    1174    1177  # CT-NT-CT
   2147    2    1176    1174    1178  # HN-NT-CT
   2148    2    1177    1174    1178  # HN-NT-CT
   2149    3    1174    1175    1179  # NT-CT-CT
   2150    4    1174    1175    1180  # HC-CT-NT
   2151    4    1174    1175    1181  # HC-CT-NT
   2152    5    1179    1175    1180  # CT-CT-HC
   2153    5    1179    1175    1181  # CT-CT-HC
   2154    6    1180    1175    1181  # HC-CT-HC
   2155    3    1174    1176    1182  # NT-CT-CT
   2156    4    1174    1176    1183  # HC-CT-NT
   2157    4    1174    1176    1184  # HC-CT-NT
   2158    5    1182    1176    1183  # CT-CT-HC
   2159    5    1182    1176    1184  # CT-CT-HC
   2160    6    1183    1176    1184  # HC-CT-HC
   2161    3    1174    1177    1185  # NT-CT-CT
   2162    4    1174    1177    1186  # HC-CT-NT
   2163    4    1174    1177    1187  # HC-CT-NT
   2164    5    1185    1177    1186  # CT-CT-HC
   2165    5    1185    1177    1187  # CT-CT-HC
   2166    6    1186    1177    1187  # HC-CT-HC
   2167    5    1175    1179    1188  # CT-CT-HC
   2168    5    1175    1179    1189  # CT-CT-HC
   2169    5    1175    1179    1190  # CT-CT-HC
   2170    6    1188    1179    1189  # HC-CT-HC
   2171    6    1188    1179    1190  # HC-CT-HC
   2172    6    1189    1179    1190  # HC-CT-HC
   2173    5    1176    1182    1191  # CT-CT-HC
   2174    5    1176    1182    1192  # CT-CT-HC
   2175    5    1176    1182    1193  # CT-CT-HC
   2176    6    1191    1182    1192  # HC-CT-HC
   2177    6    1191    1182    1193  # HC-CT-HC
   2178    6    1192    1182    1193  # HC-CT-HC
   2179    5    1177    1185    1194  # CT-CT-HC
   2180    5    1177    1185    1195  # CT-CT-HC
   2181    5    1177    1185    1196  # CT-CT-HC
   2182    6    1194    1185    1195  # HC-CT-HC
   2183    6    1194    1185    1196  # HC-CT-HC
   2184    6    1195    1185    1196  # HC-CT-HC
   2185    1    1198    1197    1199  # CT-NT-CT
   2186    1    1198    1197    1200  # CT-NT-CT
   2187    2    1198    1197    1201  # HN-NT-CT
   2188    1    1199    1197    1200  # CT-NT-CT
   2189    2    1199    1197    1201  # HN-NT-CT
   2190    2    1200    1197    1201  # HN-NT-CT
   2191    3    1197    1198    1202  # NT-CT-CT
   2192    4    1197    1198    1203  # HC-CT-NT
   2193    4    1197    1198    1204  # HC-CT-NT
   2194    5    1202    1198    1203  # CT-CT-HC
   2195    5    1202    1198    1204  # CT-CT-HC
   2196    6    1203    1198    1204  # HC-CT-HC
   2197    3    1197    1199    1205  # NT-CT-CT
   2198    4    1197    1199    1206  # HC-CT-NT
   2199    4    1197    1199    1207  # HC-CT-NT
   2200    5    1205    1199    1206  # CT-CT-HC
   2201    5    1205    1199    1207  # CT-CT-HC
   2202    6    1206    1199    1207  # HC-CT-HC
   2203    3    1197    1200    1208  # NT-CT-CT
   2204    4    1197    1200    1209  # HC-CT-NT
   2205    4    1197    1200    1210  # HC-CT-NT
   2206    5    1208    1200    1209  # CT-CT-HC
   2207    5    1208    1200    1210  # CT-CT-HC
   2208    6    1209    1200    1210  # HC-CT-HC
   2209    5    1198    1202    1211  # CT-CT-HC
   2210    5    1198    1202    1212  # CT-CT-HC
   2211    5    1198    1202    1213  # CT-CT-HC
   2212    6    1211    1202    1212  # HC-CT-HC
   2213    6    1211    1202    1213  # HC-CT-HC
   2214    6    1212    1202    1213  # HC-CT-HC
   2215    5    1199    1205    1214  # CT-CT-HC
   2216    5    1199    1205    1215  # CT-CT-HC
   2217    5    1199    1205    1216  # CT-CT-HC
   2218    6    1214    1205    1215  # HC-CT-HC
   2219    6    1214    1205    1216  # HC-CT-HC
   2220    6    1215    1205    1216  # HC-CT-HC
   2221    5    1200    1208    1217  # CT-CT-HC
   2222    5    1200    1208    1218  # CT-CT-HC
   2223    5    1200    1208    1219  # CT-CT-HC
   2224    6    1217    1208    1218  # HC-CT-HC
   2225    6    1217    1208    1219  # HC-CT-HC
   2226    6    1218    1208    1219  # HC-CT-HC
   2227    1    1221    1220    1222  # CT-NT-CT
   2228    1    1221    1220    1223  # CT-NT-CT
   2229    2    1221    1220    1224  # HN-NT-CT
   2230    1    1222    1220    1223  # CT-NT-CT
   2231    2    1222    1220    1224  # HN-NT-CT
   2232    2    1223    1220    1224  # HN-NT-CT
   2233    3    1220    1221    1225  # NT-CT-CT
   2234    4    1220    1221    1226  # HC-CT-NT
   2235    4    1220    1221    1227  # HC-CT-NT
   2236    5    1225    1221    1226  # CT-CT-HC
   2237    5    1225    1221    1227  # CT-CT-HC
   2238    6    1226    1221    1227  # HC-CT-HC
   2239    3    1220    1222    1228  # NT-CT-CT
   2240    4    1220    1222    1229  # HC-CT-NT
   2241    4    1220    1222    1230  # HC-CT-NT
   2242    5    1228    1222    1229  # CT-CT-HC
   2243    5    1228    1222    1230  # CT-CT-HC
   2244    6    1229    1222    1230  # HC-CT-HC
   2245    3    1220    1223    1231  # NT-CT-CT
   2246    4    1220    1223    1232  # HC-CT-NT
   2247    4    1220    1223    1233  # HC-CT-NT
   2248    5    1231    1223    1232  # CT-CT-HC
   2249    5    1231    1223    1233  # CT-CT-HC
   2250    6    1232    1223    1233  # HC-CT-HC
   2251    5    1221    1225    1234  # CT-CT-HC
   2252    5    1221    1225    1235  # CT-CT-HC
   2253    5    1221    1225    1236  # CT-CT-HC
   2254    6    1234    1225    1235  # HC-CT-HC
   2255    6    1234    1225    1236  # HC-CT-HC
   2256    6    1235    1225    1236  # HC-CT-HC
   2257    5    1222    1228    1237  # CT-CT-HC
   2258    5    1222    1228    1238  # CT-CT-HC
   2259    5    1222    1228    1239  # CT-CT-HC
   2260    6    1237    1228    1238  # HC-CT-HC
   2261    6    1237    1228    1239  # HC-CT-HC
   2262    6    1238    1228    1239  # HC-CT-HC
   2263    5    1223    1231    1240  # CT-CT-HC
   2264    5    1223    1231    1241  # CT-CT-HC
   2265    5    1223    1231    1242  # CT-CT-HC
   2266    6    1240    1231    1241  # HC-CT-HC
   2267    6    1240    1231    1242  # HC-CT-HC
   2268    6    1241    1231    1242  # HC-CT-HC
   2269    1    1244    1243    1245  # CT-NT-CT
   2270    1    1244    1243    1246  # CT-NT-CT
   2271    2    1244    1243    1247  # HN-NT-CT
   2272    1    1245    1243    1246  # CT-NT-CT
   2273    2    1245    1243    1247  # HN-NT-CT
   2274    2    1246    1243    1247  # HN-NT-CT
   2275    3    1243    1244    1248  # NT-CT-CT
   2276    4    1243    1244    1249  # HC-CT-NT
   2277    4    1243    1244    1250  # HC-CT-NT
   2278    5    1248    1244    1249  # CT-CT-HC
   2279    5    1248    1244    1250  # CT-CT-HC
   2280    6    1249    1244    1250  # HC-CT-HC
   2281    3    1243    1245    1251  # NT-CT-CT
   2282    4    1243    1245    1252  # HC-CT-NT
   2283    4    1243    1245    1253  # HC-CT-NT
   2284    5    1251    1245    1252  # CT-CT-HC
   2285    5    1251    1245    1253  # CT-CT-HC
   2286    6    1252    1245    1253  # HC-CT-HC
   2287    3    1243    1246    1254  # NT-CT-CT
   2288    4    1243    1246    1255  # HC-CT-NT
   2289    4    1243    1246    1256  # HC-CT-NT
   2290    5    1254    1246    1255  # CT-CT-HC
   2291    5    1254    1246    1256  # CT-CT-HC
   2292    6    1255    1246    1256  # HC-CT-HC
   2293    5    1244    1248    1257  # CT-CT-HC
   2294    5    1244    1248    1258  # CT-CT-HC
   2295    5    1244    1248    1259  # CT-CT-HC
   2296    6    1257    1248    1258  # HC-CT-HC
   2297    6    1257    1248    1259  # HC-CT-HC
   2298    6    1258    1248    1259  # HC-CT-HC
   2299    5    1245    1251    1260  # CT-CT-HC
   2300    5    1245    1251    1261  # CT-CT-HC
   2301    5    1245    1251    1262  # CT-CT-HC
   2302    6    1260    1251    1261  # HC-CT-HC
   2303    6    1260    1251    1262  # HC-CT-HC
   2304    6    1261    1251    1262  # HC-CT-HC
   2305    5    1246    1254    1263  # CT-CT-HC
   2306    5    1246    1254    1264  # CT-CT-HC
   2307    5    1246    1254    1265  # CT-CT-HC
   2308    6    1263    1254    1264  # HC-CT-HC
   2309    6    1263    1254    1265  # HC-CT-HC
   2310    6    1264    1254    1265  # HC-CT-HC
   2311    1    1267    1266    1268  # CT-NT-CT
   2312    1    1267    1266    1269  # CT-NT-CT
   2313    2    1267    1266    1270  # HN-NT-CT
   2314    1    1268    1266    1269  # CT-NT-CT
   2315    2    1268    1266    1270  # HN-NT-CT
   2316    2    1269    1266    1270  # HN-NT-CT
   2317    3    1266    1267    1271  # NT-CT-CT
   2318    4    1266    1267    1272  # HC-CT-NT
   2319    4    1266    1267    1273  # HC-CT-NT
   2320    5    1271    1267    1272  # CT-CT-HC
   2321    5    1271    1267    1273  # CT-CT-HC
   2322    6    1272    1267    1273  # HC-CT-HC
   2323    3    1266    1268    1274  # NT-CT-CT
   2324    4    1266    1268    1275  # HC-CT-NT
   2325    4    1266    1268    1276  # HC-CT-NT
   2326    5    1274    1268    1275  # CT-CT-HC
   2327    5    1274    1268    1276  # CT-CT-HC
   2328    6    1275    1268    1276  # HC-CT-HC
   2329    3    1266    1269    1277  # NT-CT-CT
   2330    4    1266    1269    1278  # HC-CT-NT
   2331    4    1266    1269    1279  # HC-CT-NT
   2332    5    1277    1269    1278  # CT-CT-HC
   2333    5    1277    1269    1279  # CT-CT-HC
   2334    6    1278    1269    1279  # HC-CT-HC
   2335    5    1267    1271    1280  # CT-CT-HC
   2336    5    1267    1271    1281  # CT-CT-HC
   2337    5    1267    1271    1282  # CT-CT-HC
   2338    6    1280    1271    1281  # HC-CT-HC
   2339    6    1280    1271    1282  # HC-CT-HC
   2340    6    1281    1271    1282  # HC-CT-HC
   2341    5    1268    1274    1283  # CT-CT-HC
   2342    5    1268    1274    1284  # CT-CT-HC
   2343    5    1268    1274    1285  # CT-CT-HC
   2344    6    1283    1274    1284  # HC-CT-HC
   2345    6    1283    1274    1285  # HC-CT-HC
   2346    6    1284    1274    1285  # HC-CT-HC
   2347    5    1269    1277    1286  # CT-CT-HC
   2348    5    1269    1277    1287  # CT-CT-HC
   2349    5    1269    1277    1288  # CT-CT-HC
   2350    6    1286    1277    1287  # HC-CT-HC
   2351    6    1286    1277    1288  # HC-CT-HC
   2352    6    1287    1277    1288  # HC-CT-HC
   2353    1    1290    1289    1291  # CT-NT-CT
   2354    1    1290    1289    1292  # CT-NT-CT
   2355    2    1290    1289    1293  # HN-NT-CT
   2356    1    1291    1289    1292  # CT-NT-CT
   2357    2    1291    1289    1293  # HN-NT-CT
   2358    2    1292    1289    1293  # HN-NT-CT
   2359    3    1289    1290    1294  # NT-CT-CT
   2360    4    1289    1290    1295  # HC-CT-NT
   2361    4    1289    1290    1296  # HC-CT-NT
   2362    5    1294    1290    1295  # CT-CT-HC
   2363    5    1294    1290    1296  # CT-CT-HC
   2364    6    1295    1290    1296  # HC-CT-HC
   2365    3    1289    1291    1297  # NT-CT-CT
   2366    4    1289    1291    1298  # HC-CT-NT
   2367    4    1289    1291    1299  # HC-CT-NT
   2368    5    1297    1291    1298  # CT-CT-HC
   2369    5    1297    1291    1299  # CT-CT-HC
   2370    6    1298    1291    1299  # HC-CT-HC
   2371    3    1289    1292    1300  # NT-CT-CT
   2372    4    1289    1292    1301  # HC-CT-NT
   2373    4    1289    1292    1302  # HC-CT-NT
   2374    5    1300    1292    1301  # CT-CT-HC
   2375    5    1300    1292    1302  # CT-CT-HC
   2376    6    1301    1292    1302  # HC-CT-HC
   2377    5    1290    1294    1303  # CT-CT-HC
   2378    5    1290    1294    1304  # CT-CT-HC
   2379    5    1290    1294    1305  # CT-CT-HC
   2380    6    1303    1294    1304  # HC-CT-HC
   2381    6    1303    1294    1305  # HC-CT-HC
   2382    6    1304    1294    1305  # HC-CT-HC
   2383    5    1291    1297    1306  # CT-CT-HC
   2384    5    1291    1297    1307  # CT-CT-HC
   2385    5    1291    1297    1308  # CT-CT-HC
   2386    6    1306    1297    1307  # HC-CT-HC
   2387    6    1306    1297    1308  # HC-CT-HC
   2388    6    1307    1297    1308  # HC-CT-HC
   2389    5    1292    1300    1309  # CT-CT-HC
   2390    5    1292    1300    1310  # CT-CT-HC
   2391    5    1292    1300    1311  # CT-CT-HC
   2392    6    1309    1300    1310  # HC-CT-HC
   2393    6    1309    1300    1311  # HC-CT-HC
   2394    6    1310    1300    1311  # HC-CT-HC
   2395    1    1313    1312    1314  # CT-NT-CT
   2396    1    1313    1312    1315  # CT-NT-CT
   2397    2    1313    1312    1316  # HN-NT-CT
   2398    1    1314    1312    1315  # CT-NT-CT
   2399    2    1314    1312    1316  # HN-NT-CT
   2400    2    1315    1312    1316  # HN-NT-CT
   2401    3    1312    1313    1317  # NT-CT-CT
   2402    4    1312    1313    1318  # HC-CT-NT
   2403    4    1312    1313    1319  # HC-CT-NT
   2404    5    1317    1313    1318  # CT-CT-HC
   2405    5    1317    1313    1319  # CT-CT-HC
   2406    6    1318    1313    1319  # HC-CT-HC
   2407    3    1312    1314    1320  # NT-CT-CT
   2408    4    1312    1314    1321  # HC-CT-NT
   2409    4    1312    1314    1322  # HC-CT-NT
   2410    5    1320    1314    1321  # CT-CT-HC
   2411    5    1320    1314    1322  # CT-CT-HC
   2412    6    1321    1314    1322  # HC-CT-HC
   2413    3    1312    1315    1323  # NT-CT-CT
   2414    4    1312    1315    1324  # HC-CT-NT
   2415    4    1312    1315    1325  # HC-CT-NT
   2416    5    1323    1315    1324  # CT-CT-HC
   2417    5    1323    1315    1325  # CT-CT-HC
   2418    6    1324    1315    1325  # HC-CT-HC
   2419    5    1313    1317    1326  # CT-CT-HC
   2420    5    1313    1317    1327  # CT-CT-HC
   2421    5    1313    1317    1328  # CT-CT-HC
   2422    6    1326    1317    1327  # HC-CT-HC
   2423    6    1326    1317    1328  # HC-CT-HC
   2424    6    1327    1317    1328  # HC-CT-HC
   2425    5    1314    1320    1329  # CT-CT-HC
   2426    5    1314    1320    1330  # CT-CT-HC
   2427    5    1314    1320    1331  # CT-CT-HC
   2428    6    1329    1320    1330  # HC-CT-HC
   2429    6    1329    1320    1331  # HC-CT-HC
   2430    6    1330    1320    1331  # HC-CT-HC
   2431    5    1315    1323    1332  # CT-CT-HC
   2432    5    1315    1323    1333  # CT-CT-HC
   2433    5    1315    1323    1334  # CT-CT-HC
   2434    6    1332    1323    1333  # HC-CT-HC
   2435    6    1332    1323    1334  # HC-CT-HC
   2436    6    1333    1323    1334  # HC-CT-HC
   2437    1    1336    1335    1337  # CT-NT-CT
   2438    1    1336    1335    1338  # CT-NT-CT
   2439    2    1336    1335    1339  # HN-NT-CT
   2440    1    1337    1335    1338  # CT-NT-CT
   2441    2    1337    1335    1339  # HN-NT-CT
   2442    2    1338    1335    1339  # HN-NT-CT
   2443    3    1335    1336    1340  # NT-CT-CT
   2444    4    1335    1336    1341  # HC-CT-NT
   2445    4    1335    1336    1342  # HC-CT-NT
   2446    5    1340    1336    1341  # CT-CT-HC
   2447    5    1340    1336    1342  # CT-CT-HC
   2448    6    1341    1336    1342  # HC-CT-HC
   2449    3    1335    1337    1343  # NT-CT-CT
   2450    4    1335    1337    1344  # HC-CT-NT
   2451    4    1335    1337    1345  # HC-CT-NT
   2452    5    1343    1337    1344  # CT-CT-HC
   2453    5    1343    1337    1345  # CT-CT-HC
   2454    6    1344    1337    1345  # HC-CT-HC
   2455    3    1335    1338    1346  # NT-CT-CT
   2456    4    1335    1338    1347  # HC-CT-NT
   2457    4    1335    1338    1348  # HC-CT-NT
   2458    5    1346    1338    1347  # CT-CT-HC
   2459    5    1346    1338    1348  # CT-CT-HC
   2460    6    1347    1338    1348  # HC-CT-HC
   2461    5    1336    1340    1349  # CT-CT-HC
   2462    5    1336    1340    1350  # CT-CT-HC
   2463    5    1336    1340    1351  # CT-CT-HC
   2464    6    1349    1340    1350  # HC-CT-HC
   2465    6    1349    1340    1351  # HC-CT-HC
   2466    6    1350    1340    1351  # HC-CT-HC
   2467    5    1337    1343    1352  # CT-CT-HC
   2468    5    1337    1343    1353  # CT-CT-HC
   2469    5    1337    1343    1354  # CT-CT-HC
   2470    6    1352    1343    1353  # HC-CT-HC
   2471    6    1352    1343    1354  # HC-CT-HC
   2472    6    1353    1343    1354  # HC-CT-HC
   2473    5    1338    1346    1355  # CT-CT-HC
   2474    5    1338    1346    1356  # CT-CT-HC
   2475    5    1338    1346    1357  # CT-CT-HC
   2476    6    1355    1346    1356  # HC-CT-HC
   2477    6    1355    1346    1357  # HC-CT-HC
   2478    6    1356    1346    1357  # HC-CT-HC
   2479    1    1359    1358    1360  # CT-NT-CT
   2480    1    1359    1358    1361  # CT-NT-CT
   2481    2    1359    1358    1362  # HN-NT-CT
   2482    1    1360    1358    1361  # CT-NT-CT
   2483    2    1360    1358    1362  # HN-NT-CT
   2484    2    1361    1358    1362  # HN-NT-CT
   2485    3    1358    1359    1363  # NT-CT-CT
   2486    4    1358    1359    1364  # HC-CT-NT
   2487    4    1358    1359    1365  # HC-CT-NT
   2488    5    1363    1359    1364  # CT-CT-HC
   2489    5    1363    1359    1365  # CT-CT-HC
   2490    6    1364    1359    1365  # HC-CT-HC
   2491    3    1358    1360    1366  # NT-CT-CT
   2492    4    1358    1360    1367  # HC-CT-NT
   2493    4    1358    1360    1368  # HC-CT-NT
   2494    5    1366    1360    1367  # CT-CT-HC
   2495    5    1366    1360    1368  # CT-CT-HC
   2496    6    1367    1360    1368  # HC-CT-HC
   2497    3    1358    1361    1369  # NT-CT-CT
   2498    4    1358    1361    1370  # HC-CT-NT
   2499    4    1358    1361    1371  # HC-CT-NT
   2500    5    1369    1361    1370  # CT-CT-HC
   2501    5    1369    1361    1371  # CT-CT-HC
   2502    6    1370    1361    1371  # HC-CT-HC
   2503    5    1359    1363    1372  # CT-CT-HC
   2504    5    1359    1363    1373  # CT-CT-HC
   2505    5    1359    1363    1374  # CT-CT-HC
   2506    6    1372    1363    1373  # HC-CT-HC
   2507    6    1372    1363    1374  # HC-CT-HC
   2508    6    1373    1363    1374  # HC-CT-HC
   2509    5    1360    1366    1375  # CT-CT-HC
   2510    5    1360    1366    1376  # CT-CT-HC
   2511    5    1360    1366    1377  # CT-CT-HC
   2512    6    1375    1366    1376  # HC-CT-HC
   2513    6    1375    1366    1377  # HC-CT-HC
   2514    6    1376    1366    1377  # HC-CT-HC
   2515    5    1361    1369    1378  # CT-CT-HC
   2516    5    1361    1369    1379  # CT-CT-HC
   2517    5    1361    1369    1380  # CT-CT-HC
   2518    6    1378    1369    1379  # HC-CT-HC
   2519    6    1378    1369    1380  # HC-CT-HC
   2520    6    1379    1369    1380  # HC-CT-HC
   2521    1    1382    1381    1383  # CT-NT-CT
   2522    1    1382    1381    1384  # CT-NT-CT
   2523    2    1382    1381    1385  # HN-NT-CT
   2524    1    1383    1381    1384  # CT-NT-CT
   2525    2    1383    1381    1385  # HN-NT-CT
   2526    2    1384    1381    1385  # HN-NT-CT
   2527    3    1381    1382    1386  # NT-CT-CT
   2528    4    1381    1382    1387  # HC-CT-NT
   2529    4    1381    1382    1388  # HC-CT-NT
   2530    5    1386    1382    1387  # CT-CT-HC
   2531    5    1386    1382    1388  # CT-CT-HC
   2532    6    1387    1382    1388  # HC-CT-HC
   2533    3    1381    1383    1389  # NT-CT-CT
   2534    4    1381    1383    1390  # HC-CT-NT
   2535    4    1381    1383    1391  # HC-CT-NT
   2536    5    1389    1383    1390  # CT-CT-HC
   2537    5    1389    1383    1391  # CT-CT-HC
   2538    6    1390    1383    1391  # HC-CT-HC
   2539    3    1381    1384    1392  # NT-CT-CT
   2540    4    1381    1384    1393  # HC-CT-NT
   2541    4    1381    1384    1394  # HC-CT-NT
   2542    5    1392    1384    1393  # CT-CT-HC
   2543    5    1392    1384    1394  # CT-CT-HC
   2544    6    1393    1384    1394  # HC-CT-HC
   2545    5    1382    1386    1395  # CT-CT-HC
   2546    5    1382    1386    1396  # CT-CT-HC
   2547    5    1382    1386    1397  # CT-CT-HC
   2548    6    1395    1386    1396  # HC-CT-HC
   2549    6    1395    1386    1397  # HC-CT-HC
   2550    6    1396    1386    1397  # HC-CT-HC
   2551    5    1383    1389    1398  # CT-CT-HC
   2552    5    1383    1389    1399  # CT-CT-HC
   2553    5    1383    1389    1400  # CT-CT-HC
   2554    6    1398    1389    1399  # HC-CT-HC
   2555    6    1398    1389    1400  # HC-CT-HC
   2556    6    1399    1389    1400  # HC-CT-HC
   2557    5    1384    1392    1401  # CT-CT-HC
   2558    5    1384    1392    1402  # CT-CT-HC
   2559    5    1384    1392    1403  # CT-CT-HC
   2560    6    1401    1392    1402  # HC-CT-HC
   2561    6    1401    1392    1403  # HC-CT-HC
   2562    6    1402    1392    1403  # HC-CT-HC
   2563    1    1405    1404    1406  # CT-NT-CT
   2564    1    1405    1404    1407  # CT-NT-CT
   2565    2    1405    1404    1408  # HN-NT-CT
   2566    1    1406    1404    1407  # CT-NT-CT
   2567    2    1406    1404    1408  # HN-NT-CT
   2568    2    1407    1404    1408  # HN-NT-CT
   2569    3    1404    1405    1409  # NT-CT-CT
   2570    4    1404    1405    1410  # HC-CT-NT
   2571    4    1404    1405    1411  # HC-CT-NT
   2572    5    1409    1405    1410  # CT-CT-HC
   2573    5    1409    1405    1411  # CT-CT-HC
   2574    6    1410    1405    1411  # HC-CT-HC
   2575    3    1404    1406    1412  # NT-CT-CT
   2576    4    1404    1406    1413  # HC-CT-NT
   2577    4    1404    1406    1414  # HC-CT-NT
   2578    5    1412    1406    1413  # CT-CT-HC
   2579    5    1412    1406    1414  # CT-CT-HC
   2580    6    1413    1406    1414  # HC-CT-HC
   2581    3    1404    1407    1415  # NT-CT-CT
   2582    4    1404    1407    1416  # HC-CT-NT
   2583    4    1404    1407    1417  # HC-CT-NT
   2584    5    1415    1407    1416  # CT-CT-HC
   2585    5    1415    1407    1417  # CT-CT-HC
   2586    6    1416    1407    1417  # HC-CT-HC
   2587    5    1405    1409    1418  # CT-CT-HC
   2588    5    1405    1409    1419  # CT-CT-HC
   2589    5    1405    1409    1420  # CT-CT-HC
   2590    6    1418    1409    1419  # HC-CT-HC
   2591    6    1418    1409    1420  # HC-CT-HC
   2592    6    1419    1409    1420  # HC-CT-HC
   2593    5    1406    1412    1421  # CT-CT-HC
   2594    5    1406    1412    1422  # CT-CT-HC
   2595    5    1406    1412    1423  # CT-CT-HC
   2596    6    1421    1412    1422  # HC-CT-HC
   2597    6    1421    1412    1423  # HC-CT-HC
   2598    6    1422    1412    1423  # HC-CT-HC
   2599    5    1407    1415    1424  # CT-CT-HC
   2600    5    1407    1415    1425  # CT-CT-HC
   2601    5    1407    1415    1426  # CT-CT-HC
   2602    6    1424    1415    1425  # HC-CT-HC
   2603    6    1424    1415    1426  # HC-CT-HC
   2604    6    1425    1415    1426  # HC-CT-HC
   2605    1    1428    1427    1429  # CT-NT-CT
   2606    1    1428    1427    1430  # CT-NT-CT
   2607    2    1428    1427    1431  # HN-NT-CT
   2608    1    1429    1427    1430  # CT-NT-CT
   2609    2    1429    1427    1431  # HN-NT-CT
   2610    2    1430    1427    1431  # HN-NT-CT
   2611    3    1427    1428    1432  # NT-CT-CT
   2612    4    1427    1428    1433  # HC-CT-NT
   2613    4    1427    1428    1434  # HC-CT-NT
   2614    5    1432    1428    1433  # CT-CT-HC
   2615    5    1432    1428    1434  # CT-CT-HC
   2616    6    1433    1428    1434  # HC-CT-HC
   2617    3    1427    1429    1435  # NT-CT-CT
   2618    4    1427    1429    1436  # HC-CT-NT
   2619    4    1427    1429    1437  # HC-CT-NT
   2620    5    1435    1429    1436  # CT-CT-HC
   2621    5    1435    1429    1437  # CT-CT-HC
   2622    6    1436    1429    1437  # HC-CT-HC
   2623    3    1427    1430    1438  # NT-CT-CT
   2624    4    1427    1430    1439  # HC-CT-NT
   2625    4    1427    1430    1440  # HC-CT-NT
   2626    5    1438    1430    1439  # CT-CT-HC
   2627    5    1438    1430    1440  # CT-CT-HC
   2628    6    1439    1430    1440  # HC-CT-HC
   2629    5    1428    1432    1441  # CT-CT-HC
   2630    5    1428    1432    1442  # CT-CT-HC
   2631    5    1428    1432    1443  # CT-CT-HC
   2632    6    1441    1432    1442  # HC-CT-HC
   2633    6    1441    1432    1443  # HC-CT-HC
   2634    6    1442    1432    1443  # HC-CT-HC
   2635    5    1429    1435    1444  # CT-CT-HC
   2636    5    1429    1435    1445  # CT-CT-HC
   2637    5    1429    1435    1446  # CT-CT-HC
   2638    6    1444    1435    1445  # HC-CT-HC
   2639    6    1444    1435    1446  # HC-CT-HC
   2640    6    1445    1435    1446  # HC-CT-HC
   2641    5    1430    1438    1447  # CT-CT-HC
   2642    5    1430    1438    1448  # CT-CT-HC
   2643    5    1430    1438    1449  # CT-CT-HC
   2644    6    1447    1438    1448  # HC-CT-HC
   2645    6    1447    1438    1449  # HC-CT-HC
   2646    6    1448    1438    1449  # HC-CT-HC
   2647    1    1451    1450    1452  # CT-NT-CT
   2648    1    1451    1450    1453  # CT-NT-CT
   2649    2    1451    1450    1454  # HN-NT-CT
   2650    1    1452    1450    1453  # CT-NT-CT
   2651    2    1452    1450    1454  # HN-NT-CT
   2652    2    1453    1450    1454  # HN-NT-CT
   2653    3    1450    1451    1455  # NT-CT-CT
   2654    4    1450    1451    1456  # HC-CT-NT
   2655    4    1450    1451    1457  # HC-CT-NT
   2656    5    1455    1451    1456  # CT-CT-HC
   2657    5    1455    1451    1457  # CT-CT-HC
   2658    6    1456    1451    1457  # HC-CT-HC
   2659    3    1450    1452    1458  # NT-CT-CT
   2660    4    1450    1452    1459  # HC-CT-NT
   2661    4    1450    1452    1460  # HC-CT-NT
   2662    5    1458    1452    1459  # CT-CT-HC
   2663    5    1458    1452    1460  # CT-CT-HC
   2664    6    1459    1452    1460  # HC-CT-HC
   2665    3    1450    1453    1461  # NT-CT-CT
   2666    4    1450    1453    1462  # HC-CT-NT
   2667    4    1450    1453    1463  # HC-CT-NT
   2668    5    1461    1453    1462  # CT-CT-HC
   2669    5    1461    1453    1463  # CT-CT-HC
   2670    6    1462    1453    1463  # HC-CT-HC
   2671    5    1451    1455    1464  # CT-CT-HC
   2672    5    1451    1455    1465  # CT-CT-HC
   2673    5    1451    1455    1466  # CT-CT-HC
   2674    6    1464    1455    1465  # HC-CT-HC
   2675    6    1464    1455    1466  # HC-CT-HC
   2676    6    1465    1455    1466  # HC-CT-HC
   2677    5    1452    1458    1467  # CT-CT-HC
   2678    5    1452    1458    1468  # CT-CT-HC
   2679    5    1452    1458    1469  # CT-CT-HC
   2680    6    1467    1458    1468  # HC-CT-HC
   2681    6    1467    1458    1469  # HC-CT-HC
   2682    6    1468    1458    1469  # HC-CT-HC
   2683    5    1453    1461    1470  # CT-CT-HC
   2684    5    1453    1461    1471  # CT-CT-HC
   2685    5    1453    1461    1472  # CT-CT-HC
   2686    6    1470    1461    1471  # HC-CT-HC
   2687    6    1470    1461    1472  # HC-CT-HC
   2688    6    1471    1461    1472  # HC-CT-HC
   2689    1    1474    1473    1475  # CT-NT-CT
   2690    1    1474    1473    1476  # CT-NT-CT
   2691    2    1474    1473    1477  # HN-NT-CT
   2692    1    1475    1473    1476  # CT-NT-CT
   2693    2    1475    1473    1477  # HN-NT-CT
   2694    2    1476    1473    1477  # HN-NT-CT
   2695    3    1473    1474    1478  # NT-CT-CT
   2696    4    1473    1474    1479  # HC-CT-NT
   2697    4    1473    1474    1480  # HC-CT-NT
   2698    5    1478    1474    1479  # CT-CT-HC
   2699    5    1478    1474    1480  # CT-CT-HC
   2700    6    1479    1474    1480  # HC-CT-HC
   2701    3    1473    1475    1481  # NT-CT-CT
   2702    4    1473    1475    1482  # HC-CT-NT
   2703    4    1473    1475    1483  # HC-CT-NT
   2704    5    1481    1475    1482  # CT-CT-HC
   2705    5    1481    1475    1483  # CT-CT-HC
   2706    6    1482    1475    1483  # HC-CT-HC
   2707    3    1473    1476    1484  # NT-CT-CT
   2708    4    1473    1476    1485  # HC-CT-NT
   2709    4    1473    1476    1486  # HC-CT-NT
   2710    5    1484    1476    1485  # CT-CT-HC
   2711    5    1484    1476    1486  # CT-CT-HC
   2712    6    1485    1476    1486  # HC-CT-HC
   2713    5    1474    1478    1487  # CT-CT-HC
   2714    5    1474    1478    1488  # CT-CT-HC
   2715    5    1474    1478    1489  # CT-CT-HC
   2716    6    1487    1478    1488  # HC-CT-HC
   2717    6    1487    1478    1489  # HC-CT-HC
   2718    6    1488    1478    1489  # HC-CT-HC
   2719    5    1475    1481    1490  # CT-CT-HC
   2720    5    1475    1481    1491  # CT-CT-HC
   2721    5    1475    1481    1492  # CT-CT-HC
   2722    6    1490    1481    1491  # HC-CT-HC
   2723    6    1490    1481    1492  # HC-CT-HC
   2724    6    1491    1481    1492  # HC-CT-HC
   2725    5    1476    1484    1493  # CT-CT-HC
   2726    5    1476    1484    1494  # CT-CT-HC
   2727    5    1476    1484    1495  # CT-CT-HC
   2728    6    1493    1484    1494  # HC-CT-HC
   2729    6    1493    1484    1495  # HC-CT-HC
   2730    6    1494    1484    1495  # HC-CT-HC
   2731    1    1497    1496    1498  # CT-NT-CT
   2732    1    1497    1496    1499  # CT-NT-CT
   2733    2    1497    1496    1500  # HN-NT-CT
   2734    1    1498    1496    1499  # CT-NT-CT
   2735    2    1498    1496    1500  # HN-NT-CT
   2736    2    1499    1496    1500  # HN-NT-CT
   2737    3    1496    1497    1501  # NT-CT-CT
   2738    4    1496    1497    1502  # HC-CT-NT
   2739    4    1496    1497    1503  # HC-CT-NT
   2740    5    1501    1497    1502  # CT-CT-HC
   2741    5    1501    1497    1503  # CT-CT-HC
   2742    6    1502    1497    1503  # HC-CT-HC
   2743    3    1496    1498    1504  # NT-CT-CT
   2744    4    1496    1498    1505  # HC-CT-NT
   2745    4    1496    1498    1506  # HC-CT-NT
   2746    5    1504    1498    1505  # CT-CT-HC
   2747    5    1504    1498    1506  # CT-CT-HC
   2748    6    1505    1498    1506  # HC-CT-HC
   2749    3    1496    1499    1507  # NT-CT-CT
   2750    4    1496    1499    1508  # HC-CT-NT
   2751    4    1496    1499    1509  # HC-CT-NT
   2752    5    1507    1499    1508  # CT-CT-HC
   2753    5    1507    1499    1509  # CT-CT-HC
   2754    6    1508    1499    1509  # HC-CT-HC
   2755    5    1497    1501    1510  # CT-CT-HC
   2756    5    1497    1501    1511  # CT-CT-HC
   2757    5    1497    1501    1512  # CT-CT-HC
   2758    6    1510    1501    1511  # HC-CT-HC
   2759    6    1510    1501    1512  # HC-CT-HC
   2760    6    1511    1501    1512  # HC-CT-HC
   2761    5    1498    1504    1513  # CT-CT-HC
   2762    5    1498    1504    1514  # CT-CT-HC
   2763    5    1498    1504    1515  # CT-CT-HC
   2764    6    1513    1504    1514  # HC-CT-HC
   2765    6    1513    1504    1515  # HC-CT-HC
   2766    6    1514    1504    1515  # HC-CT-HC
   2767    5    1499    1507    1516  # CT-CT-HC
   2768    5    1499    1507    1517  # CT-CT-HC
   2769    5    1499    1507    1518  # CT-CT-HC
   2770    6    1516    1507    1517  # HC-CT-HC
   2771    6    1516    1507    1518  # HC-CT-HC
   2772    6    1517    1507    1518  # HC-CT-HC
   2773    1    1520    1519    1521  # CT-NT-CT
   2774    1    1520    1519    1522  # CT-NT-CT
   2775    2    1520    1519    1523  # HN-NT-CT
   2776    1    1521    1519    1522  # CT-NT-CT
   2777    2    1521    1519    1523  # HN-NT-CT
   2778    2    1522    1519    1523  # HN-NT-CT
   2779    3    1519    1520    1524  # NT-CT-CT
   2780    4    1519    1520    1525  # HC-CT-NT
   2781    4    1519    1520    1526  # HC-CT-NT
   2782    5    1524    1520    1525  # CT-CT-HC
   2783    5    1524    1520    1526  # CT-CT-HC
   2784    6    1525    1520    1526  # HC-CT-HC
   2785    3    1519    1521    1527  # NT-CT-CT
   2786    4    1519    1521    1528  # HC-CT-NT
   2787    4    1519    1521    1529  # HC-CT-NT
   2788    5    1527    1521    1528  # CT-CT-HC
   2789    5    1527    1521    1529  # CT-CT-HC
   2790    6    1528    1521    1529  # HC-CT-HC
   2791    3    1519    1522    1530  # NT-CT-CT
   2792    4    1519    1522    1531  # HC-CT-NT
   2793    4    1519    1522    1532  # HC-CT-NT
   2794    5    1530    1522    1531  # CT-CT-HC
   2795    5    1530    1522    1532  # CT-CT-HC
   2796    6    1531    1522    1532  # HC-CT-HC
   2797    5    1520    1524    1533  # CT-CT-HC
   2798    5    1520    1524    1534  # CT-CT-HC
   2799    5    1520    1524    1535  # CT-CT-HC
   2800    6    1533    1524    1534  # HC-CT-HC
   2801    6    1533    1524    1535  # HC-CT-HC
   2802    6    1534    1524    1535  # HC-CT-HC
   2803    5    1521    1527    1536  # CT-CT-HC
   2804    5    1521    1527    1537  # CT-CT-HC
   2805    5    1521    1527    1538  # CT-CT-HC
   2806    6    1536    1527    1537  # HC-CT-HC
   2807    6    1536    1527    1538  # HC-CT-HC
   2808    6    1537    1527    1538  # HC-CT-HC
   2809    5    1522    1530    1539  # CT-CT-HC
   2810    5    1522    1530    1540  # CT-CT-HC
   2811    5    1522    1530    1541  # CT-CT-HC
   2812    6    1539    1530    1540  # HC-CT-HC
   2813    6    1539    1530    1541  # HC-CT-HC
   2814    6    1540    1530    1541  # HC-CT-HC
   2815    1    1543    1542    1544  # CT-NT-CT
   2816    1    1543    1542    1545  # CT-NT-CT
   2817    2    1543    1542    1546  # HN-NT-CT
   2818    1    1544    1542    1545  # CT-NT-CT
   2819    2    1544    1542    1546  # HN-NT-CT
   2820    2    1545    1542    1546  # HN-NT-CT
   2821    3    1542    1543    1547  # NT-CT-CT
   2822    4    1542    1543    1548  # HC-CT-NT
   2823    4    1542    1543    1549  # HC-CT-NT
   2824    5    1547    1543    1548  # CT-CT-HC
   2825    5    1547    1543    1549  # CT-CT-HC
   2826    6    1548    1543    1549  # HC-CT-HC
   2827    3    1542    1544    1550  # NT-CT-CT
   2828    4    1542    1544    1551  # HC-CT-NT
   2829    4    1542    1544    1552  # HC-CT-NT
   2830    5    1550    1544    1551  # CT-CT-HC
   2831    5    1550    1544    1552  # CT-CT-HC
   2832    6    1551    1544    1552  # HC-CT-HC
   2833    3    1542    1545    1553  # NT-CT-CT
   2834    4    1542    1545    1554  # HC-CT-NT
   2835    4    1542    1545    1555  # HC-CT-NT
   2836    5    1553    1545    1554  # CT-CT-HC
   2837    5    1553    1545    1555  # CT-CT-HC
   2838    6    1554    1545    1555  # HC-CT-HC
   2839    5    1543    1547    1556  # CT-CT-HC
   2840    5    1543    1547    1557  # CT-CT-HC
   2841    5    1543    1547    1558  # CT-CT-HC
   2842    6    1556    1547    1557  # HC-CT-HC
   2843    6    1556    1547    1558  # HC-CT-HC
   2844    6    1557    1547    1558  # HC-CT-HC
   2845    5    1544    1550    1559  # CT-CT-HC
   2846    5    1544    1550    1560  # CT-CT-HC
   2847    5    1544    1550    1561  # CT-CT-HC
   2848    6    1559    1550    1560  # HC-CT-HC
   2849    6    1559    1550    1561  # HC-CT-HC
   2850    6    1560    1550    1561  # HC-CT-HC
   2851    5    1545    1553    1562  # CT-CT-HC
   2852    5    1545    1553    1563  # CT-CT-HC
   2853    5    1545    1553    1564  # CT-CT-HC
   2854    6    1562    1553    1563  # HC-CT-HC
   2855    6    1562    1553    1564  # HC-CT-HC
   2856    6    1563    1553    1564  # HC-CT-HC
   2857    1    1566    1565    1567  # CT-NT-CT
   2858    1    1566    1565    1568  # CT-NT-CT
   2859    2    1566    1565    1569  # HN-NT-CT
   2860    1    1567    1565    1568  # CT-NT-CT
   2861    2    1567    1565    1569  # HN-NT-CT
   2862    2    1568    1565    1569  # HN-NT-CT
   2863    3    1565    1566    1570  # NT-CT-CT
   2864    4    1565    1566    1571  # HC-CT-NT
   2865    4    1565    1566    1572  # HC-CT-NT
   2866    5    1570    1566    1571  # CT-CT-HC
   2867    5    1570    1566    1572  # CT-CT-HC
   2868    6    1571    1566    1572  # HC-CT-HC
   2869    3    1565    1567    1573  # NT-CT-CT
   2870    4    1565    1567    1574  # HC-CT-NT
   2871    4    1565    1567    1575  # HC-CT-NT
   2872    5    1573    1567    1574  # CT-CT-HC
   2873    5    1573    1567    1575  # CT-CT-HC
   2874    6    1574    1567    1575  # HC-CT-HC
   2875    3    1565    1568    1576  # NT-CT-CT
   2876    4    1565    1568    1577  # HC-CT-NT
   2877    4    1565    1568    1578  # HC-CT-NT
   2878    5    1576    1568    1577  # CT-CT-HC
   2879    5    1576    1568    1578  # CT-CT-HC
   2880    6    1577    1568    1578  # HC-CT-HC
   2881    5    1566    1570    1579  # CT-CT-HC
   2882    5    1566    1570    1580  # CT-CT-HC
   2883    5    1566    1570    1581  # CT-CT-HC
   2884    6    1579    1570    1580  # HC-CT-HC
   2885    6    1579    1570    1581  # HC-CT-HC
   2886    6    1580    1570    1581  # HC-CT-HC
   2887    5    1567    1573    1582  # CT-CT-HC
   2888    5    1567    1573    1583  # CT-CT-HC
   2889    5    1567    1573    1584  # CT-CT-HC
   2890    6    1582    1573    1583  # HC-CT-HC
   2891    6    1582    1573    1584  # HC-CT-HC
   2892    6    1583    1573    1584  # HC-CT-HC
   2893    5    1568    1576    1585  # CT-CT-HC
   2894    5    1568    1576    1586  # CT-CT-HC
   2895    5    1568    1576    1587  # CT-CT-HC
   2896    6    1585    1576    1586  # HC-CT-HC
   2897    6    1585    1576    1587  # HC-CT-HC
   2898    6    1586    1576    1587  # HC-CT-HC
   2899    1    1589    1588    1590  # CT-NT-CT
   2900    1    1589    1588    1591  # CT-NT-CT
   2901    2    1589    1588    1592  # HN-NT-CT
   2902    1    1590    1588    1591  # CT-NT-CT
   2903    2    1590    1588    1592  # HN-NT-CT
   2904    2    1591    1588    1592  # HN-NT-CT
   2905    3    1588    1589    1593  # NT-CT-CT
   2906    4    1588    1589    1594  # HC-CT-NT
   2907    4    1588    1589    1595  # HC-CT-NT
   2908    5    1593    1589    1594  # CT-CT-HC
   2909    5    1593    1589    1595  # CT-CT-HC
   2910    6    1594    1589    1595  # HC-CT-HC
   2911    3    1588    1590    1596  # NT-CT-CT
   2912    4    1588    1590    1597  # HC-CT-NT
   2913    4    1588    1590    1598  # HC-CT-NT
   2914    5    1596    1590    1597  # CT-CT-HC
   2915    5    1596    1590    1598  # CT-CT-HC
   2916    6    1597    1590    1598  # HC-CT-HC
   2917    3    1588    1591    1599  # NT-CT-CT
   2918    4    1588    1591    1600  # HC-CT-NT
   2919    4    1588    1591    1601  # HC-CT-NT
   2920    5    1599    1591    1600  # CT-CT-HC
   2921    5    1599    1591    1601  # CT-CT-HC
   2922    6    1600    1591    1601  # HC-CT-HC
   2923    5    1589    1593    1602  # CT-CT-HC
   2924    5    1589    1593    1603  # CT-CT-HC
   2925    5    1589    1593    1604  # CT-CT-HC
   2926    6    1602    1593    1603  # HC-CT-HC
   2927    6    1602    1593    1604  # HC-CT-HC
   2928    6    1603    1593    1604  # HC-CT-HC
   2929    5    1590    1596    1605  # CT-CT-HC
   2930    5    1590    1596    1606  # CT-CT-HC
   2931    5    1590    1596    1607  # CT-CT-HC
   2932    6    1605    1596    1606  # HC-CT-HC
   2933    6    1605    1596    1607  # HC-CT-HC
   2934    6    1606    1596    1607  # HC-CT-HC
   2935    5    1591    1599    1608  # CT-CT-HC
   2936    5    1591    1599    1609  # CT-CT-HC
   2937    5    1591    1599    1610  # CT-CT-HC
   2938    6    1608    1599    1609  # HC-CT-HC
   2939    6    1608    1599    1610  # HC-CT-HC
   2940    6    1609    1599    1610  # HC-CT-HC
   2941    1    1612    1611    1613  # CT-NT-CT
   2942    1    1612    1611    1614  # CT-NT-CT
   2943    2    1612    1611    1615  # HN-NT-CT
   2944    1    1613    1611    1614  # CT-NT-CT
   2945    2    1613    1611    1615  # HN-NT-CT
   2946    2    1614    1611    1615  # HN-NT-CT
   2947    3    1611    1612    1616  # NT-CT-CT
   2948    4    1611    1612    1617  # HC-CT-NT
   2949    4    1611    1612    1618  # HC-CT-NT
   2950    5    1616    1612    1617  # CT-CT-HC
   2951    5    1616    1612    1618  # CT-CT-HC
   2952    6    1617    1612    1618  # HC-CT-HC
   2953    3    1611    1613    1619  # NT-CT-CT
   2954    4    1611    1613    1620  # HC-CT-NT
   2955    4    1611    1613    1621  # HC-CT-NT
   2956    5    1619    1613    1620  # CT-CT-HC
   2957    5    1619    1613    1621  # CT-CT-HC
   2958    6    1620    1613    1621  # HC-CT-HC
   2959    3    1611    1614    1622  # NT-CT-CT
   2960    4    1611    1614    1623  # HC-CT-NT
   2961    4    1611    1614    1624  # HC-CT-NT
   2962    5    1622    1614    1623  # CT-CT-HC
   2963    5    1622    1614    1624  # CT-CT-HC
   2964    6    1623    1614    1624  # HC-CT-HC
   2965    5    1612    1616    1625  # CT-CT-HC
   2966    5    1612    1616    1626  # CT-CT-HC
   2967    5    1612    1616    1627  # CT-CT-HC
   2968    6    1625    1616    1626  # HC-CT-HC
   2969    6    1625    1616    1627  # HC-CT-HC
   2970    6    1626    1616    1627  # HC-CT-HC
   2971    5    1613    1619    1628  # CT-CT-HC
   2972    5    1613    1619    1629  # CT-CT-HC
   2973    5    1613    1619    1630  # CT-CT-HC
   2974    6    1628    1619    1629  # HC-CT-HC
   2975    6    1628    1619    1630  # HC-CT-HC
   2976    6    1629    1619    1630  # HC-CT-HC
   2977    5    1614    1622    1631  # CT-CT-HC
   2978    5    1614    1622    1632  # CT-CT-HC
   2979    5    1614    1622    1633  # CT-CT-HC
   2980    6    1631    1622    1632  # HC-CT-HC
   2981    6    1631    1622    1633  # HC-CT-HC
   2982    6    1632    1622    1633  # HC-CT-HC
   2983    1    1635    1634    1636  # CT-NT-CT
   2984    1    1635    1634    1637  # CT-NT-CT
   2985    2    1635    1634    1638  # HN-NT-CT
   2986    1    1636    1634    1637  # CT-NT-CT
   2987    2    1636    1634    1638  # HN-NT-CT
   2988    2    1637    1634    1638  # HN-NT-CT
   2989    3    1634    1635    1639  # NT-CT-CT
   2990    4    1634    1635    1640  # HC-CT-NT
   2991    4    1634    1635    1641  # HC-CT-NT
   2992    5    1639    1635    1640  # CT-CT-HC
   2993    5    1639    1635    1641  # CT-CT-HC
   2994    6    1640    1635    1641  # HC-CT-HC
   2995    3    1634    1636    1642  # NT-CT-CT
   2996    4    1634    1636    1643  # HC-CT-NT
   2997    4    1634    1636    1644  # HC-CT-NT
   2998    5    1642    1636    1643  # CT-CT-HC
   2999    5    1642    1636    1644  # CT-CT-HC
   3000    6    1643    1636    1644  # HC-CT-HC
   3001    3    1634    1637    1645  # NT-CT-CT
   3002    4    1634    1637    1646  # HC-CT-NT
   3003    4    1634    1637    1647  # HC-CT-NT
   3004    5    1645    1637    1646  # CT-CT-HC
   3005    5    1645    1637    1647  # CT-CT-HC
   3006    6    1646    1637    1647  # HC-CT-HC
   3007    5    1635    1639    1648  # CT-CT-HC
   3008    5    1635    1639    1649  # CT-CT-HC
   3009    5    1635    1639    1650  # CT-CT-HC
   3010    6    1648    1639    1649  # HC-CT-HC
   3011    6    1648    1639    1650  # HC-CT-HC
   3012    6    1649    1639    1650  # HC-CT-HC
   3013    5    1636    1642    1651  # CT-CT-HC
   3014    5    1636    1642    1652  # CT-CT-HC
   3015    5    1636    1642    1653  # CT-CT-HC
   3016    6    1651    1642    1652  # HC-CT-HC
   3017    6    1651    1642    1653  # HC-CT-HC
   3018    6    1652    1642    1653  # HC-CT-HC
   3019    5    1637    1645    1654  # CT-CT-HC
   3020    5    1637    1645    1655  # CT-CT-HC
   3021    5    1637    1645    1656  # CT-CT-HC
   3022    6    1654    1645    1655  # HC-CT-HC
   3023    6    1654    1645    1656  # HC-CT-HC
   3024    6    1655    1645    1656  # HC-CT-HC
   3025    1    1658    1657    1659  # CT-NT-CT
   3026    1    1658    1657    1660  # CT-NT-CT
   3027    2    1658    1657    1661  # HN-NT-CT
   3028    1    1659    1657    1660  # CT-NT-CT
   3029    2    1659    1657    1661  # HN-NT-CT
   3030    2    1660    1657    1661  # HN-NT-CT
   3031    3    1657    1658    1662  # NT-CT-CT
   3032    4    1657    1658    1663  # HC-CT-NT
   3033    4    1657    1658    1664  # HC-CT-NT
   3034    5    1662    1658    1663  # CT-CT-HC
   3035    5    1662    1658    1664  # CT-CT-HC
   3036    6    1663    1658    1664  # HC-CT-HC
   3037    3    1657    1659    1665  # NT-CT-CT
   3038    4    1657    1659    1666  # HC-CT-NT
   3039    4    1657    1659    1667  # HC-CT-NT
   3040    5    1665    1659    1666  # CT-CT-HC
   3041    5    1665    1659    1667  # CT-CT-HC
   3042    6    1666    1659    1667  # HC-CT-HC
   3043    3    1657    1660    1668  # NT-CT-CT
   3044    4    1657    1660    1669  # HC-CT-NT
   3045    4    1657    1660    1670  # HC-CT-NT
   3046    5    1668    1660    1669  # CT-CT-HC
   3047    5    1668    1660    1670  # CT-CT-HC
   3048    6    1669    1660    1670  # HC-CT-HC
   3049    5    1658    1662    1671  # CT-CT-HC
   3050    5    1658    1662    1672  # CT-CT-HC
   3051    5    1658    1662    1673  # CT-CT-HC
   3052    6    1671    1662    1672  # HC-CT-HC
   3053    6    1671    1662    1673  # HC-CT-HC
   3054    6    1672    1662    1673  # HC-CT-HC
   3055    5    1659    1665    1674  # CT-CT-HC
   3056    5    1659    1665    1675  # CT-CT-HC
   3057    5    1659    1665    1676  # CT-CT-HC
   3058    6    1674    1665    1675  # HC-CT-HC
   3059    6    1674    1665    1676  # HC-CT-HC
   3060    6    1675    1665    1676  # HC-CT-HC
   3061    5    1660    1668    1677  # CT-CT-HC
   3062    5    1660    1668    1678  # CT-CT-HC
   3063    5    1660    1668    1679  # CT-CT-HC
   3064    6    1677    1668    1678  # HC-CT-HC
   3065    6    1677    1668    1679  # HC-CT-HC
   3066    6    1678    1668    1679  # HC-CT-HC
   3067    1    1681    1680    1682  # CT-NT-CT
   3068    1    1681    1680    1683  # CT-NT-CT
   3069    2    1681    1680    1684  # HN-NT-CT
   3070    1    1682    1680    1683  # CT-NT-CT
   3071    2    1682    1680    1684  # HN-NT-CT
   3072    2    1683    1680    1684  # HN-NT-CT
   3073    3    1680    1681    1685  # NT-CT-CT
   3074    4    1680    1681    1686  # HC-CT-NT
   3075    4    1680    1681    1687  # HC-CT-NT
   3076    5    1685    1681    1686  # CT-CT-HC
   3077    5    1685    1681    1687  # CT-CT-HC
   3078    6    1686    1681    1687  # HC-CT-HC
   3079    3    1680    1682    1688  # NT-CT-CT
   3080    4    1680    1682    1689  # HC-CT-NT
   3081    4    1680    1682    1690  # HC-CT-NT
   3082    5    1688    1682    1689  # CT-CT-HC
   3083    5    1688    1682    1690  # CT-CT-HC
   3084    6    1689    1682    1690  # HC-CT-HC
   3085    3    1680    1683    1691  # NT-CT-CT
   3086    4    1680    1683    1692  # HC-CT-NT
   3087    4    1680    1683    1693  # HC-CT-NT
   3088    5    1691    1683    1692  # CT-CT-HC
   3089    5    1691    1683    1693  # CT-CT-HC
   3090    6    1692    1683    1693  # HC-CT-HC
   3091    5    1681    1685    1694  # CT-CT-HC
   3092    5    1681    1685    1695  # CT-CT-HC
   3093    5    1681    1685    1696  # CT-CT-HC
   3094    6    1694    1685    1695  # HC-CT-HC
   3095    6    1694    1685    1696  # HC-CT-HC
   3096    6    1695    1685    1696  # HC-CT-HC
   3097    5    1682    1688    1697  # CT-CT-HC
   3098    5    1682    1688    1698  # CT-CT-HC
   3099    5    1682    1688    1699  # CT-CT-HC
   3100    6    1697    1688    1698  # HC-CT-HC
   3101    6    1697    1688    1699  # HC-CT-HC
   3102    6    1698    1688    1699  # HC-CT-HC
   3103    5    1683    1691    1700  # CT-CT-HC
   3104    5    1683    1691    1701  # CT-CT-HC
   3105    5    1683    1691    1702  # CT-CT-HC
   3106    6    1700    1691    1701  # HC-CT-HC
   3107    6    1700    1691    1702  # HC-CT-HC
   3108    6    1701    1691    1702  # HC-CT-HC
   3109    7    1704    1703    1705  # CT-CO-O2
   3110    7    1704    1703    1706  # CT-CO-O2
   3111    8    1705    1703    1706  # O2-CO-O2
   3112    9    1703    1704    1707  # HC-CT-CO
   3113    9    1703    1704    1708  # HC-CT-CO
   3114    9    1703    1704    1709  # HC-CT-CO
   3115    6    1707    1704    1708  # HC-CT-HC
   3116    6    1707    1704    1709  # HC-CT-HC
   3117    6    1708    1704    1709  # HC-CT-HC
   3118    7    1711    1710    1712  # CT-CO-O2
   3119    7    1711    1710    1713  # CT-CO-O2
   3120    8    1712    1710    1713  # O2-CO-O2
   3121    9    1710    1711    1714  # HC-CT-CO
   3122    9    1710    1711    1715  # HC-CT-CO
   3123    9    1710    1711    1716  # HC-CT-CO
   3124    6    1714    1711    1715  # HC-CT-HC
   3125    6    1714    1711    1716  # HC-CT-HC
   3126    6    1715    1711    1716  # HC-CT-HC
   3127    7    1718    1717    1719  # CT-CO-O2
   3128    7    1718    1717    1720  # CT-CO-O2
   3129    8    1719    1717    1720  # O2-CO-O2
   3130    9    1717    1718    1721  # HC-CT-CO
   3131    9    1717    1718    1722  # HC-CT-CO
   3132    9    1717    1718    1723  # HC-CT-CO
   3133    6    1721    1718    1722  # HC-CT-HC
   3134    6    1721    1718    1723  # HC-CT-HC
   3135    6    1722    1718    1723  # HC-CT-HC
   3136    7    1725    1724    1726  # CT-CO-O2
   3137    7    1725    1724    1727  # CT-CO-O2
   3138    8    1726    1724    1727  # O2-CO-O2
   3139    9    1724    1725    1728  # HC-CT-CO
   3140    9    1724    1725    1729  # HC-CT-CO
   3141    9    1724    1725    1730  # HC-CT-CO
   3142    6    1728    1725    1729  # HC-CT-HC
   3143    6    1728    1725    1730  # HC-CT-HC
   3144    6    1729    1725    1730  # HC-CT-HC
   3145    7    1732    1731    1733  # CT-CO-O2
   3146    7    1732    1731    1734  # CT-CO-O2
   3147    8    1733    1731    1734  # O2-CO-O2
   3148    9    1731    1732    1735  # HC-CT-CO
   3149    9    1731    1732    1736  # HC-CT-CO
   3150    9    1731    1732    1737  # HC-CT-CO
   3151    6    1735    1732    1736  # HC-CT-HC
   3152    6    1735    1732    1737  # HC-CT-HC
   3153    6    1736    1732    1737  # HC-CT-HC
   3154    7    1739    1738    1740  # CT-CO-O2
   3155    7    1739    1738    1741  # CT-CO-O2
   3156    8    1740    1738    1741  # O2-CO-O2
   3157    9    1738    1739    1742  # HC-CT-CO
   3158    9    1738    1739    1743  # HC-CT-CO
   3159    9    1738    1739    1744  # HC-CT-CO
   3160    6    1742    1739    1743  # HC-CT-HC
   3161    6    1742    1739    1744  # HC-CT-HC
   3162    6    1743    1739    1744  # HC-CT-HC
   3163    7    1746    1745    1747  # CT-CO-O2
   3164    7    1746    1745    1748  # CT-CO-O2
   3165    8    1747    1745    1748  # O2-CO-O2
   3166    9    1745    1746    1749  # HC-CT-CO
   3167    9    1745    1746    1750  # HC-CT-CO
   3168    9    1745    1746    1751  # HC-CT-CO
   3169    6    1749    1746    1750  # HC-CT-HC
   3170    6    1749    1746    1751  # HC-CT-HC
   3171    6    1750    1746    1751  # HC-CT-HC
   3172    7    1753    1752    1754  # CT-CO-O2
   3173    7    1753    1752    1755  # CT-CO-O2
   3174    8    1754    1752    1755  # O2-CO-O2
   3175    9    1752    1753    1756  # HC-CT-CO
   3176    9    1752    1753    1757  # HC-CT-CO
   3177    9    1752    1753    1758  # HC-CT-CO
   3178    6    1756    1753    1757  # HC-CT-HC
   3179    6    1756    1753    1758  # HC-CT-HC
   3180    6    1757    1753    1758  # HC-CT-HC
   3181    7    1760    1759    1761  # CT-CO-O2
   3182    7    1760    1759    1762  # CT-CO-O2
   3183    8    1761    1759    1762  # O2-CO-O2
   3184    9    1759    1760    1763  # HC-CT-CO
   3185    9    1759    1760    1764  # HC-CT-CO
   3186    9    1759    1760    1765  # HC-CT-CO
   3187    6    1763    1760    1764  # HC-CT-HC
   3188    6    1763    1760    1765  # HC-CT-HC
   3189    6    1764    1760    1765  # HC-CT-HC
   3190    7    1767    1766    1768  # CT-CO-O2
   3191    7    1767    1766    1769  # CT-CO-O2
   3192    8    1768    1766    1769  # O2-CO-O2
   3193    9    1766    1767    1770  # HC-CT-CO
   3194    9    1766    1767    1771  # HC-CT-CO
   3195    9    1766    1767    1772  # HC-CT-CO
   3196    6    1770    1767    1771  # HC-CT-HC
   3197    6    1770    1767    1772  # HC-CT-HC
   3198    6    1771    1767    1772  # HC-CT-HC
   3199    7    1774    1773    1775  # CT-CO-O2
   3200    7    1774    1773    1776  # CT-CO-O2
   3201    8    1775    1773    1776  # O2-CO-O2
   3202    9    1773    1774    1777  # HC-CT-CO
   3203    9    1773    1774    1778  # HC-CT-CO
   3204    9    1773    1774    1779  # HC-CT-CO
   3205    6    1777    1774    1778  # HC-CT-HC
   3206    6    1777    1774    1779  # HC-CT-HC
   3207    6    1778    1774    1779  # HC-CT-HC
   3208    7    1781    1780    1782  # CT-CO-O2
   3209    7    1781    1780    1783  # CT-CO-O2
   3210    8    1782    1780    1783  # O2-CO-O2
   3211    9    1780    1781    1784  # HC-CT-CO
   3212    9    1780    1781    1785  # HC-CT-CO
   3213    9    1780    1781    1786  # HC-CT-CO
   3214    6    1784    1781    1785  # HC-CT-HC
   3215    6    1784    1781    1786  # HC-CT-HC
   3216    6    1785    1781    1786  # HC-CT-HC
   3217    7    1788    1787    1789  # CT-CO-O2
   3218    7    1788    1787    1790  # CT-CO-O2
   3219    8    1789    1787    1790  # O2-CO-O2
   3220    9    1787    1788    1791  # HC-CT-CO
   3221    9    1787    1788    1792  # HC-CT-CO
   3222    9    1787    1788    1793  # HC-CT-CO
   3223    6    1791    1788    1792  # HC-CT-HC
   3224    6    1791    1788    1793  # HC-CT-HC
   3225    6    1792    1788    1793  # HC-CT-HC
   3226    7    1795    1794    1796  # CT-CO-O2
   3227    7    1795    1794    1797  # CT-CO-O2
   3228    8    1796    1794    1797  # O2-CO-O2
   3229    9    1794    1795    1798  # HC-CT-CO
   3230    9    1794    1795    1799  # HC-CT-CO
   3231    9    1794    1795    1800  # HC-CT-CO
   3232    6    1798    1795    1799  # HC-CT-HC
   3233    6    1798    1795    1800  # HC-CT-HC
   3234    6    1799    1795    1800  # HC-CT-HC
   3235    7    1802    1801    1803  # CT-CO-O2
   3236    7    1802    1801    1804  # CT-CO-O2
   3237    8    1803    1801    1804  # O2-CO-O2
   3238    9    1801    1802    1805  # HC-CT-CO
   3239    9    1801    1802    1806  # HC-CT-CO
   3240    9    1801    1802    1807  # HC-CT-CO
   3241    6    1805    1802    1806  # HC-CT-HC
   3242    6    1805    1802    1807  # HC-CT-HC
   3243    6    1806    1802    1807  # HC-CT-HC
   3244    7    1809    1808    1810  # CT-CO-O2
   3245    7    1809    1808    1811  # CT-CO-O2
   3246    8    1810    1808    1811  # O2-CO-O2
   3247    9    1808    1809    1812  # HC-CT-CO
   3248    9    1808    1809    1813  # HC-CT-CO
   3249    9    1808    1809    1814  # HC-CT-CO
   3250    6    1812    1809    1813  # HC-CT-HC
   3251    6    1812    1809    1814  # HC-CT-HC
   3252    6    1813    1809    1814  # HC-CT-HC
   3253    7    1816    1815    1817  # CT-CO-O2
   3254    7    1816    1815    1818  # CT-CO-O2
   3255    8    1817    1815    1818  # O2-CO-O2
   3256    9    1815    1816    1819  # HC-CT-CO
   3257    9    1815    1816    1820  # HC-CT-CO
   3258    9    1815    1816    1821  # HC-CT-CO
   3259    6    1819    1816    1820  # HC-CT-HC
   3260    6    1819    1816    1821  # HC-CT-HC
   3261    6    1820    1816    1821  # HC-CT-HC
   3262    7    1823    1822    1824  # CT-CO-O2
   3263    7    1823    1822    1825  # CT-CO-O2
   3264    8    1824    1822    1825  # O2-CO-O2
   3265    9    1822    1823    1826  # HC-CT-CO
   3266    9    1822    1823    1827  # HC-CT-CO
   3267    9    1822    1823    1828  # HC-CT-CO
   3268    6    1826    1823    1827  # HC-CT-HC
   3269    6    1826    1823    1828  # HC-CT-HC
   3270    6    1827    1823    1828  # HC-CT-HC
   3271    7    1830    1829    1831  # CT-CO-O2
   3272    7    1830    1829    1832  # CT-CO-O2
   3273    8    1831    1829    1832  # O2-CO-O2
   3274    9    1829    1830    1833  # HC-CT-CO
   3275    9    1829    1830    1834  # HC-CT-CO
   3276    9    1829    1830    1835  # HC-CT-CO
   3277    6    1833    1830    1834  # HC-CT-HC
   3278    6    1833    1830    1835  # HC-CT-HC
   3279    6    1834    1830    1835  # HC-CT-HC
   3280    7    1837    1836    1838  # CT-CO-O2
   3281    7    1837    1836    1839  # CT-CO-O2
   3282    8    1838    1836    1839  # O2-CO-O2
   3283    9    1836    1837    1840  # HC-CT-CO
   3284    9    1836    1837    1841  # HC-CT-CO
   3285    9    1836    1837    1842  # HC-CT-CO
   3286    6    1840    1837    1841  # HC-CT-HC
   3287    6    1840    1837    1842  # HC-CT-HC
   3288    6    1841    1837    1842  # HC-CT-HC
   3289    7    1844    1843    1845  # CT-CO-O2
   3290    7    1844    1843    1846  # CT-CO-O2
   3291    8    1845    1843    1846  # O2-CO-O2
   3292    9    1843    1844    1847  # HC-CT-CO
   3293    9    1843    1844    1848  # HC-CT-CO
   3294    9    1843    1844    1849  # HC-CT-CO
   3295    6    1847    1844    1848  # HC-CT-HC
   3296    6    1847    1844    1849  # HC-CT-HC
   3297    6    1848    1844    1849  # HC-CT-HC
   3298    7    1851    1850    1852  # CT-CO-O2
   3299    7    1851    1850    1853  # CT-CO-O2
   3300    8    1852    1850    1853  # O2-CO-O2
   3301    9    1850    1851    1854  # HC-CT-CO
   3302    9    1850    1851    1855  # HC-CT-CO
   3303    9    1850    1851    1856  # HC-CT-CO
   3304    6    1854    1851    1855  # HC-CT-HC
   3305    6    1854    1851    1856  # HC-CT-HC
   3306    6    1855    1851    1856  # HC-CT-HC
   3307    7    1858    1857    1859  # CT-CO-O2
   3308    7    1858    1857    1860  # CT-CO-O2
   3309    8    1859    1857    1860  # O2-CO-O2
   3310    9    1857    1858    1861  # HC-CT-CO
   3311    9    1857    1858    1862  # HC-CT-CO
   3312    9    1857    1858    1863  # HC-CT-CO
   3313    6    1861    1858    1862  # HC-CT-HC
   3314    6    1861    1858    1863  # HC-CT-HC
   3315    6    1862    1858    1863  # HC-CT-HC
   3316    7    1865    1864    1866  # CT-CO-O2
   3317    7    1865    1864    1867  # CT-CO-O2
   3318    8    1866    1864    1867  # O2-CO-O2
   3319    9    1864    1865    1868  # HC-CT-CO
   3320    9    1864    1865    1869  # HC-CT-CO
   3321    9    1864    1865    1870  # HC-CT-CO
   3322    6    1868    1865    1869  # HC-CT-HC
   3323    6    1868    1865    1870  # HC-CT-HC
   3324    6    1869    1865    1870  # HC-CT-HC
   3325    7    1872    1871    1873  # CT-CO-O2
   3326    7    1872    1871    1874  # CT-CO-O2
   3327    8    1873    1871    1874  # O2-CO-O2
   3328    9    1871    1872    1875  # HC-CT-CO
   3329    9    1871    1872    1876  # HC-CT-CO
   3330    9    1871    1872    1877  # HC-CT-CO
   3331    6    1875    1872    1876  # HC-CT-HC
   3332    6    1875    1872    1877  # HC-CT-HC
   3333    6    1876    1872    1877  # HC-CT-HC
   3334    7    1879    1878    1880  # CT-CO-O2
   3335    7    1879    1878    1881  # CT-CO-O2
   3336    8    1880    1878    1881  # O2-CO-O2
   3337    9    1878    1879    1882  # HC-CT-CO
   3338    9    1878    1879    1883  # HC-CT-CO
   3339    9    1878    1879    1884  # HC-CT-CO
   3340    6    1882    1879    1883  # HC-CT-HC
   3341    6    1882    1879    1884  # HC-CT-HC
   3342    6    1883    1879    1884  # HC-CT-HC
   3343    7    1886    1885    1887  # CT-CO-O2
   3344    7    1886    1885    1888  # CT-CO-O2
   3345    8    1887    1885    1888  # O2-CO-O2
   3346    9    1885    1886    1889  # HC-CT-CO
   3347    9    1885    1886    1890  # HC-CT-CO
   3348    9    1885    1886    1891  # HC-CT-CO
   3349    6    1889    1886    1890  # HC-CT-HC
   3350    6    1889    1886    1891  # HC-CT-HC
   3351    6    1890    1886    1891  # HC-CT-HC
   3352    7    1893    1892    1894  # CT-CO-O2
   3353    7    1893    1892    1895  # CT-CO-O2
   3354    8    1894    1892    1895  # O2-CO-O2
   3355    9    1892    1893    1896  # HC-CT-CO
   3356    9    1892    1893    1897  # HC-CT-CO
   3357    9    1892    1893    1898  # HC-CT-CO
   3358    6    1896    1893    1897  # HC-CT-HC
   3359    6    1896    1893    1898  # HC-CT-HC
   3360    6    1897    1893    1898  # HC-CT-HC
   3361    7    1900    1899    1901  # CT-CO-O2
   3362    7    1900    1899    1902  # CT-CO-O2
   3363    8    1901    1899    1902  # O2-CO-O2
   3364    9    1899    1900    1903  # HC-CT-CO
   3365    9    1899    1900    1904  # HC-CT-CO
   3366    9    1899    1900    1905  # HC-CT-CO
   3367    6    1903    1900    1904  # HC-CT-HC
   3368    6    1903    1900    1905  # HC-CT-HC
   3369    6    1904    1900    1905  # HC-CT-HC
   3370    7    1907    1906    1908  # CT-CO-O2
   3371    7    1907    1906    1909  # CT-CO-O2
   3372    8    1908    1906    1909  # O2-CO-O2
   3373    9    1906    1907    1910  # HC-CT-CO
   3374    9    1906    1907    1911  # HC-CT-CO
   3375    9    1906    1907    1912  # HC-CT-CO
   3376    6    1910    1907    1911  # HC-CT-HC
   3377    6    1910    1907    1912  # HC-CT-HC
   3378    6    1911    1907    1912  # HC-CT-HC
   3379    7    1914    1913    1915  # CT-CO-O2
   3380    7    1914    1913    1916  # CT-CO-O2
   3381    8    1915    1913    1916  # O2-CO-O2
   3382    9    1913    1914    1917  # HC-CT-CO
   3383    9    1913    1914    1918  # HC-CT-CO
   3384    9    1913    1914    1919  # HC-CT-CO
   3385    6    1917    1914    1918  # HC-CT-HC
   3386    6    1917    1914    1919  # HC-CT-HC
   3387    6    1918    1914    1919  # HC-CT-HC
   3388    7    1921    1920    1922  # CT-CO-O2
   3389    7    1921    1920    1923  # CT-CO-O2
   3390    8    1922    1920    1923  # O2-CO-O2
   3391    9    1920    1921    1924  # HC-CT-CO
   3392    9    1920    1921    1925  # HC-CT-CO
   3393    9    1920    1921    1926  # HC-CT-CO
   3394    6    1924    1921    1925  # HC-CT-HC
   3395    6    1924    1921    1926  # HC-CT-HC
   3396    6    1925    1921    1926  # HC-CT-HC
   3397    7    1928    1927    1929  # CT-CO-O2
   3398    7    1928    1927    1930  # CT-CO-O2
   3399    8    1929    1927    1930  # O2-CO-O2
   3400    9    1927    1928    1931  # HC-CT-CO
   3401    9    1927    1928    1932  # HC-CT-CO
   3402    9    1927    1928    1933  # HC-CT-CO
   3403    6    1931    1928    1932  # HC-CT-HC
   3404    6    1931    1928    1933  # HC-CT-HC
   3405    6    1932    1928    1933  # HC-CT-HC
   3406    7    1935    1934    1936  # CT-CO-O2
   3407    7    1935    1934    1937  # CT-CO-O2
   3408    8    1936    1934    1937  # O2-CO-O2
   3409    9    1934    1935    1938  # HC-CT-CO
   3410    9    1934    1935    1939  # HC-CT-CO
   3411    9    1934    1935    1940  # HC-CT-CO
   3412    6    1938    1935    1939  # HC-CT-HC
   3413    6    1938    1935    1940  # HC-CT-HC
   3414    6    1939    1935    1940  # HC-CT-HC
   3415    7    1942    1941    1943  # CT-CO-O2
   3416    7    1942    1941    1944  # CT-CO-O2
   3417    8    1943    1941    1944  # O2-CO-O2
   3418    9    1941    1942    1945  # HC-CT-CO
   3419    9    1941    1942    1946  # HC-CT-CO
   3420    9    1941    1942    1947  # HC-CT-CO
   3421    6    1945    1942    1946  # HC-CT-HC
   3422    6    1945    1942    1947  # HC-CT-HC
   3423    6    1946    1942    1947  # HC-CT-HC
   3424    7    1949    1948    1950  # CT-CO-O2
   3425    7    1949    1948    1951  # CT-CO-O2
   3426    8    1950    1948    1951  # O2-CO-O2
   3427    9    1948    1949    1952  # HC-CT-CO
   3428    9    1948    1949    1953  # HC-CT-CO
   3429    9    1948    1949    1954  # HC-CT-CO
   3430    6    1952    1949    1953  # HC-CT-HC
   3431    6    1952    1949    1954  # HC-CT-HC
   3432    6    1953    1949    1954  # HC-CT-HC
   3433    7    1956    1955    1957  # CT-CO-O2
   3434    7    1956    1955    1958  # CT-CO-O2
   3435    8    1957    1955    1958  # O2-CO-O2
   3436    9    1955    1956    1959  # HC-CT-CO
   3437    9    1955    1956    1960  # HC-CT-CO
   3438    9    1955    1956    1961  # HC-CT-CO
   3439    6    1959    1956    1960  # HC-CT-HC
   3440    6    1959    1956    1961  # HC-CT-HC
   3441    6    1960    1956    1961  # HC-CT-HC
   3442    7    1963    1962    1964  # CT-CO-O2
   3443    7    1963    1962    1965  # CT-CO-O2
   3444    8    1964    1962    1965  # O2-CO-O2
   3445    9    1962    1963    1966  # HC-CT-CO
   3446    9    1962    1963    1967  # HC-CT-CO
   3447    9    1962    1963    1968  # HC-CT-CO
   3448    6    1966    1963    1967  # HC-CT-HC
   3449    6    1966    1963    1968  # HC-CT-HC
   3450    6    1967    1963    1968  # HC-CT-HC
   3451    7    1970    1969    1971  # CT-CO-O2
   3452    7    1970    1969    1972  # CT-CO-O2
   3453    8    1971    1969    1972  # O2-CO-O2
   3454    9    1969    1970    1973  # HC-CT-CO
   3455    9    1969    1970    1974  # HC-CT-CO
   3456    9    1969    1970    1975  # HC-CT-CO
   3457    6    1973    1970    1974  # HC-CT-HC
   3458    6    1973    1970    1975  # HC-CT-HC
   3459    6    1974    1970    1975  # HC-CT-HC
   3460    7    1977    1976    1978  # CT-CO-O2
   3461    7    1977    1976    1979  # CT-CO-O2
   3462    8    1978    1976    1979  # O2-CO-O2
   3463    9    1976    1977    1980  # HC-CT-CO
   3464    9    1976    1977    1981  # HC-CT-CO
   3465    9    1976    1977    1982  # HC-CT-CO
   3466    6    1980    1977    1981  # HC-CT-HC
   3467    6    1980    1977    1982  # HC-CT-HC
   3468    6    1981    1977    1982  # HC-CT-HC
   3469    7    1984    1983    1985  # CT-CO-O2
   3470    7    1984    1983    1986  # CT-CO-O2
   3471    8    1985    1983    1986  # O2-CO-O2
   3472    9    1983    1984    1987  # HC-CT-CO
   3473    9    1983    1984    1988  # HC-CT-CO
   3474    9    1983    1984    1989  # HC-CT-CO
   3475    6    1987    1984    1988  # HC-CT-HC
   3476    6    1987    1984    1989  # HC-CT-HC
   3477    6    1988    1984    1989  # HC-CT-HC
   3478    7    1991    1990    1992  # CT-CO-O2
   3479    7    1991    1990    1993  # CT-CO-O2
   3480    8    1992    1990    1993  # O2-CO-O2
   3481    9    1990    1991    1994  # HC-CT-CO
   3482    9    1990    1991    1995  # HC-CT-CO
   3483    9    1990    1991    1996  # HC-CT-CO
   3484    6    1994    1991    1995  # HC-CT-HC
   3485    6    1994    1991    1996  # HC-CT-HC
   3486    6    1995    1991    1996  # HC-CT-HC
   3487    7    1998    1997    1999  # CT-CO-O2
   3488    7    1998    1997    2000  # CT-CO-O2
   3489    8    1999    1997    2000  # O2-CO-O2
   3490    9    1997    1998    2001  # HC-CT-CO
   3491    9    1997    1998    2002  # HC-CT-CO
   3492    9    1997    1998    2003  # HC-CT-CO
   3493    6    2001    1998    2002  # HC-CT-HC
   3494    6    2001    1998    2003  # HC-CT-HC
   3495    6    2002    1998    2003  # HC-CT-HC
   3496    7    2005    2004    2006  # CT-CO-O2
   3497    7    2005    2004    2007  # CT-CO-O2
   3498    8    2006    2004    2007  # O2-CO-O2
   3499    9    2004    2005    2008  # HC-CT-CO
   3500    9    2004    2005    2009  # HC-CT-CO
   3501    9    2004    2005    2010  # HC-CT-CO
   3502    6    2008    2005    2009  # HC-CT-HC
   3503    6    2008    2005    2010  # HC-CT-HC
   3504    6    2009    2005    2010  # HC-CT-HC
   3505    7    2012    2011    2013  # CT-CO-O2
   3506    7    2012    2011    2014  # CT-CO-O2
   3507    8    2013    2011    2014  # O2-CO-O2
   3508    9    2011    2012    2015  # HC-CT-CO
   3509    9    2011    2012    2016  # HC-CT-CO
   3510    9    2011    2012    2017  # HC-CT-CO
   3511    6    2015    2012    2016  # HC-CT-HC
   3512    6    2015    2012    2017  # HC-CT-HC
   3513    6    2016    2012    2017  # HC-CT-HC
   3514    7    2019    2018    2020  # CT-CO-O2
   3515    7    2019    2018    2021  # CT-CO-O2
   3516    8    2020    2018    2021  # O2-CO-O2
   3517    9    2018    2019    2022  # HC-CT-CO
   3518    9    2018    2019    2023  # HC-CT-CO
   3519    9    2018    2019    2024  # HC-CT-CO
   3520    6    2022    2019    2023  # HC-CT-HC
   3521    6    2022    2019    2024  # HC-CT-HC
   3522    6    2023    2019    2024  # HC-CT-HC
   3523    7    2026    2025    2027  # CT-CO-O2
   3524    7    2026    2025    2028  # CT-CO-O2
   3525    8    2027    2025    2028  # O2-CO-O2
   3526    9    2025    2026    2029  # HC-CT-CO
   3527    9    2025    2026    2030  # HC-CT-CO
   3528    9    2025    2026    2031  # HC-CT-CO
   3529    6    2029    2026    2030  # HC-CT-HC
   3530    6    2029    2026    2031  # HC-CT-HC
   3531    6    2030    2026    2031  # HC-CT-HC
   3532    7    2033    2032    2034  # CT-CO-O2
   3533    7    2033    2032    2035  # CT-CO-O2
   3534    8    2034    2032    2035  # O2-CO-O2
   3535    9    2032    2033    2036  # HC-CT-CO
   3536    9    2032    2033    2037  # HC-CT-CO
   3537    9    2032    2033    2038  # HC-CT-CO
   3538    6    2036    2033    2037  # HC-CT-HC
   3539    6    2036    2033    2038  # HC-CT-HC
   3540    6    2037    2033    2038  # HC-CT-HC
   3541    7    2040    2039    2041  # CT-CO-O2
   3542    7    2040    2039    2042  # CT-CO-O2
   3543    8    2041    2039    2042  # O2-CO-O2
   3544    9    2039    2040    2043  # HC-CT-CO
   3545    9    2039    2040    2044  # HC-CT-CO
   3546    9    2039    2040    2045  # HC-CT-CO
   3547    6    2043    2040    2044  # HC-CT-HC
   3548    6    2043    2040    2045  # HC-CT-HC
   3549    6    2044    2040    2045  # HC-CT-HC
   3550    7    2047    2046    2048  # CT-CO-O2
   3551    7    2047    2046    2049  # CT-CO-O2
   3552    8    2048    2046    2049  # O2-CO-O2
   3553    9    2046    2047    2050  # HC-CT-CO
   3554    9    2046    2047    2051  # HC-CT-CO
   3555    9    2046    2047    2052  # HC-CT-CO
   3556    6    2050    2047    2051  # HC-CT-HC
   3557    6    2050    2047    2052  # HC-CT-HC
   3558    6    2051    2047    2052  # HC-CT-HC
   3559    7    2054    2053    2055  # CT-CO-O2
   3560    7    2054    2053    2056  # CT-CO-O2
   3561    8    2055    2053    2056  # O2-CO-O2
   3562    9    2053    2054    2057  # HC-CT-CO
   3563    9    2053    2054    2058  # HC-CT-CO
   3564    9    2053    2054    2059  # HC-CT-CO
   3565    6    2057    2054    2058  # HC-CT-HC
   3566    6    2057    2054    2059  # HC-CT-HC
   3567    6    2058    2054    2059  # HC-CT-HC
   3568    7    2061    2060    2062  # CT-CO-O2
   3569    7    2061    2060    2063  # CT-CO-O2
   3570    8    2062    2060    2063  # O2-CO-O2
   3571    9    2060    2061    2064  # HC-CT-CO
   3572    9    2060    2061    2065  # HC-CT-CO
   3573    9    2060    2061    2066  # HC-CT-CO
   3574    6    2064    2061    2065  # HC-CT-HC
   3575    6    2064    2061    2066  # HC-CT-HC
   3576    6    2065    2061    2066  # HC-CT-HC
   3577    7    2068    2067    2069  # CT-CO-O2
   3578    7    2068    2067    2070  # CT-CO-O2
   3579    8    2069    2067    2070  # O2-CO-O2
   3580    9    2067    2068    2071  # HC-CT-CO
   3581    9    2067    2068    2072  # HC-CT-CO
   3582    9    2067    2068    2073  # HC-CT-CO
   3583    6    2071    2068    2072  # HC-CT-HC
   3584    6    2071    2068    2073  # HC-CT-HC
   3585    6    2072    2068    2073  # HC-CT-HC
   3586    7    2075    2074    2076  # CT-CO-O2
   3587    7    2075    2074    2077  # CT-CO-O2
   3588    8    2076    2074    2077  # O2-CO-O2
   3589    9    2074    2075    2078  # HC-CT-CO
   3590    9    2074    2075    2079  # HC-CT-CO
   3591    9    2074    2075    2080  # HC-CT-CO
   3592    6    2078    2075    2079  # HC-CT-HC
   3593    6    2078    2075    2080  # HC-CT-HC
   3594    6    2079    2075    2080  # HC-CT-HC
   3595    7    2082    2081    2083  # CT-CO-O2
   3596    7    2082    2081    2084  # CT-CO-O2
   3597    8    2083    2081    2084  # O2-CO-O2
   3598    9    2081    2082    2085  # HC-CT-CO
   3599    9    2081    2082    2086  # HC-CT-CO
   3600    9    2081    2082    2087  # HC-CT-CO
   3601    6    2085    2082    2086  # HC-CT-HC
   3602    6    2085    2082    2087  # HC-CT-HC
   3603    6    2086    2082    2087  # HC-CT-HC
   3604    7    2089    2088    2090  # CT-CO-O2
   3605    7    2089    2088    2091  # CT-CO-O2
   3606    8    2090    2088    2091  # O2-CO-O2
   3607    9    2088    2089    2092  # HC-CT-CO
   3608    9    2088    2089    2093  # HC-CT-CO
   3609    9    2088    2089    2094  # HC-CT-CO
   3610    6    2092    2089    2093  # HC-CT-HC
   3611    6    2092    2089    2094  # HC-CT-HC
   3612    6    2093    2089    2094  # HC-CT-HC
   3613    7    2096    2095    2097  # CT-CO-O2
   3614    7    2096    2095    2098  # CT-CO-O2
   3615    8    2097    2095    2098  # O2-CO-O2
   3616    9    2095    2096    2099  # HC-CT-CO
   3617    9    2095    2096    2100  # HC-CT-CO
   3618    9    2095    2096    2101  # HC-CT-CO
   3619    6    2099    2096    2100  # HC-CT-HC
   3620    6    2099    2096    2101  # HC-CT-HC
   3621    6    2100    2096    2101  # HC-CT-HC
   3622    7    2103    2102    2104  # CT-CO-O2
   3623    7    2103    2102    2105  # CT-CO-O2
   3624    8    2104    2102    2105  # O2-CO-O2
   3625    9    2102    2103    2106  # HC-CT-CO
   3626    9    2102    2103    2107  # HC-CT-CO
   3627    9    2102    2103    2108  # HC-CT-CO
   3628    6    2106    2103    2107  # HC-CT-HC
   3629    6    2106    2103    2108  # HC-CT-HC
   3630    6    2107    2103    2108  # HC-CT-HC
   3631    7    2110    2109    2111  # CT-CO-O2
   3632    7    2110    2109    2112  # CT-CO-O2
   3633    8    2111    2109    2112  # O2-CO-O2
   3634    9    2109    2110    2113  # HC-CT-CO
   3635    9    2109    2110    2114  # HC-CT-CO
   3636    9    2109    2110    2115  # HC-CT-CO
   3637    6    2113    2110    2114  # HC-CT-HC
   3638    6    2113    2110    2115  # HC-CT-HC
   3639    6    2114    2110    2115  # HC-CT-HC
   3640    7    2117    2116    2118  # CT-CO-O2
   3641    7    2117    2116    2119  # CT-CO-O2
   3642    8    2118    2116    2119  # O2-CO-O2
   3643    9    2116    2117    2120  # HC-CT-CO
   3644    9    2116    2117    2121  # HC-CT-CO
   3645    9    2116    2117    2122  # HC-CT-CO
   3646    6    2120    2117    2121  # HC-CT-HC
   3647    6    2120    2117    2122  # HC-CT-HC
   3648    6    2121    2117    2122  # HC-CT-HC
   3649    7    2124    2123    2125  # CT-CO-O2
   3650    7    2124    2123    2126  # CT-CO-O2
   3651    8    2125    2123    2126  # O2-CO-O2
   3652    9    2123    2124    2127  # HC-CT-CO
   3653    9    2123    2124    2128  # HC-CT-CO
   3654    9    2123    2124    2129  # HC-CT-CO
   3655    6    2127    2124    2128  # HC-CT-HC
   3656    6    2127    2124    2129  # HC-CT-HC
   3657    6    2128    2124    2129  # HC-CT-HC
   3658    7    2131    2130    2132  # CT-CO-O2
   3659    7    2131    2130    2133  # CT-CO-O2
   3660    8    2132    2130    2133  # O2-CO-O2
   3661    9    2130    2131    2134  # HC-CT-CO
   3662    9    2130    2131    2135  # HC-CT-CO
   3663    9    2130    2131    2136  # HC-CT-CO
   3664    6    2134    2131    2135  # HC-CT-HC
   3665    6    2134    2131    2136  # HC-CT-HC
   3666    6    2135    2131    2136  # HC-CT-HC
   3667    7    2138    2137    2139  # CT-CO-O2
   3668    7    2138    2137    2140  # CT-CO-O2
   3669    8    2139    2137    2140  # O2-CO-O2
   3670    9    2137    2138    2141  # HC-CT-CO
   3671    9    2137    2138    2142  # HC-CT-CO
   3672    9    2137    2138    2143  # HC-CT-CO
   3673    6    2141    2138    2142  # HC-CT-HC
   3674    6    2141    2138    2143  # HC-CT-HC
   3675    6    2142    2138    2143  # HC-CT-HC
   3676    7    2145    2144    2146  # CT-CO-O2
   3677    7    2145    2144    2147  # CT-CO-O2
   3678    8    2146    2144    2147  # O2-CO-O2
   3679    9    2144    2145    2148  # HC-CT-CO
   3680    9    2144    2145    2149  # HC-CT-CO
   3681    9    2144    2145    2150  # HC-CT-CO
   3682    6    2148    2145    2149  # HC-CT-HC
   3683    6    2148    2145    2150  # HC-CT-HC
   3684    6    2149    2145    2150  # HC-CT-HC
   3685    7    2152    2151    2153  # CT-CO-O2
   3686    7    2152    2151    2154  # CT-CO-O2
   3687    8    2153    2151    2154  # O2-CO-O2
   3688    9    2151    2152    2155  # HC-CT-CO
   3689    9    2151    2152    2156  # HC-CT-CO
   3690    9    2151    2152    2157  # HC-CT-CO
   3691    6    2155    2152    2156  # HC-CT-HC
   3692    6    2155    2152    2157  # HC-CT-HC
   3693    6    2156    2152    2157  # HC-CT-HC
   3694    7    2159    2158    2160  # CT-CO-O2
   3695    7    2159    2158    2161  # CT-CO-O2
   3696    8    2160    2158    2161  # O2-CO-O2
   3697    9    2158    2159    2162  # HC-CT-CO
   3698    9    2158    2159    2163  # HC-CT-CO
   3699    9    2158    2159    2164  # HC-CT-CO
   3700    6    2162    2159    2163  # HC-CT-HC
   3701    6    2162    2159    2164  # HC-CT-HC
   3702    6    2163    2159    2164  # HC-CT-HC
   3703    7    2166    2165    2167  # CT-CO-O2
   3704    7    2166    2165    2168  # CT-CO-O2
   3705    8    2167    2165    2168  # O2-CO-O2
   3706    9    2165    2166    2169  # HC-CT-CO
   3707    9    2165    2166    2170  # HC-CT-CO
   3708    9    2165    2166    2171  # HC-CT-CO
   3709    6    2169    2166    2170  # HC-CT-HC
   3710    6    2169    2166    2171  # HC-CT-HC
   3711    6    2170    2166    2171  # HC-CT-HC
   3712    7    2173    2172    2174  # CT-CO-O2
   3713    7    2173    2172    2175  # CT-CO-O2
   3714    8    2174    2172    2175  # O2-CO-O2
   3715    9    2172    2173    2176  # HC-CT-CO
   3716    9    2172    2173    2177  # HC-CT-CO
   3717    9    2172    2173    2178  # HC-CT-CO
   3718    6    2176    2173    2177  # HC-CT-HC
   3719    6    2176    2173    2178  # HC-CT-HC
   3720    6    2177    2173    2178  # HC-CT-HC
   3721    7    2180    2179    2181  # CT-CO-O2
   3722    7    2180    2179    2182  # CT-CO-O2
   3723    8    2181    2179    2182  # O2-CO-O2
   3724    9    2179    2180    2183  # HC-CT-CO
   3725    9    2179    2180    2184  # HC-CT-CO
   3726    9    2179    2180    2185  # HC-CT-CO
   3727    6    2183    2180    2184  # HC-CT-HC
   3728    6    2183    2180    2185  # HC-CT-HC
   3729    6    2184    2180    2185  # HC-CT-HC
   3730    7    2187    2186    2188  # CT-CO-O2
   3731    7    2187    2186    2189  # CT-CO-O2
   3732    8    2188    2186    2189  # O2-CO-O2
   3733    9    2186    2187    2190  # HC-CT-CO
   3734    9    2186    2187    2191  # HC-CT-CO
   3735    9    2186    2187    2192  # HC-CT-CO
   3736    6    2190    2187    2191  # HC-CT-HC
   3737    6    2190    2187    2192  # HC-CT-HC
   3738    6    2191    2187    2192  # HC-CT-HC
   3739    7    2194    2193    2195  # CT-CO-O2
   3740    7    2194    2193    2196  # CT-CO-O2
   3741    8    2195    2193    2196  # O2-CO-O2
   3742    9    2193    2194    2197  # HC-CT-CO
   3743    9    2193    2194    2198  # HC-CT-CO
   3744    9    2193    2194    2199  # HC-CT-CO
   3745    6    2197    2194    2198  # HC-CT-HC
   3746    6    2197    2194    2199  # HC-CT-HC
   3747    6    2198    2194    2199  # HC-CT-HC
   3748    7    2201    2200    2202  # CT-CO-O2
   3749    7    2201    2200    2203  # CT-CO-O2
   3750    8    2202    2200    2203  # O2-CO-O2
   3751    9    2200    2201    2204  # HC-CT-CO
   3752    9    2200    2201    2205  # HC-CT-CO
   3753    9    2200    2201    2206  # HC-CT-CO
   3754    6    2204    2201    2205  # HC-CT-HC
   3755    6    2204    2201    2206  # HC-CT-HC
   3756    6    2205    2201    2206  # HC-CT-HC
   3757    7    2208    2207    2209  # CT-CO-O2
   3758    7    2208    2207    2210  # CT-CO-O2
   3759    8    2209    2207    2210  # O2-CO-O2
   3760    9    2207    2208    2211  # HC-CT-CO
   3761    9    2207    2208    2212  # HC-CT-CO
   3762    9    2207    2208    2213  # HC-CT-CO
   3763    6    2211    2208    2212  # HC-CT-HC
   3764    6    2211    2208    2213  # HC-CT-HC
   3765    6    2212    2208    2213  # HC-CT-HC
   3766    7    2215    2214    2216  # CT-CO-O2
   3767    7    2215    2214    2217  # CT-CO-O2
   3768    8    2216    2214    2217  # O2-CO-O2
   3769    9    2214    2215    2218  # HC-CT-CO
   3770    9    2214    2215    2219  # HC-CT-CO
   3771    9    2214    2215    2220  # HC-CT-CO
   3772    6    2218    2215    2219  # HC-CT-HC
   3773    6    2218    2215    2220  # HC-CT-HC
   3774    6    2219    2215    2220  # HC-CT-HC
   3775    7    2222    2221    2223  # CT-CO-O2
   3776    7    2222    2221    2224  # CT-CO-O2
   3777    8    2223    2221    2224  # O2-CO-O2
   3778    9    2221    2222    2225  # HC-CT-CO
   3779    9    2221    2222    2226  # HC-CT-CO
   3780    9    2221    2222    2227  # HC-CT-CO
   3781    6    2225    2222    2226  # HC-CT-HC
   3782    6    2225    2222    2227  # HC-CT-HC
   3783    6    2226    2222    2227  # HC-CT-HC
   3784    7    2229    2228    2230  # CT-CO-O2
   3785    7    2229    2228    2231  # CT-CO-O2
   3786    8    2230    2228    2231  # O2-CO-O2
   3787    9    2228    2229    2232  # HC-CT-CO
   3788    9    2228    2229    2233  # HC-CT-CO
   3789    9    2228    2229    2234  # HC-CT-CO
   3790    6    2232    2229    2233  # HC-CT-HC
   3791    6    2232    2229    2234  # HC-CT-HC
   3792    6    2233    2229    2234  # HC-CT-HC
   3793    7    2236    2235    2237  # CT-CO-O2
   3794    7    2236    2235    2238  # CT-CO-O2
   3795    8    2237    2235    2238  # O2-CO-O2
   3796    9    2235    2236    2239  # HC-CT-CO
   3797    9    2235    2236    2240  # HC-CT-CO
   3798    9    2235    2236    2241  # HC-CT-CO
   3799    6    2239    2236    2240  # HC-CT-HC
   3800    6    2239    2236    2241  # HC-CT-HC
   3801    6    2240    2236    2241  # HC-CT-HC
   3802   10    2242    2243    2244  # Hw-Ow-Hw
   3803   10    2245    2246    2247  # Hw-Ow-Hw
   3804   10    2248    2249    2250  # Hw-Ow-Hw
   3805   10    2251    2252    2253  # Hw-Ow-Hw
   3806   10    2254    2255    2256  # Hw-Ow-Hw
   3807   10    2257    2258    2259  # Hw-Ow-Hw
   3808   10    2260    2261    2262  # Hw-Ow-Hw
   3809   10    2263    2264    2265  # Hw-Ow-Hw
   3810   10    2266    2267    2268  # Hw-Ow-Hw
   3811   10    2269    2270    2271  # Hw-Ow-Hw
   3812   10    2272    2273    2274  # Hw-Ow-Hw
   3813   10    2275    2276    2277  # Hw-Ow-Hw
   3814   10    2278    2279    2280  # Hw-Ow-Hw
   3815   10    2281    2282    2283  # Hw-Ow-Hw
   3816   10    2284    2285    2286  # Hw-Ow-Hw
   3817   10    2287    2288    2289  # Hw-Ow-Hw
   3818   10    2290    2291    2292  # Hw-Ow-Hw
   3819   10    2293    2294    2295  # Hw-Ow-Hw
   3820   10    2296    2297    2298  # Hw-Ow-Hw
   3821   10    2299    2300    2301  # Hw-Ow-Hw
   3822   10    2302    2303    2304  # Hw-Ow-Hw
   3823   10    2305    2306    2307  # Hw-Ow-Hw
   3824   10    2308    2309    2310  # Hw-Ow-Hw
   3825   10    2311    2312    2313  # Hw-Ow-Hw
   3826   10    2314    2315    2316  # Hw-Ow-Hw
   3827   10    2317    2318    2319  # Hw-Ow-Hw
   3828   10    2320    2321    2322  # Hw-Ow-Hw
   3829   10    2323    2324    2325  # Hw-Ow-Hw
   3830   10    2326    2327    2328  # Hw-Ow-Hw
   3831   10    2329    2330    2331  # Hw-Ow-Hw
   3832   10    2332    2333    2334  # Hw-Ow-Hw
   3833   10    2335    2336    2337  # Hw-Ow-Hw
   3834   10    2338    2339    2340  # Hw-Ow-Hw
   3835   10    2341    2342    2343  # Hw-Ow-Hw
   3836   10    2344    2345    2346  # Hw-Ow-Hw
   3837   10    2347    2348    2349  # Hw-Ow-Hw
   3838   10    2350    2351    2352  # Hw-Ow-Hw
   3839   10    2353    2354    2355  # Hw-Ow-Hw
   3840   10    2356    2357    2358  # Hw-Ow-Hw
   3841   10    2359    2360    2361  # Hw-Ow-Hw
   3842   10    2362    2363    2364  # Hw-Ow-Hw
   3843   10    2365    2366    2367  # Hw-Ow-Hw
   3844   10    2368    2369    2370  # Hw-Ow-Hw
   3845   10    2371    2372    2373  # Hw-Ow-Hw
   3846   10    2374    2375    2376  # Hw-Ow-Hw
   3847   10    2377    2378    2379  # Hw-Ow-Hw
   3848   10    2380    2381    2382  # Hw-Ow-Hw
   3849   10    2383    2384    2385  # Hw-Ow-Hw
   3850   10    2386    2387    2388  # Hw-Ow-Hw
   3851   10    2389    2390    2391  # Hw-Ow-Hw
   3852   10    2392    2393    2394  # Hw-Ow-Hw
   3853   10    2395    2396    2397  # Hw-Ow-Hw
   3854   10    2398    2399    2400  # Hw-Ow-Hw
   3855   10    2401    2402    2403  # Hw-Ow-Hw
   3856   10    2404    2405    2406  # Hw-Ow-Hw
   3857   10    2407    2408    2409  # Hw-Ow-Hw
   3858   10    2410    2411    2412  # Hw-Ow-Hw
   3859   10    2413    2414    2415  # Hw-Ow-Hw
   3860   10    2416    2417    2418  # Hw-Ow-Hw
   3861   10    2419    2420    2421  # Hw-Ow-Hw
   3862   10    2422    2423    2424  # Hw-Ow-Hw
   3863   10    2425    2426    2427  # Hw-Ow-Hw
   3864   10    2428    2429    2430  # Hw-Ow-Hw
   3865   10    2431    2432    2433  # Hw-Ow-Hw
   3866   10    2434    2435    2436  # Hw-Ow-Hw
   3867   10    2437    2438    2439  # Hw-Ow-Hw
   3868   10    2440    2441    2442  # Hw-Ow-Hw
   3869   10    2443    2444    2445  # Hw-Ow-Hw
   3870   10    2446    2447    2448  # Hw-Ow-Hw
   3871   10    2449    2450    2451  # Hw-Ow-Hw
   3872   10    2452    2453    2454  # Hw-Ow-Hw
   3873   10    2455    2456    2457  # Hw-Ow-Hw
   3874   10    2458    2459    2460  # Hw-Ow-Hw
   3875   10    2461    2462    2463  # Hw-Ow-Hw
   3876   10    2464    2465    2466  # Hw-Ow-Hw
   3877   10    2467    2468    2469  # Hw-Ow-Hw
   3878   10    2470    2471    2472  # Hw-Ow-Hw
   3879   10    2473    2474    2475  # Hw-Ow-Hw
   3880   10    2476    2477    2478  # Hw-Ow-Hw
   3881   10    2479    2480    2481  # Hw-Ow-Hw
   3882   10    2482    2483    2484  # Hw-Ow-Hw
   3883   10    2485    2486    2487  # Hw-Ow-Hw
   3884   10    2488    2489    2490  # Hw-Ow-Hw
   3885   10    2491    2492    2493  # Hw-Ow-Hw
   3886   10    2494    2495    2496  # Hw-Ow-Hw
   3887   10    2497    2498    2499  # Hw-Ow-Hw
   3888   10    2500    2501    2502  # Hw-Ow-Hw
   3889   10    2503    2504    2505  # Hw-Ow-Hw
   3890   10    2506    2507    2508  # Hw-Ow-Hw
   3891   10    2509    2510    2511  # Hw-Ow-Hw
   3892   10    2512    2513    2514  # Hw-Ow-Hw
   3893   10    2515    2516    2517  # Hw-Ow-Hw
   3894   10    2518    2519    2520  # Hw-Ow-Hw
   3895   10    2521    2522    2523  # Hw-Ow-Hw
   3896   10    2524    2525    2526  # Hw-Ow-Hw
   3897   10    2527    2528    2529  # Hw-Ow-Hw
   3898   10    2530    2531    2532  # Hw-Ow-Hw
   3899   10    2533    2534    2535  # Hw-Ow-Hw
   3900   10    2536    2537    2538  # Hw-Ow-Hw
   3901   10    2539    2540    2541  # Hw-Ow-Hw
   3902   10    2542    2543    2544  # Hw-Ow-Hw
   3903   10    2545    2546    2547  # Hw-Ow-Hw
   3904   10    2548    2549    2550  # Hw-Ow-Hw
   3905   10    2551    2552    2553  # Hw-Ow-Hw
   3906   10    2554    2555    2556  # Hw-Ow-Hw
   3907   10    2557    2558    2559  # Hw-Ow-Hw
   3908   10    2560    2561    2562  # Hw-Ow-Hw
   3909   10    2563    2564    2565  # Hw-Ow-Hw
   3910   10    2566    2567    2568  # Hw-Ow-Hw
   3911   10    2569    2570    2571  # Hw-Ow-Hw
   3912   10    2572    2573    2574  # Hw-Ow-Hw
   3913   10    2575    2576    2577  # Hw-Ow-Hw
   3914   10    2578    2579    2580  # Hw-Ow-Hw
   3915   10    2581    2582    2583  # Hw-Ow-Hw
   3916   10    2584    2585    2586  # Hw-Ow-Hw
   3917   10    2587    2588    2589  # Hw-Ow-Hw
   3918   10    2590    2591    2592  # Hw-Ow-Hw
   3919   10    2593    2594    2595  # Hw-Ow-Hw
   3920   10    2596    2597    2598  # Hw-Ow-Hw
   3921   10    2599    2600    2601  # Hw-Ow-Hw
   3922   10    2602    2603    2604  # Hw-Ow-Hw
   3923   10    2605    2606    2607  # Hw-Ow-Hw
   3924   10    2608    2609    2610  # Hw-Ow-Hw
   3925   10    2611    2612    2613  # Hw-Ow-Hw
   3926   10    2614    2615    2616  # Hw-Ow-Hw
   3927   10    2617    2618    2619  # Hw-Ow-Hw
   3928   10    2620    2621    2622  # Hw-Ow-Hw
   3929   10    2623    2624    2625  # Hw-Ow-Hw
   3930   10    2626    2627    2628  # Hw-Ow-Hw
   3931   10    2629    2630    2631  # Hw-Ow-Hw
   3932   10    2632    2633    2634  # Hw-Ow-Hw
   3933   10    2635    2636    2637  # Hw-Ow-Hw
   3934   10    2638    2639    2640  # Hw-Ow-Hw
   3935   10    2641    2642    2643  # Hw-Ow-Hw
   3936   10    2644    2645    2646  # Hw-Ow-Hw
   3937   10    2647    2648    2649  # Hw-Ow-Hw
   3938   10    2650    2651    2652  # Hw-Ow-Hw
   3939   10    2653    2654    2655  # Hw-Ow-Hw
   3940   10    2656    2657    2658  # Hw-Ow-Hw
   3941   10    2659    2660    2661  # Hw-Ow-Hw
   3942   10    2662    2663    2664  # Hw-Ow-Hw
   3943   10    2665    2666    2667  # Hw-Ow-Hw
   3944   10    2668    2669    2670  # Hw-Ow-Hw
   3945   10    2671    2672    2673  # Hw-Ow-Hw
   3946   10    2674    2675    2676  # Hw-Ow-Hw
   3947   10    2677    2678    2679  # Hw-Ow-Hw
   3948   10    2680    2681    2682  # Hw-Ow-Hw
   3949   10    2683    2684    2685  # Hw-Ow-Hw
   3950   10    2686    2687    2688  # Hw-Ow-Hw
   3951   10    2689    2690    2691  # Hw-Ow-Hw
   3952   10    2692    2693    2694  # Hw-Ow-Hw
   3953   10    2695    2696    2697  # Hw-Ow-Hw
   3954   10    2698    2699    2700  # Hw-Ow-Hw
   3955   10    2701    2702    2703  # Hw-Ow-Hw
   3956   10    2704    2705    2706  # Hw-Ow-Hw
   3957   10    2707    2708    2709  # Hw-Ow-Hw
   3958   10    2710    2711    2712  # Hw-Ow-Hw
   3959   10    2713    2714    2715  # Hw-Ow-Hw
   3960   10    2716    2717    2718  # Hw-Ow-Hw
   3961   10    2719    2720    2721  # Hw-Ow-Hw
   3962   10    2722    2723    2724  # Hw-Ow-Hw
   3963   10    2725    2726    2727  # Hw-Ow-Hw
   3964   10    2728    2729    2730  # Hw-Ow-Hw
   3965   10    2731    2732    2733  # Hw-Ow-Hw
   3966   10    2734    2735    2736  # Hw-Ow-Hw
   3967   10    2737    2738    2739  # Hw-Ow-Hw
   3968   10    2740    2741    2742  # Hw-Ow-Hw
   3969   10    2743    2744    2745  # Hw-Ow-Hw
   3970   10    2746    2747    2748  # Hw-Ow-Hw
   3971   10    2749    2750    2751  # Hw-Ow-Hw
   3972   10    2752    2753    2754  # Hw-Ow-Hw
   3973   10    2755    2756    2757  # Hw-Ow-Hw
   3974   10    2758    2759    2760  # Hw-Ow-Hw
   3975   10    2761    2762    2763  # Hw-Ow-Hw
   3976   10    2764    2765    2766  # Hw-Ow-Hw
   3977   10    2767    2768    2769  # Hw-Ow-Hw
   3978   10    2770    2771    2772  # Hw-Ow-Hw
   3979   10    2773    2774    2775  # Hw-Ow-Hw
   3980   10    2776    2777    2778  # Hw-Ow-Hw
   3981   10    2779    2780    2781  # Hw-Ow-Hw
   3982   10    2782    2783    2784  # Hw-Ow-Hw
   3983   10    2785    2786    2787  # Hw-Ow-Hw
   3984   10    2788    2789    2790  # Hw-Ow-Hw
   3985   10    2791    2792    2793  # Hw-Ow-Hw
   3986   10    2794    2795    2796  # Hw-Ow-Hw
   3987   10    2797    2798    2799  # Hw-Ow-Hw
   3988   10    2800    2801    2802  # Hw-Ow-Hw
   3989   10    2803    2804    2805  # Hw-Ow-Hw
   3990   10    2806    2807    2808  # Hw-Ow-Hw
   3991   10    2809    2810    2811  # Hw-Ow-Hw
   3992   10    2812    2813    2814  # Hw-Ow-Hw
   3993   10    2815    2816    2817  # Hw-Ow-Hw
   3994   10    2818    2819    2820  # Hw-Ow-Hw
   3995   10    2821    2822    2823  # Hw-Ow-Hw
   3996   10    2824    2825    2826  # Hw-Ow-Hw
   3997   10    2827    2828    2829  # Hw-Ow-Hw
   3998   10    2830    2831    2832  # Hw-Ow-Hw
   3999   10    2833    2834    2835  # Hw-Ow-Hw
   4000   10    2836    2837    2838  # Hw-Ow-Hw
   4001   10    2839    2840    2841  # Hw-Ow-Hw
   4002   10    2842    2843    2844  # Hw-Ow-Hw
   4003   10    2845    2846    2847  # Hw-Ow-Hw
   4004   10    2848    2849    2850  # Hw-Ow-Hw
   4005   10    2851    2852    2853  # Hw-Ow-Hw
   4006   10    2854    2855    2856  # Hw-Ow-Hw
   4007   10    2857    2858    2859  # Hw-Ow-Hw
   4008   10    2860    2861    2862  # Hw-Ow-Hw
   4009   10    2863    2864    2865  # Hw-Ow-Hw
   4010   10    2866    2867    2868  # Hw-Ow-Hw
   4011   10    2869    2870    2871  # Hw-Ow-Hw
   4012   10    2872    2873    2874  # Hw-Ow-Hw
   4013   10    2875    2876    2877  # Hw-Ow-Hw
   4014   10    2878    2879    2880  # Hw-Ow-Hw
   4015   10    2881    2882    2883  # Hw-Ow-Hw
   4016   10    2884    2885    2886  # Hw-Ow-Hw
   4017   10    2887    2888    2889  # Hw-Ow-Hw
   4018   10    2890    2891    2892  # Hw-Ow-Hw
   4019   10    2893    2894    2895  # Hw-Ow-Hw
   4020   10    2896    2897    2898  # Hw-Ow-Hw
   4021   10    2899    2900    2901  # Hw-Ow-Hw
   4022   10    2902    2903    2904  # Hw-Ow-Hw
   4023   10    2905    2906    2907  # Hw-Ow-Hw
   4024   10    2908    2909    2910  # Hw-Ow-Hw
   4025   10    2911    2912    2913  # Hw-Ow-Hw
   4026   10    2914    2915    2916  # Hw-Ow-Hw
   4027   10    2917    2918    2919  # Hw-Ow-Hw
   4028   10    2920    2921    2922  # Hw-Ow-Hw
   4029   10    2923    2924    2925  # Hw-Ow-Hw
   4030   10    2926    2927    2928  # Hw-Ow-Hw
   4031   10    2929    2930    2931  # Hw-Ow-Hw
   4032   10    2932    2933    2934  # Hw-Ow-Hw
   4033   10    2935    2936    2937  # Hw-Ow-Hw
   4034   10    2938    2939    2940  # Hw-Ow-Hw
   4035   10    2941    2942    2943  # Hw-Ow-Hw
   4036   10    2944    2945    2946  # Hw-Ow-Hw
   4037   10    2947    2948    2949  # Hw-Ow-Hw
   4038   10    2950    2951    2952  # Hw-Ow-Hw
   4039   10    2953    2954    2955  # Hw-Ow-Hw
   4040   10    2956    2957    2958  # Hw-Ow-Hw
   4041   10    2959    2960    2961  # Hw-Ow-Hw
   4042   10    2962    2963    2964  # Hw-Ow-Hw
   4043   10    2965    2966    2967  # Hw-Ow-Hw
   4044   10    2968    2969    2970  # Hw-Ow-Hw
   4045   10    2971    2972    2973  # Hw-Ow-Hw
   4046   10    2974    2975    2976  # Hw-Ow-Hw
   4047   10    2977    2978    2979  # Hw-Ow-Hw
   4048   10    2980    2981    2982  # Hw-Ow-Hw
   4049   10    2983    2984    2985  # Hw-Ow-Hw
   4050   10    2986    2987    2988  # Hw-Ow-Hw
   4051   10    2989    2990    2991  # Hw-Ow-Hw
   4052   10    2992    2993    2994  # Hw-Ow-Hw
   4053   10    2995    2996    2997  # Hw-Ow-Hw
   4054   10    2998    2999    3000  # Hw-Ow-Hw
   4055   10    3001    3002    3003  # Hw-Ow-Hw
   4056   10    3004    3005    3006  # Hw-Ow-Hw
   4057   10    3007    3008    3009  # Hw-Ow-Hw
   4058   10    3010    3011    3012  # Hw-Ow-Hw
   4059   10    3013    3014    3015  # Hw-Ow-Hw
   4060   10    3016    3017    3018  # Hw-Ow-Hw
   4061   10    3019    3020    3021  # Hw-Ow-Hw
   4062   10    3022    3023    3024  # Hw-Ow-Hw
   4063   10    3025    3026    3027  # Hw-Ow-Hw
   4064   10    3028    3029    3030  # Hw-Ow-Hw
   4065   10    3031    3032    3033  # Hw-Ow-Hw
   4066   10    3034    3035    3036  # Hw-Ow-Hw
   4067   10    3037    3038    3039  # Hw-Ow-Hw
   4068   10    3040    3041    3042  # Hw-Ow-Hw
   4069   10    3043    3044    3045  # Hw-Ow-Hw
   4070   10    3046    3047    3048  # Hw-Ow-Hw
   4071   10    3049    3050    3051  # Hw-Ow-Hw
   4072   10    3052    3053    3054  # Hw-Ow-Hw
   4073   10    3055    3056    3057  # Hw-Ow-Hw
   4074   10    3058    3059    3060  # Hw-Ow-Hw
   4075   10    3061    3062    3063  # Hw-Ow-Hw
   4076   10    3064    3065    3066  # Hw-Ow-Hw
   4077   10    3067    3068    3069  # Hw-Ow-Hw
   4078   10    3070    3071    3072  # Hw-Ow-Hw
   4079   10    3073    3074    3075  # Hw-Ow-Hw
   4080   10    3076    3077    3078  # Hw-Ow-Hw
   4081   10    3079    3080    3081  # Hw-Ow-Hw
   4082   10    3082    3083    3084  # Hw-Ow-Hw
   4083   10    3085    3086    3087  # Hw-Ow-Hw
   4084   10    3088    3089    3090  # Hw-Ow-Hw
   4085   10    3091    3092    3093  # Hw-Ow-Hw
   4086   10    3094    3095    3096  # Hw-Ow-Hw
   4087   10    3097    3098    3099  # Hw-Ow-Hw
   4088   10    3100    3101    3102  # Hw-Ow-Hw
   4089   10    3103    3104    3105  # Hw-Ow-Hw
   4090   10    3106    3107    3108  # Hw-Ow-Hw
   4091   10    3109    3110    3111  # Hw-Ow-Hw
   4092   10    3112    3113    3114  # Hw-Ow-Hw
   4093   10    3115    3116    3117  # Hw-Ow-Hw
   4094   10    3118    3119    3120  # Hw-Ow-Hw
   4095   10    3121    3122    3123  # Hw-Ow-Hw
   4096   10    3124    3125    3126  # Hw-Ow-Hw
   4097   10    3127    3128    3129  # Hw-Ow-Hw

Dihedrals

      1    1       6       2       1       3  # CT-NT-CT-CT
      2    1       6       2       1       4  # CT-NT-CT-CT
      3    2       6       2       1       5  # HN-NT-CT-CT
      4    3       7       2       1       3  # HC-CT-NT-CT
      5    3       7       2       1       4  # HC-CT-NT-CT
      6    4       7       2       1       5  # HN-NT-CT-HC
      7    3       8       2       1       3  # HC-CT-NT-CT
      8    3       8       2       1       4  # HC-CT-NT-CT
      9    4       8       2       1       5  # HN-NT-CT-HC
     10    1       9       3       1       2  # CT-NT-CT-CT
     11    1       9       3       1       4  # CT-NT-CT-CT
     12    2       9       3       1       5  # HN-NT-CT-CT
     13    3      10       3       1       2  # HC-CT-NT-CT
     14    3      10       3       1       4  # HC-CT-NT-CT
     15    4      10       3       1       5  # HN-NT-CT-HC
     16    3      11       3       1       2  # HC-CT-NT-CT
     17    3      11       3       1       4  # HC-CT-NT-CT
     18    4      11       3       1       5  # HN-NT-CT-HC
     19    1      12       4       1       2  # CT-NT-CT-CT
     20    1      12       4       1       3  # CT-NT-CT-CT
     21    2      12       4       1       5  # HN-NT-CT-CT
     22    3      13       4       1       2  # HC-CT-NT-CT
     23    3      13       4       1       3  # HC-CT-NT-CT
     24    4      13       4       1       5  # HN-NT-CT-HC
     25    3      14       4       1       2  # HC-CT-NT-CT
     26    3      14       4       1       3  # HC-CT-NT-CT
     27    4      14       4       1       5  # HN-NT-CT-HC
     28    5      15       6       2       1  # HC-CT-CT-NT
     29    6      15       6       2       7  # HC-CT-CT-HC
     30    6      15       6       2       8  # HC-CT-CT-HC
     31    5      16       6       2       1  # HC-CT-CT-NT
     32    6      16       6       2       7  # HC-CT-CT-HC
     33    6      16       6       2       8  # HC-CT-CT-HC
     34    5      17       6       2       1  # HC-CT-CT-NT
     35    6      17       6       2       7  # HC-CT-CT-HC
     36    6      17       6       2       8  # HC-CT-CT-HC
     37    5      18       9       3       1  # HC-CT-CT-NT
     38    6      18       9       3      10  # HC-CT-CT-HC
     39    6      18       9       3      11  # HC-CT-CT-HC
     40    5      19       9       3       1  # HC-CT-CT-NT
     41    6      19       9       3      10  # HC-CT-CT-HC
     42    6      19       9       3      11  # HC-CT-CT-HC
     43    5      20       9       3       1  # HC-CT-CT-NT
     44    6      20       9       3      10  # HC-CT-CT-HC
     45    6      20       9       3      11  # HC-CT-CT-HC
     46    5      21      12       4       1  # HC-CT-CT-NT
     47    6      21      12       4      13  # HC-CT-CT-HC
     48    6      21      12       4      14  # HC-CT-CT-HC
     49    5      22      12       4       1  # HC-CT-CT-NT
     50    6      22      12       4      13  # HC-CT-CT-HC
     51    6      22      12       4      14  # HC-CT-CT-HC
     52    5      23      12       4       1  # HC-CT-CT-NT
     53    6      23      12       4      13  # HC-CT-CT-HC
     54    6      23      12       4      14  # HC-CT-CT-HC
     55    1      29      25      24      26  # CT-NT-CT-CT
     56    1      29      25      24      27  # CT-NT-CT-CT
     57    2      29      25      24      28  # HN-NT-CT-CT
     58    3      30      25      24      26  # HC-CT-NT-CT
     59    3      30      25      24      27  # HC-CT-NT-CT
     60    4      30      25      24      28  # HN-NT-CT-HC
     61    3      31      25      24      26  # HC-CT-NT-CT
     62    3      31      25      24      27  # HC-CT-NT-CT
     63    4      31      25      24      28  # HN-NT-CT-HC
     64    1      32      26      24      25  # CT-NT-CT-CT
     65    1      32      26      24      27  # CT-NT-CT-CT
     66    2      32      26      24      28  # HN-NT-CT-CT
     67    3      33      26      24      25  # HC-CT-NT-CT
     68    3      33      26      24      27  # HC-CT-NT-CT
     69    4      33      26      24      28  # HN-NT-CT-HC
     70    3      34      26      24      25  # HC-CT-NT-CT
     71    3      34      26      24      27  # HC-CT-NT-CT
     72    4      34      26      24      28  # HN-NT-CT-HC
     73    1      35      27      24      25  # CT-NT-CT-CT
     74    1      35      27      24      26  # CT-NT-CT-CT
     75    2      35      27      24      28  # HN-NT-CT-CT
     76    3      36      27      24      25  # HC-CT-NT-CT
     77    3      36      27      24      26  # HC-CT-NT-CT
     78    4      36      27      24      28  # HN-NT-CT-HC
     79    3      37      27      24      25  # HC-CT-NT-CT
     80    3      37      27      24      26  # HC-CT-NT-CT
     81    4      37      27      24      28  # HN-NT-CT-HC
     82    5      38      29      25      24  # HC-CT-CT-NT
     83    6      38      29      25      30  # HC-CT-CT-HC
     84    6      38      29      25      31  # HC-CT-CT-HC
     85    5      39      29      25      24  # HC-CT-CT-NT
     86    6      39      29      25      30  # HC-CT-CT-HC
     87    6      39      29      25      31  # HC-CT-CT-HC
     88    5      40      29      25      24  # HC-CT-CT-NT
     89    6      40      29      25      30  # HC-CT-CT-HC
     90    6      40      29      25      31  # HC-CT-CT-HC
     91    5      41      32      26      24  # HC-CT-CT-NT
     92    6      41      32      26      33  # HC-CT-CT-HC
     93    6      41      32      26      34  # HC-CT-CT-HC
     94    5      42      32      26      24  # HC-CT-CT-NT
     95    6      42      32      26      33  # HC-CT-CT-HC
     96    6      42      32      26      34  # HC-CT-CT-HC
     97    5      43      32      26      24  # HC-CT-CT-NT
     98    6      43      32      26      33  # HC-CT-CT-HC
     99    6      43      32      26      34  # HC-CT-CT-HC
    100    5      44      35      27      24  # HC-CT-CT-NT
    101    6      44      35      27      36  # HC-CT-CT-HC
    102    6      44      35      27      37  # HC-CT-CT-HC
    103    5      45      35      27      24  # HC-CT-CT-NT
    104    6      45      35      27      36  # HC-CT-CT-HC
    105    6      45      35      27      37  # HC-CT-CT-HC
    106    5      46      35      27      24  # HC-CT-CT-NT
    107    6      46      35      27      36  # HC-CT-CT-HC
    108    6      46      35      27      37  # HC-CT-CT-HC
    109    1      52      48      47      49  # CT-NT-CT-CT
    110    1      52      48      47      50  # CT-NT-CT-CT
    111    2      52      48      47      51  # HN-NT-CT-CT
    112    3      53      48      47      49  # HC-CT-NT-CT
    113    3      53      48      47      50  # HC-CT-NT-CT
    114    4      53      48      47      51  # HN-NT-CT-HC
    115    3      54      48      47      49  # HC-CT-NT-CT
    116    3      54      48      47      50  # HC-CT-NT-CT
    117    4      54      48      47      51  # HN-NT-CT-HC
    118    1      55      49      47      48  # CT-NT-CT-CT
    119    1      55      49      47      50  # CT-NT-CT-CT
    120    2      55      49      47      51  # HN-NT-CT-CT
    121    3      56      49      47      48  # HC-CT-NT-CT
    122    3      56      49      47      50  # HC-CT-NT-CT
    123    4      56      49      47      51  # HN-NT-CT-HC
    124    3      57      49      47      48  # HC-CT-NT-CT
    125    3      57      49      47      50  # HC-CT-NT-CT
    126    4      57      49      47      51  # HN-NT-CT-HC
    127    1      58      50      47      48  # CT-NT-CT-CT
    128    1      58      50      47      49  # CT-NT-CT-CT
    129    2      58      50      47      51  # HN-NT-CT-CT
    130    3      59      50      47      48  # HC-CT-NT-CT
    131    3      59      50      47      49  # HC-CT-NT-CT
    132    4      59      50      47      51  # HN-NT-CT-HC
    133    3      60      50      47      48  # HC-CT-NT-CT
    134    3      60      50      47      49  # HC-CT-NT-CT
    135    4      60      50      47      51  # HN-NT-CT-HC
    136    5      61      52      48      47  # HC-CT-CT-NT
    137    6      61      52      48      53  # HC-CT-CT-HC
    138    6      61      52      48      54  # HC-CT-CT-HC
    139    5      62      52      48      47  # HC-CT-CT-NT
    140    6      62      52      48      53  # HC-CT-CT-HC
    141    6      62      52      48      54  # HC-CT-CT-HC
    142    5      63      52      48      47  # HC-CT-CT-NT
    143    6      63      52      48      53  # HC-CT-CT-HC
    144    6      63      52      48      54  # HC-CT-CT-HC
    145    5      64      55      49      47  # HC-CT-CT-NT
    146    6      64      55      49      56  # HC-CT-CT-HC
    147    6      64      55      49      57  # HC-CT-CT-HC
    148    5      65      55      49      47  # HC-CT-CT-NT
    149    6      65      55      49      56  # HC-CT-CT-HC
    150    6      65      55      49      57  # HC-CT-CT-HC
    151    5      66      55      49      47  # HC-CT-CT-NT
    152    6      66      55      49      56  # HC-CT-CT-HC
    153    6      66      55      49      57  # HC-CT-CT-HC
    154    5      67      58      50      47  # HC-CT-CT-NT
    155    6      67      58      50      59  # HC-CT-CT-HC
    156    6      67      58      50      60  # HC-CT-CT-HC
    157    5      68      58      50      47  # HC-CT-CT-NT
    158    6      68      58      50      59  # HC-CT-CT-HC
    159    6      68      58      50      60  # HC-CT-CT-HC
    160    5      69      58      50      47  # HC-CT-CT-NT
    161    6      69      58      50      59  # HC-CT-CT-HC
    162    6      69      58      50      60  # HC-CT-CT-HC
    163    1      75      71      70      72  # CT-NT-CT-CT
    164    1      75      71      70      73  # CT-NT-CT-CT
    165    2      75      71      70      74  # HN-NT-CT-CT
    166    3      76      71      70      72  # HC-CT-NT-CT
    167    3      76      71      70      73  # HC-CT-NT-CT
    168    4      76      71      70      74  # HN-NT-CT-HC
    169    3      77      71      70      72  # HC-CT-NT-CT
    170    3      77      71      70      73  # HC-CT-NT-CT
    171    4      77      71      70      74  # HN-NT-CT-HC
    172    1      78      72      70      71  # CT-NT-CT-CT
    173    1      78      72      70      73  # CT-NT-CT-CT
    174    2      78      72      70      74  # HN-NT-CT-CT
    175    3      79      72      70      71  # HC-CT-NT-CT
    176    3      79      72      70      73  # HC-CT-NT-CT
    177    4      79      72      70      74  # HN-NT-CT-HC
    178    3      80      72      70      71  # HC-CT-NT-CT
    179    3      80      72      70      73  # HC-CT-NT-CT
    180    4      80      72      70      74  # HN-NT-CT-HC
    181    1      81      73      70      71  # CT-NT-CT-CT
    182    1      81      73      70      72  # CT-NT-CT-CT
    183    2      81      73      70      74  # HN-NT-CT-CT
    184    3      82      73      70      71  # HC-CT-NT-CT
    185    3      82      73      70      72  # HC-CT-NT-CT
    186    4      82      73      70      74  # HN-NT-CT-HC
    187    3      83      73      70      71  # HC-CT-NT-CT
    188    3      83      73      70      72  # HC-CT-NT-CT
    189    4      83      73      70      74  # HN-NT-CT-HC
    190    5      84      75      71      70  # HC-CT-CT-NT
    191    6      84      75      71      76  # HC-CT-CT-HC
    192    6      84      75      71      77  # HC-CT-CT-HC
    193    5      85      75      71      70  # HC-CT-CT-NT
    194    6      85      75      71      76  # HC-CT-CT-HC
    195    6      85      75      71      77  # HC-CT-CT-HC
    196    5      86      75      71      70  # HC-CT-CT-NT
    197    6      86      75      71      76  # HC-CT-CT-HC
    198    6      86      75      71      77  # HC-CT-CT-HC
    199    5      87      78      72      70  # HC-CT-CT-NT
    200    6      87      78      72      79  # HC-CT-CT-HC
    201    6      87      78      72      80  # HC-CT-CT-HC
    202    5      88      78      72      70  # HC-CT-CT-NT
    203    6      88      78      72      79  # HC-CT-CT-HC
    204    6      88      78      72      80  # HC-CT-CT-HC
    205    5      89      78      72      70  # HC-CT-CT-NT
    206    6      89      78      72      79  # HC-CT-CT-HC
    207    6      89      78      72      80  # HC-CT-CT-HC
    208    5      90      81      73      70  # HC-CT-CT-NT
    209    6      90      81      73      82  # HC-CT-CT-HC
    210    6      90      81      73      83  # HC-CT-CT-HC
    211    5      91      81      73      70  # HC-CT-CT-NT
    212    6      91      81      73      82  # HC-CT-CT-HC
    213    6      91      81      73      83  # HC-CT-CT-HC
    214    5      92      81      73      70  # HC-CT-CT-NT
    215    6      92      81      73      82  # HC-CT-CT-HC
    216    6      92      81      73      83  # HC-CT-CT-HC
    217    1      98      94      93      95  # CT-NT-CT-CT
    218    1      98      94      93      96  # CT-NT-CT-CT
    219    2      98      94      93      97  # HN-NT-CT-CT
    220    3      99      94      93      95  # HC-CT-NT-CT
    221    3      99      94      93      96  # HC-CT-NT-CT
    222    4      99      94      93      97  # HN-NT-CT-HC
    223    3     100      94      93      95  # HC-CT-NT-CT
    224    3     100      94      93      96  # HC-CT-NT-CT
    225    4     100      94      93      97  # HN-NT-CT-HC
    226    1     101      95      93      94  # CT-NT-CT-CT
    227    1     101      95      93      96  # CT-NT-CT-CT
    228    2     101      95      93      97  # HN-NT-CT-CT
    229    3     102      95      93      94  # HC-CT-NT-CT
    230    3     102      95      93      96  # HC-CT-NT-CT
    231    4     102      95      93      97  # HN-NT-CT-HC
    232    3     103      95      93      94  # HC-CT-NT-CT
    233    3     103      95      93      96  # HC-CT-NT-CT
    234    4     103      95      93      97  # HN-NT-CT-HC
    235    1     104      96      93      94  # CT-NT-CT-CT
    236    1     104      96      93      95  # CT-NT-CT-CT
    237    2     104      96      93      97  # HN-NT-CT-CT
    238    3     105      96      93      94  # HC-CT-NT-CT
    239    3     105      96      93      95  # HC-CT-NT-CT
    240    4     105      96      93      97  # HN-NT-CT-HC
    241    3     106      96      93      94  # HC-CT-NT-CT
    242    3     106      96      93      95  # HC-CT-NT-CT
    243    4     106      96      93      97  # HN-NT-CT-HC
    244    5     107      98      94      93  # HC-CT-CT-NT
    245    6     107      98      94      99  # HC-CT-CT-HC
    246    6     107      98      94     100  # HC-CT-CT-HC
    247    5     108      98      94      93  # HC-CT-CT-NT
    248    6     108      98      94      99  # HC-CT-CT-HC
    249    6     108      98      94     100  # HC-CT-CT-HC
    250    5     109      98      94      93  # HC-CT-CT-NT
    251    6     109      98      94      99  # HC-CT-CT-HC
    252    6     109      98      94     100  # HC-CT-CT-HC
    253    5     110     101      95      93  # HC-CT-CT-NT
    254    6     110     101      95     102  # HC-CT-CT-HC
    255    6     110     101      95     103  # HC-CT-CT-HC
    256    5     111     101      95      93  # HC-CT-CT-NT
    257    6     111     101      95     102  # HC-CT-CT-HC
    258    6     111     101      95     103  # HC-CT-CT-HC
    259    5     112     101      95      93  # HC-CT-CT-NT
    260    6     112     101      95     102  # HC-CT-CT-HC
    261    6     112     101      95     103  # HC-CT-CT-HC
    262    5     113     104      96      93  # HC-CT-CT-NT
    263    6     113     104      96     105  # HC-CT-CT-HC
    264    6     113     104      96     106  # HC-CT-CT-HC
    265    5     114     104      96      93  # HC-CT-CT-NT
    266    6     114     104      96     105  # HC-CT-CT-HC
    267    6     114     104      96     106  # HC-CT-CT-HC
    268    5     115     104      96      93  # HC-CT-CT-NT
    269    6     115     104      96     105  # HC-CT-CT-HC
    270    6     115     104      96     106  # HC-CT-CT-HC
    271    1     121     117     116     118  # CT-NT-CT-CT
    272    1     121     117     116     119  # CT-NT-CT-CT
    273    2     121     117     116     120  # HN-NT-CT-CT
    274    3     122     117     116     118  # HC-CT-NT-CT
    275    3     122     117     116     119  # HC-CT-NT-CT
    276    4     122     117     116     120  # HN-NT-CT-HC
    277    3     123     117     116     118  # HC-CT-NT-CT
    278    3     123     117     116     119  # HC-CT-NT-CT
    279    4     123     117     116     120  # HN-NT-CT-HC
    280    1     124     118     116     117  # CT-NT-CT-CT
    281    1     124     118     116     119  # CT-NT-CT-CT
    282    2     124     118     116     120  # HN-NT-CT-CT
    283    3     125     118     116     117  # HC-CT-NT-CT
    284    3     125     118     116     119  # HC-CT-NT-CT
    285    4     125     118     116     120  # HN-NT-CT-HC
    286    3     126     118     116     117  # HC-CT-NT-CT
    287    3     126     118     116     119  # HC-CT-NT-CT
    288    4     126     118     116     120  # HN-NT-CT-HC
    289    1     127     119     116     117  # CT-NT-CT-CT
    290    1     127     119     116     118  # CT-NT-CT-CT
    291    2     127     119     116     120  # HN-NT-CT-CT
    292    3     128     119     116     117  # HC-CT-NT-CT
    293    3     128     119     116     118  # HC-CT-NT-CT
    294    4     128     119     116     120  # HN-NT-CT-HC
    295    3     129     119     116     117  # HC-CT-NT-CT
    296    3     129     119     116     118  # HC-CT-NT-CT
    297    4     129     119     116     120  # HN-NT-CT-HC
    298    5     130     121     117     116  # HC-CT-CT-NT
    299    6     130     121     117     122  # HC-CT-CT-HC
    300    6     130     121     117     123  # HC-CT-CT-HC
    301    5     131     121     117     116  # HC-CT-CT-NT
    302    6     131     121     117     122  # HC-CT-CT-HC
    303    6     131     121     117     123  # HC-CT-CT-HC
    304    5     132     121     117     116  # HC-CT-CT-NT
    305    6     132     121     117     122  # HC-CT-CT-HC
    306    6     132     121     117     123  # HC-CT-CT-HC
    307    5     133     124     118     116  # HC-CT-CT-NT
    308    6     133     124     118     125  # HC-CT-CT-HC
    309    6     133     124     118     126  # HC-CT-CT-HC
    310    5     134     124     118     116  # HC-CT-CT-NT
    311    6     134     124     118     125  # HC-CT-CT-HC
    312    6     134     124     118     126  # HC-CT-CT-HC
    313    5     135     124     118     116  # HC-CT-CT-NT
    314    6     135     124     118     125  # HC-CT-CT-HC
    315    6     135     124     118     126  # HC-CT-CT-HC
    316    5     136     127     119     116  # HC-CT-CT-NT
    317    6     136     127     119     128  # HC-CT-CT-HC
    318    6     136     127     119     129  # HC-CT-CT-HC
    319    5     137     127     119     116  # HC-CT-CT-NT
    320    6     137     127     119     128  # HC-CT-CT-HC
    321    6     137     127     119     129  # HC-CT-CT-HC
    322    5     138     127     119     116  # HC-CT-CT-NT
    323    6     138     127     119     128  # HC-CT-CT-HC
    324    6     138     127     119     129  # HC-CT-CT-HC
    325    1     144     140     139     141  # CT-NT-CT-CT
    326    1     144     140     139     142  # CT-NT-CT-CT
    327    2     144     140     139     143  # HN-NT-CT-CT
    328    3     145     140     139     141  # HC-CT-NT-CT
    329    3     145     140     139     142  # HC-CT-NT-CT
    330    4     145     140     139     143  # HN-NT-CT-HC
    331    3     146     140     139     141  # HC-CT-NT-CT
    332    3     146     140     139     142  # HC-CT-NT-CT
    333    4     146     140     139     143  # HN-NT-CT-HC
    334    1     147     141     139     140  # CT-NT-CT-CT
    335    1     147     141     139     142  # CT-NT-CT-CT
    336    2     147     141     139     143  # HN-NT-CT-CT
    337    3     148     141     139     140  # HC-CT-NT-CT
    338    3     148     141     139     142  # HC-CT-NT-CT
    339    4     148     141     139     143  # HN-NT-CT-HC
    340    3     149     141     139     140  # HC-CT-NT-CT
    341    3     149     141     139     142  # HC-CT-NT-CT
    342    4     149     141     139     143  # HN-NT-CT-HC
    343    1     150     142     139     140  # CT-NT-CT-CT
    344    1     150     142     139     141  # CT-NT-CT-CT
    345    2     150     142     139     143  # HN-NT-CT-CT
    346    3     151     142     139     140  # HC-CT-NT-CT
    347    3     151     142     139     141  # HC-CT-NT-CT
    348    4     151     142     139     143  # HN-NT-CT-HC
    349    3     152     142     139     140  # HC-CT-NT-CT
    350    3     152     142     139     141  # HC-CT-NT-CT
    351    4     152     142     139     143  # HN-NT-CT-HC
    352    5     153     144     140     139  # HC-CT-CT-NT
    353    6     153     144     140     145  # HC-CT-CT-HC
    354    6     153     144     140     146  # HC-CT-CT-HC
    355    5     154     144     140     139  # HC-CT-CT-NT
    356    6     154     144     140     145  # HC-CT-CT-HC
    357    6     154     144     140     146  # HC-CT-CT-HC
    358    5     155     144     140     139  # HC-CT-CT-NT
    359    6     155     144     140     145  # HC-CT-CT-HC
    360    6     155     144     140     146  # HC-CT-CT-HC
    361    5     156     147     141     139  # HC-CT-CT-NT
    362    6     156     147     141     148  # HC-CT-CT-HC
    363    6     156     147     141     149  # HC-CT-CT-HC
    364    5     157     147     141     139  # HC-CT-CT-NT
    365    6     157     147     141     148  # HC-CT-CT-HC
    366    6     157     147     141     149  # HC-CT-CT-HC
    367    5     158     147     141     139  # HC-CT-CT-NT
    368    6     158     147     141     148  # HC-CT-CT-HC
    369    6     158     147     141     149  # HC-CT-CT-HC
    370    5     159     150     142     139  # HC-CT-CT-NT
    371    6     159     150     142     151  # HC-CT-CT-HC
    372    6     159     150     142     152  # HC-CT-CT-HC
    373    5     160     150     142     139  # HC-CT-CT-NT
    374    6     160     150     142     151  # HC-CT-CT-HC
    375    6     160     150     142     152  # HC-CT-CT-HC
    376    5     161     150     142     139  # HC-CT-CT-NT
    377    6     161     150     142     151  # HC-CT-CT-HC
    378    6     161     150     142     152  # HC-CT-CT-HC
    379    1     167     163     162     164  # CT-NT-CT-CT
    380    1     167     163     162     165  # CT-NT-CT-CT
    381    2     167     163     162     166  # HN-NT-CT-CT
    382    3     168     163     162     164  # HC-CT-NT-CT
    383    3     168     163     162     165  # HC-CT-NT-CT
    384    4     168     163     162     166  # HN-NT-CT-HC
    385    3     169     163     162     164  # HC-CT-NT-CT
    386    3     169     163     162     165  # HC-CT-NT-CT
    387    4     169     163     162     166  # HN-NT-CT-HC
    388    1     170     164     162     163  # CT-NT-CT-CT
    389    1     170     164     162     165  # CT-NT-CT-CT
    390    2     170     164     162     166  # HN-NT-CT-CT
    391    3     171     164     162     163  # HC-CT-NT-CT
    392    3     171     164     162     165  # HC-CT-NT-CT
    393    4     171     164     162     166  # HN-NT-CT-HC
    394    3     172     164     162     163  # HC-CT-NT-CT
    395    3     172     164     162     165  # HC-CT-NT-CT
    396    4     172     164     162     166  # HN-NT-CT-HC
    397    1     173     165     162     163  # CT-NT-CT-CT
    398    1     173     165     162     164  # CT-NT-CT-CT
    399    2     173     165     162     166  # HN-NT-CT-CT
    400    3     174     165     162     163  # HC-CT-NT-CT
    401    3     174     165     162     164  # HC-CT-NT-CT
    402    4     174     165     162     166  # HN-NT-CT-HC
    403    3     175     165     162     163  # HC-CT-NT-CT
    404    3     175     165     162     164  # HC-CT-NT-CT
    405    4     175     165     162     166  # HN-NT-CT-HC
    406    5     176     167     163     162  # HC-CT-CT-NT
    407    6     176     167     163     168  # HC-CT-CT-HC
    408    6     176     167     163     169  # HC-CT-CT-HC
    409    5     177     167     163     162  # HC-CT-CT-NT
    410    6     177     167     163     168  # HC-CT-CT-HC
    411    6     177     167     163     169  # HC-CT-CT-HC
    412    5     178     167     163     162  # HC-CT-CT-NT
    413    6     178     167     163     168  # HC-CT-CT-HC
    414    6     178     167     163     169  # HC-CT-CT-HC
    415    5     179     170     164     162  # HC-CT-CT-NT
    416    6     179     170     164     171  # HC-CT-CT-HC
    417    6     179     170     164     172  # HC-CT-CT-HC
    418    5     180     170     164     162  # HC-CT-CT-NT
    419    6     180     170     164     171  # HC-CT-CT-HC
    420    6     180     170     164     172  # HC-CT-CT-HC
    421    5     181     170     164     162  # HC-CT-CT-NT
    422    6     181     170     164     171  # HC-CT-CT-HC
    423    6     181     170     164     172  # HC-CT-CT-HC
    424    5     182     173     165     162  # HC-CT-CT-NT
    425    6     182     173     165     174  # HC-CT-CT-HC
    426    6     182     173     165     175  # HC-CT-CT-HC
    427    5     183     173     165     162  # HC-CT-CT-NT
    428    6     183     173     165     174  # HC-CT-CT-HC
    429    6     183     173     165     175  # HC-CT-CT-HC
    430    5     184     173     165     162  # HC-CT-CT-NT
    431    6     184     173     165     174  # HC-CT-CT-HC
    432    6     184     173     165     175  # HC-CT-CT-HC
    433    1     190     186     185     187  # CT-NT-CT-CT
    434    1     190     186     185     188  # CT-NT-CT-CT
    435    2     190     186     185     189  # HN-NT-CT-CT
    436    3     191     186     185     187  # HC-CT-NT-CT
    437    3     191     186     185     188  # HC-CT-NT-CT
    438    4     191     186     185     189  # HN-NT-CT-HC
    439    3     192     186     185     187  # HC-CT-NT-CT
    440    3     192     186     185     188  # HC-CT-NT-CT
    441    4     192     186     185     189  # HN-NT-CT-HC
    442    1     193     187     185     186  # CT-NT-CT-CT
    443    1     193     187     185     188  # CT-NT-CT-CT
    444    2     193     187     185     189  # HN-NT-CT-CT
    445    3     194     187     185     186  # HC-CT-NT-CT
    446    3     194     187     185     188  # HC-CT-NT-CT
    447    4     194     187     185     189  # HN-NT-CT-HC
    448    3     195     187     185     186  # HC-CT-NT-CT
    449    3     195     187     185     188  # HC-CT-NT-CT
    450    4     195     187     185     189  # HN-NT-CT-HC
    451    1     196     188     185     186  # CT-NT-CT-CT
    452    1     196     188     185     187  # CT-NT-CT-CT
    453    2     196     188     185     189  # HN-NT-CT-CT
    454    3     197     188     185     186  # HC-CT-NT-CT
    455    3     197     188     185     187  # HC-CT-NT-CT
    456    4     197     188     185     189  # HN-NT-CT-HC
    457    3     198     188     185     186  # HC-CT-NT-CT
    458    3     198     188     185     187  # HC-CT-NT-CT
    459    4     198     188     185     189  # HN-NT-CT-HC
    460    5     199     190     186     185  # HC-CT-CT-NT
    461    6     199     190     186     191  # HC-CT-CT-HC
    462    6     199     190     186     192  # HC-CT-CT-HC
    463    5     200     190     186     185  # HC-CT-CT-NT
    464    6     200     190     186     191  # HC-CT-CT-HC
    465    6     200     190     186     192  # HC-CT-CT-HC
    466    5     201     190     186     185  # HC-CT-CT-NT
    467    6     201     190     186     191  # HC-CT-CT-HC
    468    6     201     190     186     192  # HC-CT-CT-HC
    469    5     202     193     187     185  # HC-CT-CT-NT
    470    6     202     193     187     194  # HC-CT-CT-HC
    471    6     202     193     187     195  # HC-CT-CT-HC
    472    5     203     193     187     185  # HC-CT-CT-NT
    473    6     203     193     187     194  # HC-CT-CT-HC
    474    6     203     193     187     195  # HC-CT-CT-HC
    475    5     204     193     187     185  # HC-CT-CT-NT
    476    6     204     193     187     194  # HC-CT-CT-HC
    477    6     204     193     187     195  # HC-CT-CT-HC
    478    5     205     196     188     185  # HC-CT-CT-NT
    479    6     205     196     188     197  # HC-CT-CT-HC
    480    6     205     196     188     198  # HC-CT-CT-HC
    481    5     206     196     188     185  # HC-CT-CT-NT
    482    6     206     196     188     197  # HC-CT-CT-HC
    483    6     206     196     188     198  # HC-CT-CT-HC
    484    5     207     196     188     185  # HC-CT-CT-NT
    485    6     207     196     188     197  # HC-CT-CT-HC
    486    6     207     196     188     198  # HC-CT-CT-HC
    487    1     213     209     208     210  # CT-NT-CT-CT
    488    1     213     209     208     211  # CT-NT-CT-CT
    489    2     213     209     208     212  # HN-NT-CT-CT
    490    3     214     209     208     210  # HC-CT-NT-CT
    491    3     214     209     208     211  # HC-CT-NT-CT
    492    4     214     209     208     212  # HN-NT-CT-HC
    493    3     215     209     208     210  # HC-CT-NT-CT
    494    3     215     209     208     211  # HC-CT-NT-CT
    495    4     215     209     208     212  # HN-NT-CT-HC
    496    1     216     210     208     209  # CT-NT-CT-CT
    497    1     216     210     208     211  # CT-NT-CT-CT
    498    2     216     210     208     212  # HN-NT-CT-CT
    499    3     217     210     208     209  # HC-CT-NT-CT
    500    3     217     210     208     211  # HC-CT-NT-CT
    501    4     217     210     208     212  # HN-NT-CT-HC
    502    3     218     210     208     209  # HC-CT-NT-CT
    503    3     218     210     208     211  # HC-CT-NT-CT
    504    4     218     210     208     212  # HN-NT-CT-HC
    505    1     219     211     208     209  # CT-NT-CT-CT
    506    1     219     211     208     210  # CT-NT-CT-CT
    507    2     219     211     208     212  # HN-NT-CT-CT
    508    3     220     211     208     209  # HC-CT-NT-CT
    509    3     220     211     208     210  # HC-CT-NT-CT
    510    4     220     211     208     212  # HN-NT-CT-HC
    511    3     221     211     208     209  # HC-CT-NT-CT
    512    3     221     211     208     210  # HC-CT-NT-CT
    513    4     221     211     208     212  # HN-NT-CT-HC
    514    5     222     213     209     208  # HC-CT-CT-NT
    515    6     222     213     209     214  # HC-CT-CT-HC
    516    6     222     213     209     215  # HC-CT-CT-HC
    517    5     223     213     209     208  # HC-CT-CT-NT
    518    6     223     213     209     214  # HC-CT-CT-HC
    519    6     223     213     209     215  # HC-CT-CT-HC
    520    5     224     213     209     208  # HC-CT-CT-NT
    521    6     224     213     209     214  # HC-CT-CT-HC
    522    6     224     213     209     215  # HC-CT-CT-HC
    523    5     225     216     210     208  # HC-CT-CT-NT
    524    6     225     216     210     217  # HC-CT-CT-HC
    525    6     225     216     210     218  # HC-CT-CT-HC
    526    5     226     216     210     208  # HC-CT-CT-NT
    527    6     226     216     210     217  # HC-CT-CT-HC
    528    6     226     216     210     218  # HC-CT-CT-HC
    529    5     227     216     210     208  # HC-CT-CT-NT
    530    6     227     216     210     217  # HC-CT-CT-HC
    531    6     227     216     210     218  # HC-CT-CT-HC
    532    5     228     219     211     208  # HC-CT-CT-NT
    533    6     228     219     211     220  # HC-CT-CT-HC
    534    6     228     219     211     221  # HC-CT-CT-HC
    535    5     229     219     211     208  # HC-CT-CT-NT
    536    6     229     219     211     220  # HC-CT-CT-HC
    537    6     229     219     211     221  # HC-CT-CT-HC
    538    5     230     219     211     208  # HC-CT-CT-NT
    539    6     230     219     211     220  # HC-CT-CT-HC
    540    6     230     219     211     221  # HC-CT-CT-HC
    541    1     236     232     231     233  # CT-NT-CT-CT
    542    1     236     232     231     234  # CT-NT-CT-CT
    543    2     236     232     231     235  # HN-NT-CT-CT
    544    3     237     232     231     233  # HC-CT-NT-CT
    545    3     237     232     231     234  # HC-CT-NT-CT
    546    4     237     232     231     235  # HN-NT-CT-HC
    547    3     238     232     231     233  # HC-CT-NT-CT
    548    3     238     232     231     234  # HC-CT-NT-CT
    549    4     238     232     231     235  # HN-NT-CT-HC
    550    1     239     233     231     232  # CT-NT-CT-CT
    551    1     239     233     231     234  # CT-NT-CT-CT
    552    2     239     233     231     235  # HN-NT-CT-CT
    553    3     240     233     231     232  # HC-CT-NT-CT
    554    3     240     233     231     234  # HC-CT-NT-CT
    555    4     240     233     231     235  # HN-NT-CT-HC
    556    3     241     233     231     232  # HC-CT-NT-CT
    557    3     241     233     231     234  # HC-CT-NT-CT
    558    4     241     233     231     235  # HN-NT-CT-HC
    559    1     242     234     231     232  # CT-NT-CT-CT
    560    1     242     234     231     233  # CT-NT-CT-CT
    561    2     242     234     231     235  # HN-NT-CT-CT
    562    3     243     234     231     232  # HC-CT-NT-CT
    563    3     243     234     231     233  # HC-CT-NT-CT
    564    4     243     234     231     235  # HN-NT-CT-HC
    565    3     244     234     231     232  # HC-CT-NT-CT
    566    3     244     234     231     233  # HC-CT-NT-CT
    567    4     244     234     231     235  # HN-NT-CT-HC
    568    5     245     236     232     231  # HC-CT-CT-NT
    569    6     245     236     232     237  # HC-CT-CT-HC
    570    6     245     236     232     238  # HC-CT-CT-HC
    571    5     246     236     232     231  # HC-CT-CT-NT
    572    6     246     236     232     237  # HC-CT-CT-HC
    573    6     246     236     232     238  # HC-CT-CT-HC
    574    5     247     236     232     231  # HC-CT-CT-NT
    575    6     247     236     232     237  # HC-CT-CT-HC
    576    6     247     236     232     238  # HC-CT-CT-HC
    577    5     248     239     233     231  # HC-CT-CT-NT
    578    6     248     239     233     240  # HC-CT-CT-HC
    579    6     248     239     233     241  # HC-CT-CT-HC
    580    5     249     239     233     231  # HC-CT-CT-NT
    581    6     249     239     233     240  # HC-CT-CT-HC
    582    6     249     239     233     241  # HC-CT-CT-HC
    583    5     250     239     233     231  # HC-CT-CT-NT
    584    6     250     239     233     240  # HC-CT-CT-HC
    585    6     250     239     233     241  # HC-CT-CT-HC
    586    5     251     242     234     231  # HC-CT-CT-NT
    587    6     251     242     234     243  # HC-CT-CT-HC
    588    6     251     242     234     244  # HC-CT-CT-HC
    589    5     252     242     234     231  # HC-CT-CT-NT
    590    6     252     242     234     243  # HC-CT-CT-HC
    591    6     252     242     234     244  # HC-CT-CT-HC
    592    5     253     242     234     231  # HC-CT-CT-NT
    593    6     253     242     234     243  # HC-CT-CT-HC
    594    6     253     242     234     244  # HC-CT-CT-HC
    595    1     259     255     254     256  # CT-NT-CT-CT
    596    1     259     255     254     257  # CT-NT-CT-CT
    597    2     259     255     254     258  # HN-NT-CT-CT
    598    3     260     255     254     256  # HC-CT-NT-CT
    599    3     260     255     254     257  # HC-CT-NT-CT
    600    4     260     255     254     258  # HN-NT-CT-HC
    601    3     261     255     254     256  # HC-CT-NT-CT
    602    3     261     255     254     257  # HC-CT-NT-CT
    603    4     261     255     254     258  # HN-NT-CT-HC
    604    1     262     256     254     255  # CT-NT-CT-CT
    605    1     262     256     254     257  # CT-NT-CT-CT
    606    2     262     256     254     258  # HN-NT-CT-CT
    607    3     263     256     254     255  # HC-CT-NT-CT
    608    3     263     256     254     257  # HC-CT-NT-CT
    609    4     263     256     254     258  # HN-NT-CT-HC
    610    3     264     256     254     255  # HC-CT-NT-CT
    611    3     264     256     254     257  # HC-CT-NT-CT
    612    4     264     256     254     258  # HN-NT-CT-HC
    613    1     265     257     254     255  # CT-NT-CT-CT
    614    1     265     257     254     256  # CT-NT-CT-CT
    615    2     265     257     254     258  # HN-NT-CT-CT
    616    3     266     257     254     255  # HC-CT-NT-CT
    617    3     266     257     254     256  # HC-CT-NT-CT
    618    4     266     257     254     258  # HN-NT-CT-HC
    619    3     267     257     254     255  # HC-CT-NT-CT
    620    3     267     257     254     256  # HC-CT-NT-CT
    621    4     267     257     254     258  # HN-NT-CT-HC
    622    5     268     259     255     254  # HC-CT-CT-NT
    623    6     268     259     255     260  # HC-CT-CT-HC
    624    6     268     259     255     261  # HC-CT-CT-HC
    625    5     269     259     255     254  # HC-CT-CT-NT
    626    6     269     259     255     260  # HC-CT-CT-HC
    627    6     269     259     255     261  # HC-CT-CT-HC
    628    5     270     259     255     254  # HC-CT-CT-NT
    629    6     270     259     255     260  # HC-CT-CT-HC
    630    6     270     259     255     261  # HC-CT-CT-HC
    631    5     271     262     256     254  # HC-CT-CT-NT
    632    6     271     262     256     263  # HC-CT-CT-HC
    633    6     271     262     256     264  # HC-CT-CT-HC
    634    5     272     262     256     254  # HC-CT-CT-NT
    635    6     272     262     256     263  # HC-CT-CT-HC
    636    6     272     262     256     264  # HC-CT-CT-HC
    637    5     273     262     256     254  # HC-CT-CT-NT
    638    6     273     262     256     263  # HC-CT-CT-HC
    639    6     273     262     256     264  # HC-CT-CT-HC
    640    5     274     265     257     254  # HC-CT-CT-NT
    641    6     274     265     257     266  # HC-CT-CT-HC
    642    6     274     265     257     267  # HC-CT-CT-HC
    643    5     275     265     257     254  # HC-CT-CT-NT
    644    6     275     265     257     266  # HC-CT-CT-HC
    645    6     275     265     257     267  # HC-CT-CT-HC
    646    5     276     265     257     254  # HC-CT-CT-NT
    647    6     276     265     257     266  # HC-CT-CT-HC
    648    6     276     265     257     267  # HC-CT-CT-HC
    649    1     282     278     277     279  # CT-NT-CT-CT
    650    1     282     278     277     280  # CT-NT-CT-CT
    651    2     282     278     277     281  # HN-NT-CT-CT
    652    3     283     278     277     279  # HC-CT-NT-CT
    653    3     283     278     277     280  # HC-CT-NT-CT
    654    4     283     278     277     281  # HN-NT-CT-HC
    655    3     284     278     277     279  # HC-CT-NT-CT
    656    3     284     278     277     280  # HC-CT-NT-CT
    657    4     284     278     277     281  # HN-NT-CT-HC
    658    1     285     279     277     278  # CT-NT-CT-CT
    659    1     285     279     277     280  # CT-NT-CT-CT
    660    2     285     279     277     281  # HN-NT-CT-CT
    661    3     286     279     277     278  # HC-CT-NT-CT
    662    3     286     279     277     280  # HC-CT-NT-CT
    663    4     286     279     277     281  # HN-NT-CT-HC
    664    3     287     279     277     278  # HC-CT-NT-CT
    665    3     287     279     277     280  # HC-CT-NT-CT
    666    4     287     279     277     281  # HN-NT-CT-HC
    667    1     288     280     277     278  # CT-NT-CT-CT
    668    1     288     280     277     279  # CT-NT-CT-CT
    669    2     288     280     277     281  # HN-NT-CT-CT
    670    3     289     280     277     278  # HC-CT-NT-CT
    671    3     289     280     277     279  # HC-CT-NT-CT
    672    4     289     280     277     281  # HN-NT-CT-HC
    673    3     290     280     277     278  # HC-CT-NT-CT
    674    3     290     280     277     279  # HC-CT-NT-CT
    675    4     290     280     277     281  # HN-NT-CT-HC
    676    5     291     282     278     277  # HC-CT-CT-NT
    677    6     291     282     278     283  # HC-CT-CT-HC
    678    6     291     282     278     284  # HC-CT-CT-HC
    679    5     292     282     278     277  # HC-CT-CT-NT
    680    6     292     282     278     283  # HC-CT-CT-HC
    681    6     292     282     278     284  # HC-CT-CT-HC
    682    5     293     282     278     277  # HC-CT-CT-NT
    683    6     293     282     278     283  # HC-CT-CT-HC
    684    6     293     282     278     284  # HC-CT-CT-HC
    685    5     294     285     279     277  # HC-CT-CT-NT
    686    6     294     285     279     286  # HC-CT-CT-HC
    687    6     294     285     279     287  # HC-CT-CT-HC
    688    5     295     285     279     277  # HC-CT-CT-NT
    689    6     295     285     279     286  # HC-CT-CT-HC
    690    6     295     285     279     287  # HC-CT-CT-HC
    691    5     296     285     279     277  # HC-CT-CT-NT
    692    6     296     285     279     286  # HC-CT-CT-HC
    693    6     296     285     279     287  # HC-CT-CT-HC
    694    5     297     288     280     277  # HC-CT-CT-NT
    695    6     297     288     280     289  # HC-CT-CT-HC
    696    6     297     288     280     290  # HC-CT-CT-HC
    697    5     298     288     280     277  # HC-CT-CT-NT
    698    6     298     288     280     289  # HC-CT-CT-HC
    699    6     298     288     280     290  # HC-CT-CT-HC
    700    5     299     288     280     277  # HC-CT-CT-NT
    701    6     299     288     280     289  # HC-CT-CT-HC
    702    6     299     288     280     290  # HC-CT-CT-HC
    703    1     305     301     300     302  # CT-NT-CT-CT
    704    1     305     301     300     303  # CT-NT-CT-CT
    705    2     305     301     300     304  # HN-NT-CT-CT
    706    3     306     301     300     302  # HC-CT-NT-CT
    707    3     306     301     300     303  # HC-CT-NT-CT
    708    4     306     301     300     304  # HN-NT-CT-HC
    709    3     307     301     300     302  # HC-CT-NT-CT
    710    3     307     301     300     303  # HC-CT-NT-CT
    711    4     307     301     300     304  # HN-NT-CT-HC
    712    1     308     302     300     301  # CT-NT-CT-CT
    713    1     308     302     300     303  # CT-NT-CT-CT
    714    2     308     302     300     304  # HN-NT-CT-CT
    715    3     309     302     300     301  # HC-CT-NT-CT
    716    3     309     302     300     303  # HC-CT-NT-CT
    717    4     309     302     300     304  # HN-NT-CT-HC
    718    3     310     302     300     301  # HC-CT-NT-CT
    719    3     310     302     300     303  # HC-CT-NT-CT
    720    4     310     302     300     304  # HN-NT-CT-HC
    721    1     311     303     300     301  # CT-NT-CT-CT
    722    1     311     303     300     302  # CT-NT-CT-CT
    723    2     311     303     300     304  # HN-NT-CT-CT
    724    3     312     303     300     301  # HC-CT-NT-CT
    725    3     312     303     300     302  # HC-CT-NT-CT
    726    4     312     303     300     304  # HN-NT-CT-HC
    727    3     313     303     300     301  # HC-CT-NT-CT
    728    3     313     303     300     302  # HC-CT-NT-CT
    729    4     313     303     300     304  # HN-NT-CT-HC
    730    5     314     305     301     300  # HC-CT-CT-NT
    731    6     314     305     301     306  # HC-CT-CT-HC
    732    6     314     305     301     307  # HC-CT-CT-HC
    733    5     315     305     301     300  # HC-CT-CT-NT
    734    6     315     305     301     306  # HC-CT-CT-HC
    735    6     315     305     301     307  # HC-CT-CT-HC
    736    5     316     305     301     300  # HC-CT-CT-NT
    737    6     316     305     301     306  # HC-CT-CT-HC
    738    6     316     305     301     307  # HC-CT-CT-HC
    739    5     317     308     302     300  # HC-CT-CT-NT
    740    6     317     308     302     309  # HC-CT-CT-HC
    741    6     317     308     302     310  # HC-CT-CT-HC
    742    5     318     308     302     300  # HC-CT-CT-NT
    743    6     318     308     302     309  # HC-CT-CT-HC
    744    6     318     308     302     310  # HC-CT-CT-HC
    745    5     319     308     302     300  # HC-CT-CT-NT
    746    6     319     308     302     309  # HC-CT-CT-HC
    747    6     319     308     302     310  # HC-CT-CT-HC
    748    5     320     311     303     300  # HC-CT-CT-NT
    749    6     320     311     303     312  # HC-CT-CT-HC
    750    6     320     311     303     313  # HC-CT-CT-HC
    751    5     321     311     303     300  # HC-CT-CT-NT
    752    6     321     311     303     312  # HC-CT-CT-HC
    753    6     321     311     303     313  # HC-CT-CT-HC
    754    5     322     311     303     300  # HC-CT-CT-NT
    755    6     322     311     303     312  # HC-CT-CT-HC
    756    6     322     311     303     313  # HC-CT-CT-HC
    757    1     328     324     323     325  # CT-NT-CT-CT
    758    1     328     324     323     326  # CT-NT-CT-CT
    759    2     328     324     323     327  # HN-NT-CT-CT
    760    3     329     324     323     325  # HC-CT-NT-CT
    761    3     329     324     323     326  # HC-CT-NT-CT
    762    4     329     324     323     327  # HN-NT-CT-HC
    763    3     330     324     323     325  # HC-CT-NT-CT
    764    3     330     324     323     326  # HC-CT-NT-CT
    765    4     330     324     323     327  # HN-NT-CT-HC
    766    1     331     325     323     324  # CT-NT-CT-CT
    767    1     331     325     323     326  # CT-NT-CT-CT
    768    2     331     325     323     327  # HN-NT-CT-CT
    769    3     332     325     323     324  # HC-CT-NT-CT
    770    3     332     325     323     326  # HC-CT-NT-CT
    771    4     332     325     323     327  # HN-NT-CT-HC
    772    3     333     325     323     324  # HC-CT-NT-CT
    773    3     333     325     323     326  # HC-CT-NT-CT
    774    4     333     325     323     327  # HN-NT-CT-HC
    775    1     334     326     323     324  # CT-NT-CT-CT
    776    1     334     326     323     325  # CT-NT-CT-CT
    777    2     334     326     323     327  # HN-NT-CT-CT
    778    3     335     326     323     324  # HC-CT-NT-CT
    779    3     335     326     323     325  # HC-CT-NT-CT
    780    4     335     326     323     327  # HN-NT-CT-HC
    781    3     336     326     323     324  # HC-CT-NT-CT
    782    3     336     326     323     325  # HC-CT-NT-CT
    783    4     336     326     323     327  # HN-NT-CT-HC
    784    5     337     328     324     323  # HC-CT-CT-NT
    785    6     337     328     324     329  # HC-CT-CT-HC
    786    6     337     328     324     330  # HC-CT-CT-HC
    787    5     338     328     324     323  # HC-CT-CT-NT
    788    6     338     328     324     329  # HC-CT-CT-HC
    789    6     338     328     324     330  # HC-CT-CT-HC
    790    5     339     328     324     323  # HC-CT-CT-NT
    791    6     339     328     324     329  # HC-CT-CT-HC
    792    6     339     328     324     330  # HC-CT-CT-HC
    793    5     340     331     325     323  # HC-CT-CT-NT
    794    6     340     331     325     332  # HC-CT-CT-HC
    795    6     340     331     325     333  # HC-CT-CT-HC
    796    5     341     331     325     323  # HC-CT-CT-NT
    797    6     341     331     325     332  # HC-CT-CT-HC
    798    6     341     331     325     333  # HC-CT-CT-HC
    799    5     342     331     325     323  # HC-CT-CT-NT
    800    6     342     331     325     332  # HC-CT-CT-HC
    801    6     342     331     325     333  # HC-CT-CT-HC
    802    5     343     334     326     323  # HC-CT-CT-NT
    803    6     343     334     326     335  # HC-CT-CT-HC
    804    6     343     334     326     336  # HC-CT-CT-HC
    805    5     344     334     326     323  # HC-CT-CT-NT
    806    6     344     334     326     335  # HC-CT-CT-HC
    807    6     344     334     326     336  # HC-CT-CT-HC
    808    5     345     334     326     323  # HC-CT-CT-NT
    809    6     345     334     326     335  # HC-CT-CT-HC
    810    6     345     334     326     336  # HC-CT-CT-HC
    811    1     351     347     346     348  # CT-NT-CT-CT
    812    1     351     347     346     349  # CT-NT-CT-CT
    813    2     351     347     346     350  # HN-NT-CT-CT
    814    3     352     347     346     348  # HC-CT-NT-CT
    815    3     352     347     346     349  # HC-CT-NT-CT
    816    4     352     347     346     350  # HN-NT-CT-HC
    817    3     353     347     346     348  # HC-CT-NT-CT
    818    3     353     347     346     349  # HC-CT-NT-CT
    819    4     353     347     346     350  # HN-NT-CT-HC
    820    1     354     348     346     347  # CT-NT-CT-CT
    821    1     354     348     346     349  # CT-NT-CT-CT
    822    2     354     348     346     350  # HN-NT-CT-CT
    823    3     355     348     346     347  # HC-CT-NT-CT
    824    3     355     348     346     349  # HC-CT-NT-CT
    825    4     355     348     346     350  # HN-NT-CT-HC
    826    3     356     348     346     347  # HC-CT-NT-CT
    827    3     356     348     346     349  # HC-CT-NT-CT
    828    4     356     348     346     350  # HN-NT-CT-HC
    829    1     357     349     346     347  # CT-NT-CT-CT
    830    1     357     349     346     348  # CT-NT-CT-CT
    831    2     357     349     346     350  # HN-NT-CT-CT
    832    3     358     349     346     347  # HC-CT-NT-CT
    833    3     358     349     346     348  # HC-CT-NT-CT
    834    4     358     349     346     350  # HN-NT-CT-HC
    835    3     359     349     346     347  # HC-CT-NT-CT
    836    3     359     349     346     348  # HC-CT-NT-CT
    837    4     359     349     346     350  # HN-NT-CT-HC
    838    5     360     351     347     346  # HC-CT-CT-NT
    839    6     360     351     347     352  # HC-CT-CT-HC
    840    6     360     351     347     353  # HC-CT-CT-HC
    841    5     361     351     347     346  # HC-CT-CT-NT
    842    6     361     351     347     352  # HC-CT-CT-HC
    843    6     361     351     347     353  # HC-CT-CT-HC
    844    5     362     351     347     346  # HC-CT-CT-NT
    845    6     362     351     347     352  # HC-CT-CT-HC
    846    6     362     351     347     353  # HC-CT-CT-HC
    847    5     363     354     348     346  # HC-CT-CT-NT
    848    6     363     354     348     355  # HC-CT-CT-HC
    849    6     363     354     348     356  # HC-CT-CT-HC
    850    5     364     354     348     346  # HC-CT-CT-NT
    851    6     364     354     348     355  # HC-CT-CT-HC
    852    6     364     354     348     356  # HC-CT-CT-HC
    853    5     365     354     348     346  # HC-CT-CT-NT
    854    6     365     354     348     355  # HC-CT-CT-HC
    855    6     365     354     348     356  # HC-CT-CT-HC
    856    5     366     357     349     346  # HC-CT-CT-NT
    857    6     366     357     349     358  # HC-CT-CT-HC
    858    6     366     357     349     359  # HC-CT-CT-HC
    859    5     367     357     349     346  # HC-CT-CT-NT
    860    6     367     357     349     358  # HC-CT-CT-HC
    861    6     367     357     349     359  # HC-CT-CT-HC
    862    5     368     357     349     346  # HC-CT-CT-NT
    863    6     368     357     349     358  # HC-CT-CT-HC
    864    6     368     357     349     359  # HC-CT-CT-HC
    865    1     374     370     369     371  # CT-NT-CT-CT
    866    1     374     370     369     372  # CT-NT-CT-CT
    867    2     374     370     369     373  # HN-NT-CT-CT
    868    3     375     370     369     371  # HC-CT-NT-CT
    869    3     375     370     369     372  # HC-CT-NT-CT
    870    4     375     370     369     373  # HN-NT-CT-HC
    871    3     376     370     369     371  # HC-CT-NT-CT
    872    3     376     370     369     372  # HC-CT-NT-CT
    873    4     376     370     369     373  # HN-NT-CT-HC
    874    1     377     371     369     370  # CT-NT-CT-CT
    875    1     377     371     369     372  # CT-NT-CT-CT
    876    2     377     371     369     373  # HN-NT-CT-CT
    877    3     378     371     369     370  # HC-CT-NT-CT
    878    3     378     371     369     372  # HC-CT-NT-CT
    879    4     378     371     369     373  # HN-NT-CT-HC
    880    3     379     371     369     370  # HC-CT-NT-CT
    881    3     379     371     369     372  # HC-CT-NT-CT
    882    4     379     371     369     373  # HN-NT-CT-HC
    883    1     380     372     369     370  # CT-NT-CT-CT
    884    1     380     372     369     371  # CT-NT-CT-CT
    885    2     380     372     369     373  # HN-NT-CT-CT
    886    3     381     372     369     370  # HC-CT-NT-CT
    887    3     381     372     369     371  # HC-CT-NT-CT
    888    4     381     372     369     373  # HN-NT-CT-HC
    889    3     382     372     369     370  # HC-CT-NT-CT
    890    3     382     372     369     371  # HC-CT-NT-CT
    891    4     382     372     369     373  # HN-NT-CT-HC
    892    5     383     374     370     369  # HC-CT-CT-NT
    893    6     383     374     370     375  # HC-CT-CT-HC
    894    6     383     374     370     376  # HC-CT-CT-HC
    895    5     384     374     370     369  # HC-CT-CT-NT
    896    6     384     374     370     375  # HC-CT-CT-HC
    897    6     384     374     370     376  # HC-CT-CT-HC
    898    5     385     374     370     369  # HC-CT-CT-NT
    899    6     385     374     370     375  # HC-CT-CT-HC
    900    6     385     374     370     376  # HC-CT-CT-HC
    901    5     386     377     371     369  # HC-CT-CT-NT
    902    6     386     377     371     378  # HC-CT-CT-HC
    903    6     386     377     371     379  # HC-CT-CT-HC
    904    5     387     377     371     369  # HC-CT-CT-NT
    905    6     387     377     371     378  # HC-CT-CT-HC
    906    6     387     377     371     379  # HC-CT-CT-HC
    907    5     388     377     371     369  # HC-CT-CT-NT
    908    6     388     377     371     378  # HC-CT-CT-HC
    909    6     388     377     371     379  # HC-CT-CT-HC
    910    5     389     380     372     369  # HC-CT-CT-NT
    911    6     389     380     372     381  # HC-CT-CT-HC
    912    6     389     380     372     382  # HC-CT-CT-HC
    913    5     390     380     372     369  # HC-CT-CT-NT
    914    6     390     380     372     381  # HC-CT-CT-HC
    915    6     390     380     372     382  # HC-CT-CT-HC
    916    5     391     380     372     369  # HC-CT-CT-NT
    917    6     391     380     372     381  # HC-CT-CT-HC
    918    6     391     380     372     382  # HC-CT-CT-HC
    919    1     397     393     392     394  # CT-NT-CT-CT
    920    1     397     393     392     395  # CT-NT-CT-CT
    921    2     397     393     392     396  # HN-NT-CT-CT
    922    3     398     393     392     394  # HC-CT-NT-CT
    923    3     398     393     392     395  # HC-CT-NT-CT
    924    4     398     393     392     396  # HN-NT-CT-HC
    925    3     399     393     392     394  # HC-CT-NT-CT
    926    3     399     393     392     395  # HC-CT-NT-CT
    927    4     399     393     392     396  # HN-NT-CT-HC
    928    1     400     394     392     393  # CT-NT-CT-CT
    929    1     400     394     392     395  # CT-NT-CT-CT
    930    2     400     394     392     396  # HN-NT-CT-CT
    931    3     401     394     392     393  # HC-CT-NT-CT
    932    3     401     394     392     395  # HC-CT-NT-CT
    933    4     401     394     392     396  # HN-NT-CT-HC
    934    3     402     394     392     393  # HC-CT-NT-CT
    935    3     402     394     392     395  # HC-CT-NT-CT
    936    4     402     394     392     396  # HN-NT-CT-HC
    937    1     403     395     392     393  # CT-NT-CT-CT
    938    1     403     395     392     394  # CT-NT-CT-CT
    939    2     403     395     392     396  # HN-NT-CT-CT
    940    3     404     395     392     393  # HC-CT-NT-CT
    941    3     404     395     392     394  # HC-CT-NT-CT
    942    4     404     395     392     396  # HN-NT-CT-HC
    943    3     405     395     392     393  # HC-CT-NT-CT
    944    3     405     395     392     394  # HC-CT-NT-CT
    945    4     405     395     392     396  # HN-NT-CT-HC
    946    5     406     397     393     392  # HC-CT-CT-NT
    947    6     406     397     393     398  # HC-CT-CT-HC
    948    6     406     397     393     399  # HC-CT-CT-HC
    949    5     407     397     393     392  # HC-CT-CT-NT
    950    6     407     397     393     398  # HC-CT-CT-HC
    951    6     407     397     393     399  # HC-CT-CT-HC
    952    5     408     397     393     392  # HC-CT-CT-NT
    953    6     408     397     393     398  # HC-CT-CT-HC
    954    6     408     397     393     399  # HC-CT-CT-HC
    955    5     409     400     394     392  # HC-CT-CT-NT
    956    6     409     400     394     401  # HC-CT-CT-HC
    957    6     409     400     394     402  # HC-CT-CT-HC
    958    5     410     400     394     392  # HC-CT-CT-NT
    959    6     410     400     394     401  # HC-CT-CT-HC
    960    6     410     400     394     402  # HC-CT-CT-HC
    961    5     411     400     394     392  # HC-CT-CT-NT
    962    6     411     400     394     401  # HC-CT-CT-HC
    963    6     411     400     394     402  # HC-CT-CT-HC
    964    5     412     403     395     392  # HC-CT-CT-NT
    965    6     412     403     395     404  # HC-CT-CT-HC
    966    6     412     403     395     405  # HC-CT-CT-HC
    967    5     413     403     395     392  # HC-CT-CT-NT
    968    6     413     403     395     404  # HC-CT-CT-HC
    969    6     413     403     395     405  # HC-CT-CT-HC
    970    5     414     403     395     392  # HC-CT-CT-NT
    971    6     414     403     395     404  # HC-CT-CT-HC
    972    6     414     403     395     405  # HC-CT-CT-HC
    973    1     420     416     415     417  # CT-NT-CT-CT
    974    1     420     416     415     418  # CT-NT-CT-CT
    975    2     420     416     415     419  # HN-NT-CT-CT
    976    3     421     416     415     417  # HC-CT-NT-CT
    977    3     421     416     415     418  # HC-CT-NT-CT
    978    4     421     416     415     419  # HN-NT-CT-HC
    979    3     422     416     415     417  # HC-CT-NT-CT
    980    3     422     416     415     418  # HC-CT-NT-CT
    981    4     422     416     415     419  # HN-NT-CT-HC
    982    1     423     417     415     416  # CT-NT-CT-CT
    983    1     423     417     415     418  # CT-NT-CT-CT
    984    2     423     417     415     419  # HN-NT-CT-CT
    985    3     424     417     415     416  # HC-CT-NT-CT
    986    3     424     417     415     418  # HC-CT-NT-CT
    987    4     424     417     415     419  # HN-NT-CT-HC
    988    3     425     417     415     416  # HC-CT-NT-CT
    989    3     425     417     415     418  # HC-CT-NT-CT
    990    4     425     417     415     419  # HN-NT-CT-HC
    991    1     426     418     415     416  # CT-NT-CT-CT
    992    1     426     418     415     417  # CT-NT-CT-CT
    993    2     426     418     415     419  # HN-NT-CT-CT
    994    3     427     418     415     416  # HC-CT-NT-CT
    995    3     427     418     415     417  # HC-CT-NT-CT
    996    4     427     418     415     419  # HN-NT-CT-HC
    997    3     428     418     415     416  # HC-CT-NT-CT
    998    3     428     418     415     417  # HC-CT-NT-CT
    999    4     428     418     415     419  # HN-NT-CT-HC
   1000    5     429     420     416     415  # HC-CT-CT-NT
   1001    6     429     420     416     421  # HC-CT-CT-HC
   1002    6     429     420     416     422  # HC-CT-CT-HC
   1003    5     430     420     416     415  # HC-CT-CT-NT
   1004    6     430     420     416     421  # HC-CT-CT-HC
   1005    6     430     420     416     422  # HC-CT-CT-HC
   1006    5     431     420     416     415  # HC-CT-CT-NT
   1007    6     431     420     416     421  # HC-CT-CT-HC
   1008    6     431     420     416     422  # HC-CT-CT-HC
   1009    5     432     423     417     415  # HC-CT-CT-NT
   1010    6     432     423     417     424  # HC-CT-CT-HC
   1011    6     432     423     417     425  # HC-CT-CT-HC
   1012    5     433     423     417     415  # HC-CT-CT-NT
   1013    6     433     423     417     424  # HC-CT-CT-HC
   1014    6     433     423     417     425  # HC-CT-CT-HC
   1015    5     434     423     417     415  # HC-CT-CT-NT
   1016    6     434     423     417     424  # HC-CT-CT-HC
   1017    6     434     423     417     425  # HC-CT-CT-HC
   1018    5     435     426     418     415  # HC-CT-CT-NT
   1019    6     435     426     418     427  # HC-CT-CT-HC
   1020    6     435     426     418     428  # HC-CT-CT-HC
   1021    5     436     426     418     415  # HC-CT-CT-NT
   1022    6     436     426     418     427  # HC-CT-CT-HC
   1023    6     436     426     418     428  # HC-CT-CT-HC
   1024    5     437     426     418     415  # HC-CT-CT-NT
   1025    6     437     426     418     427  # HC-CT-CT-HC
   1026    6     437     426     418     428  # HC-CT-CT-HC
   1027    1     443     439     438     440  # CT-NT-CT-CT
   1028    1     443     439     438     441  # CT-NT-CT-CT
   1029    2     443     439     438     442  # HN-NT-CT-CT
   1030    3     444     439     438     440  # HC-CT-NT-CT
   1031    3     444     439     438     441  # HC-CT-NT-CT
   1032    4     444     439     438     442  # HN-NT-CT-HC
   1033    3     445     439     438     440  # HC-CT-NT-CT
   1034    3     445     439     438     441  # HC-CT-NT-CT
   1035    4     445     439     438     442  # HN-NT-CT-HC
   1036    1     446     440     438     439  # CT-NT-CT-CT
   1037    1     446     440     438     441  # CT-NT-CT-CT
   1038    2     446     440     438     442  # HN-NT-CT-CT
   1039    3     447     440     438     439  # HC-CT-NT-CT
   1040    3     447     440     438     441  # HC-CT-NT-CT
   1041    4     447     440     438     442  # HN-NT-CT-HC
   1042    3     448     440     438     439  # HC-CT-NT-CT
   1043    3     448     440     438     441  # HC-CT-NT-CT
   1044    4     448     440     438     442  # HN-NT-CT-HC
   1045    1     449     441     438     439  # CT-NT-CT-CT
   1046    1     449     441     438     440  # CT-NT-CT-CT
   1047    2     449     441     438     442  # HN-NT-CT-CT
   1048    3     450     441     438     439  # HC-CT-NT-CT
   1049    3     450     441     438     440  # HC-CT-NT-CT
   1050    4     450     441     438     442  # HN-NT-CT-HC
   1051    3     451     441     438     439  # HC-CT-NT-CT
   1052    3     451     441     438     440  # HC-CT-NT-CT
   1053    4     451     441     438     442  # HN-NT-CT-HC
   1054    5     452     443     439     438  # HC-CT-CT-NT
   1055    6     452     443     439     444  # HC-CT-CT-HC
   1056    6     452     443     439     445  # HC-CT-CT-HC
   1057    5     453     443     439     438  # HC-CT-CT-NT
   1058    6     453     443     439     444  # HC-CT-CT-HC
   1059    6     453     443     439     445  # HC-CT-CT-HC
   1060    5     454     443     439     438  # HC-CT-CT-NT
   1061    6     454     443     439     444  # HC-CT-CT-HC
   1062    6     454     443     439     445  # HC-CT-CT-HC
   1063    5     455     446     440     438  # HC-CT-CT-NT
   1064    6     455     446     440     447  # HC-CT-CT-HC
   1065    6     455     446     440     448  # HC-CT-CT-HC
   1066    5     456     446     440     438  # HC-CT-CT-NT
   1067    6     456     446     440     447  # HC-CT-CT-HC
   1068    6     456     446     440     448  # HC-CT-CT-HC
   1069    5     457     446     440     438  # HC-CT-CT-NT
   1070    6     457     446     440     447  # HC-CT-CT-HC
   1071    6     457     446     440     448  # HC-CT-CT-HC
   1072    5     458     449     441     438  # HC-CT-CT-NT
   1073    6     458     449     441     450  # HC-CT-CT-HC
   1074    6     458     449     441     451  # HC-CT-CT-HC
   1075    5     459     449     441     438  # HC-CT-CT-NT
   1076    6     459     449     441     450  # HC-CT-CT-HC
   1077    6     459     449     441     451  # HC-CT-CT-HC
   1078    5     460     449     441     438  # HC-CT-CT-NT
   1079    6     460     449     441     450  # HC-CT-CT-HC
   1080    6     460     449     441     451  # HC-CT-CT-HC
   1081    1     466     462     461     463  # CT-NT-CT-CT
   1082    1     466     462     461     464  # CT-NT-CT-CT
   1083    2     466     462     461     465  # HN-NT-CT-CT
   1084    3     467     462     461     463  # HC-CT-NT-CT
   1085    3     467     462     461     464  # HC-CT-NT-CT
   1086    4     467     462     461     465  # HN-NT-CT-HC
   1087    3     468     462     461     463  # HC-CT-NT-CT
   1088    3     468     462     461     464  # HC-CT-NT-CT
   1089    4     468     462     461     465  # HN-NT-CT-HC
   1090    1     469     463     461     462  # CT-NT-CT-CT
   1091    1     469     463     461     464  # CT-NT-CT-CT
   1092    2     469     463     461     465  # HN-NT-CT-CT
   1093    3     470     463     461     462  # HC-CT-NT-CT
   1094    3     470     463     461     464  # HC-CT-NT-CT
   1095    4     470     463     461     465  # HN-NT-CT-HC
   1096    3     471     463     461     462  # HC-CT-NT-CT
   1097    3     471     463     461     464  # HC-CT-NT-CT
   1098    4     471     463     461     465  # HN-NT-CT-HC
   1099    1     472     464     461     462  # CT-NT-CT-CT
   1100    1     472     464     461     463  # CT-NT-CT-CT
   1101    2     472     464     461     465  # HN-NT-CT-CT
   1102    3     473     464     461     462  # HC-CT-NT-CT
   1103    3     473     464     461     463  # HC-CT-NT-CT
   1104    4     473     464     461     465  # HN-NT-CT-HC
   1105    3     474     464     461     462  # HC-CT-NT-CT
   1106    3     474     464     461     463  # HC-CT-NT-CT
   1107    4     474     464     461     465  # HN-NT-CT-HC
   1108    5     475     466     462     461  # HC-CT-CT-NT
   1109    6     475     466     462     467  # HC-CT-CT-HC
   1110    6     475     466     462     468  # HC-CT-CT-HC
   1111    5     476     466     462     461  # HC-CT-CT-NT
   1112    6     476     466     462     467  # HC-CT-CT-HC
   1113    6     476     466     462     468  # HC-CT-CT-HC
   1114    5     477     466     462     461  # HC-CT-CT-NT
   1115    6     477     466     462     467  # HC-CT-CT-HC
   1116    6     477     466     462     468  # HC-CT-CT-HC
   1117    5     478     469     463     461  # HC-CT-CT-NT
   1118    6     478     469     463     470  # HC-CT-CT-HC
   1119    6     478     469     463     471  # HC-CT-CT-HC
   1120    5     479     469     463     461  # HC-CT-CT-NT
   1121    6     479     469     463     470  # HC-CT-CT-HC
   1122    6     479     469     463     471  # HC-CT-CT-HC
   1123    5     480     469     463     461  # HC-CT-CT-NT
   1124    6     480     469     463     470  # HC-CT-CT-HC
   1125    6     480     469     463     471  # HC-CT-CT-HC
   1126    5     481     472     464     461  # HC-CT-CT-NT
   1127    6     481     472     464     473  # HC-CT-CT-HC
   1128    6     481     472     464     474  # HC-CT-CT-HC
   1129    5     482     472     464     461  # HC-CT-CT-NT
   1130    6     482     472     464     473  # HC-CT-CT-HC
   1131    6     482     472     464     474  # HC-CT-CT-HC
   1132    5     483     472     464     461  # HC-CT-CT-NT
   1133    6     483     472     464     473  # HC-CT-CT-HC
   1134    6     483     472     464     474  # HC-CT-CT-HC
   1135    1     489     485     484     486  # CT-NT-CT-CT
   1136    1     489     485     484     487  # CT-NT-CT-CT
   1137    2     489     485     484     488  # HN-NT-CT-CT
   1138    3     490     485     484     486  # HC-CT-NT-CT
   1139    3     490     485     484     487  # HC-CT-NT-CT
   1140    4     490     485     484     488  # HN-NT-CT-HC
   1141    3     491     485     484     486  # HC-CT-NT-CT
   1142    3     491     485     484     487  # HC-CT-NT-CT
   1143    4     491     485     484     488  # HN-NT-CT-HC
   1144    1     492     486     484     485  # CT-NT-CT-CT
   1145    1     492     486     484     487  # CT-NT-CT-CT
   1146    2     492     486     484     488  # HN-NT-CT-CT
   1147    3     493     486     484     485  # HC-CT-NT-CT
   1148    3     493     486     484     487  # HC-CT-NT-CT
   1149    4     493     486     484     488  # HN-NT-CT-HC
   1150    3     494     486     484     485  # HC-CT-NT-CT
   1151    3     494     486     484     487  # HC-CT-NT-CT
   1152    4     494     486     484     488  # HN-NT-CT-HC
   1153    1     495     487     484     485  # CT-NT-CT-CT
   1154    1     495     487     484     486  # CT-NT-CT-CT
   1155    2     495     487     484     488  # HN-NT-CT-CT
   1156    3     496     487     484     485  # HC-CT-NT-CT
   1157    3     496     487     484     486  # HC-CT-NT-CT
   1158    4     496     487     484     488  # HN-NT-CT-HC
   1159    3     497     487     484     485  # HC-CT-NT-CT
   1160    3     497     487     484     486  # HC-CT-NT-CT
   1161    4     497     487     484     488  # HN-NT-CT-HC
   1162    5     498     489     485     484  # HC-CT-CT-NT
   1163    6     498     489     485     490  # HC-CT-CT-HC
   1164    6     498     489     485     491  # HC-CT-CT-HC
   1165    5     499     489     485     484  # HC-CT-CT-NT
   1166    6     499     489     485     490  # HC-CT-CT-HC
   1167    6     499     489     485     491  # HC-CT-CT-HC
   1168    5     500     489     485     484  # HC-CT-CT-NT
   1169    6     500     489     485     490  # HC-CT-CT-HC
   1170    6     500     489     485     491  # HC-CT-CT-HC
   1171    5     501     492     486     484  # HC-CT-CT-NT
   1172    6     501     492     486     493  # HC-CT-CT-HC
   1173    6     501     492     486     494  # HC-CT-CT-HC
   1174    5     502     492     486     484  # HC-CT-CT-NT
   1175    6     502     492     486     493  # HC-CT-CT-HC
   1176    6     502     492     486     494  # HC-CT-CT-HC
   1177    5     503     492     486     484  # HC-CT-CT-NT
   1178    6     503     492     486     493  # HC-CT-CT-HC
   1179    6     503     492     486     494  # HC-CT-CT-HC
   1180    5     504     495     487     484  # HC-CT-CT-NT
   1181    6     504     495     487     496  # HC-CT-CT-HC
   1182    6     504     495     487     497  # HC-CT-CT-HC
   1183    5     505     495     487     484  # HC-CT-CT-NT
   1184    6     505     495     487     496  # HC-CT-CT-HC
   1185    6     505     495     487     497  # HC-CT-CT-HC
   1186    5     506     495     487     484  # HC-CT-CT-NT
   1187    6     506     495     487     496  # HC-CT-CT-HC
   1188    6     506     495     487     497  # HC-CT-CT-HC
   1189    1     512     508     507     509  # CT-NT-CT-CT
   1190    1     512     508     507     510  # CT-NT-CT-CT
   1191    2     512     508     507     511  # HN-NT-CT-CT
   1192    3     513     508     507     509  # HC-CT-NT-CT
   1193    3     513     508     507     510  # HC-CT-NT-CT
   1194    4     513     508     507     511  # HN-NT-CT-HC
   1195    3     514     508     507     509  # HC-CT-NT-CT
   1196    3     514     508     507     510  # HC-CT-NT-CT
   1197    4     514     508     507     511  # HN-NT-CT-HC
   1198    1     515     509     507     508  # CT-NT-CT-CT
   1199    1     515     509     507     510  # CT-NT-CT-CT
   1200    2     515     509     507     511  # HN-NT-CT-CT
   1201    3     516     509     507     508  # HC-CT-NT-CT
   1202    3     516     509     507     510  # HC-CT-NT-CT
   1203    4     516     509     507     511  # HN-NT-CT-HC
   1204    3     517     509     507     508  # HC-CT-NT-CT
   1205    3     517     509     507     510  # HC-CT-NT-CT
   1206    4     517     509     507     511  # HN-NT-CT-HC
   1207    1     518     510     507     508  # CT-NT-CT-CT
   1208    1     518     510     507     509  # CT-NT-CT-CT
   1209    2     518     510     507     511  # HN-NT-CT-CT
   1210    3     519     510     507     508  # HC-CT-NT-CT
   1211    3     519     510     507     509  # HC-CT-NT-CT
   1212    4     519     510     507     511  # HN-NT-CT-HC
   1213    3     520     510     507     508  # HC-CT-NT-CT
   1214    3     520     510     507     509  # HC-CT-NT-CT
   1215    4     520     510     507     511  # HN-NT-CT-HC
   1216    5     521     512     508     507  # HC-CT-CT-NT
   1217    6     521     512     508     513  # HC-CT-CT-HC
   1218    6     521     512     508     514  # HC-CT-CT-HC
   1219    5     522     512     508     507  # HC-CT-CT-NT
   1220    6     522     512     508     513  # HC-CT-CT-HC
   1221    6     522     512     508     514  # HC-CT-CT-HC
   1222    5     523     512     508     507  # HC-CT-CT-NT
   1223    6     523     512     508     513  # HC-CT-CT-HC
   1224    6     523     512     508     514  # HC-CT-CT-HC
   1225    5     524     515     509     507  # HC-CT-CT-NT
   1226    6     524     515     509     516  # HC-CT-CT-HC
   1227    6     524     515     509     517  # HC-CT-CT-HC
   1228    5     525     515     509     507  # HC-CT-CT-NT
   1229    6     525     515     509     516  # HC-CT-CT-HC
   1230    6     525     515     509     517  # HC-CT-CT-HC
   1231    5     526     515     509     507  # HC-CT-CT-NT
   1232    6     526     515     509     516  # HC-CT-CT-HC
   1233    6     526     515     509     517  # HC-CT-CT-HC
   1234    5     527     518     510     507  # HC-CT-CT-NT
   1235    6     527     518     510     519  # HC-CT-CT-HC
   1236    6     527     518     510     520  # HC-CT-CT-HC
   1237    5     528     518     510     507  # HC-CT-CT-NT
   1238    6     528     518     510     519  # HC-CT-CT-HC
   1239    6     528     518     510     520  # HC-CT-CT-HC
   1240    5     529     518     510     507  # HC-CT-CT-NT
   1241    6     529     518     510     519  # HC-CT-CT-HC
   1242    6     529     518     510     520  # HC-CT-CT-HC
   1243    1     535     531     530     532  # CT-NT-CT-CT
   1244    1     535     531     530     533  # CT-NT-CT-CT
   1245    2     535     531     530     534  # HN-NT-CT-CT
   1246    3     536     531     530     532  # HC-CT-NT-CT
   1247    3     536     531     530     533  # HC-CT-NT-CT
   1248    4     536     531     530     534  # HN-NT-CT-HC
   1249    3     537     531     530     532  # HC-CT-NT-CT
   1250    3     537     531     530     533  # HC-CT-NT-CT
   1251    4     537     531     530     534  # HN-NT-CT-HC
   1252    1     538     532     530     531  # CT-NT-CT-CT
   1253    1     538     532     530     533  # CT-NT-CT-CT
   1254    2     538     532     530     534  # HN-NT-CT-CT
   1255    3     539     532     530     531  # HC-CT-NT-CT
   1256    3     539     532     530     533  # HC-CT-NT-CT
   1257    4     539     532     530     534  # HN-NT-CT-HC
   1258    3     540     532     530     531  # HC-CT-NT-CT
   1259    3     540     532     530     533  # HC-CT-NT-CT
   1260    4     540     532     530     534  # HN-NT-CT-HC
   1261    1     541     533     530     531  # CT-NT-CT-CT
   1262    1     541     533     530     532  # CT-NT-CT-CT
   1263    2     541     533     530     534  # HN-NT-CT-CT
   1264    3     542     533     530     531  # HC-CT-NT-CT
   1265    3     542     533     530     532  # HC-CT-NT-CT
   1266    4     542     533     530     534  # HN-NT-CT-HC
   1267    3     543     533     530     531  # HC-CT-NT-CT
   1268    3     543     533     530     532  # HC-CT-NT-CT
   1269    4     543     533     530     534  # HN-NT-CT-HC
   1270    5     544     535     531     530  # HC-CT-CT-NT
   1271    6     544     535     531     536  # HC-CT-CT-HC
   1272    6     544     535     531     537  # HC-CT-CT-HC
   1273    5     545     535     531     530  # HC-CT-CT-NT
   1274    6     545     535     531     536  # HC-CT-CT-HC
   1275    6     545     535     531     537  # HC-CT-CT-HC
   1276    5     546     535     531     530  # HC-CT-CT-NT
   1277    6     546     535     531     536  # HC-CT-CT-HC
   1278    6     546     535     531     537  # HC-CT-CT-HC
   1279    5     547     538     532     530  # HC-CT-CT-NT
   1280    6     547     538     532     539  # HC-CT-CT-HC
   1281    6     547     538     532     540  # HC-CT-CT-HC
   1282    5     548     538     532     530  # HC-CT-CT-NT
   1283    6     548     538     532     539  # HC-CT-CT-HC
   1284    6     548     538     532     540  # HC-CT-CT-HC
   1285    5     549     538     532     530  # HC-CT-CT-NT
   1286    6     549     538     532     539  # HC-CT-CT-HC
   1287    6     549     538     532     540  # HC-CT-CT-HC
   1288    5     550     541     533     530  # HC-CT-CT-NT
   1289    6     550     541     533     542  # HC-CT-CT-HC
   1290    6     550     541     533     543  # HC-CT-CT-HC
   1291    5     551     541     533     530  # HC-CT-CT-NT
   1292    6     551     541     533     542  # HC-CT-CT-HC
   1293    6     551     541     533     543  # HC-CT-CT-HC
   1294    5     552     541     533     530  # HC-CT-CT-NT
   1295    6     552     541     533     542  # HC-CT-CT-HC
   1296    6     552     541     533     543  # HC-CT-CT-HC
   1297    1     558     554     553     555  # CT-NT-CT-CT
   1298    1     558     554     553     556  # CT-NT-CT-CT
   1299    2     558     554     553     557  # HN-NT-CT-CT
   1300    3     559     554     553     555  # HC-CT-NT-CT
   1301    3     559     554     553     556  # HC-CT-NT-CT
   1302    4     559     554     553     557  # HN-NT-CT-HC
   1303    3     560     554     553     555  # HC-CT-NT-CT
   1304    3     560     554     553     556  # HC-CT-NT-CT
   1305    4     560     554     553     557  # HN-NT-CT-HC
   1306    1     561     555     553     554  # CT-NT-CT-CT
   1307    1     561     555     553     556  # CT-NT-CT-CT
   1308    2     561     555     553     557  # HN-NT-CT-CT
   1309    3     562     555     553     554  # HC-CT-NT-CT
   1310    3     562     555     553     556  # HC-CT-NT-CT
   1311    4     562     555     553     557  # HN-NT-CT-HC
   1312    3     563     555     553     554  # HC-CT-NT-CT
   1313    3     563     555     553     556  # HC-CT-NT-CT
   1314    4     563     555     553     557  # HN-NT-CT-HC
   1315    1     564     556     553     554  # CT-NT-CT-CT
   1316    1     564     556     553     555  # CT-NT-CT-CT
   1317    2     564     556     553     557  # HN-NT-CT-CT
   1318    3     565     556     553     554  # HC-CT-NT-CT
   1319    3     565     556     553     555  # HC-CT-NT-CT
   1320    4     565     556     553     557  # HN-NT-CT-HC
   1321    3     566     556     553     554  # HC-CT-NT-CT
   1322    3     566     556     553     555  # HC-CT-NT-CT
   1323    4     566     556     553     557  # HN-NT-CT-HC
   1324    5     567     558     554     553  # HC-CT-CT-NT
   1325    6     567     558     554     559  # HC-CT-CT-HC
   1326    6     567     558     554     560  # HC-CT-CT-HC
   1327    5     568     558     554     553  # HC-CT-CT-NT
   1328    6     568     558     554     559  # HC-CT-CT-HC
   1329    6     568     558     554     560  # HC-CT-CT-HC
   1330    5     569     558     554     553  # HC-CT-CT-NT
   1331    6     569     558     554     559  # HC-CT-CT-HC
   1332    6     569     558     554     560  # HC-CT-CT-HC
   1333    5     570     561     555     553  # HC-CT-CT-NT
   1334    6     570     561     555     562  # HC-CT-CT-HC
   1335    6     570     561     555     563  # HC-CT-CT-HC
   1336    5     571     561     555     553  # HC-CT-CT-NT
   1337    6     571     561     555     562  # HC-CT-CT-HC
   1338    6     571     561     555     563  # HC-CT-CT-HC
   1339    5     572     561     555     553  # HC-CT-CT-NT
   1340    6     572     561     555     562  # HC-CT-CT-HC
   1341    6     572     561     555     563  # HC-CT-CT-HC
   1342    5     573     564     556     553  # HC-CT-CT-NT
   1343    6     573     564     556     565  # HC-CT-CT-HC
   1344    6     573     564     556     566  # HC-CT-CT-HC
   1345    5     574     564     556     553  # HC-CT-CT-NT
   1346    6     574     564     556     565  # HC-CT-CT-HC
   1347    6     574     564     556     566  # HC-CT-CT-HC
   1348    5     575     564     556     553  # HC-CT-CT-NT
   1349    6     575     564     556     565  # HC-CT-CT-HC
   1350    6     575     564     556     566  # HC-CT-CT-HC
   1351    1     581     577     576     578  # CT-NT-CT-CT
   1352    1     581     577     576     579  # CT-NT-CT-CT
   1353    2     581     577     576     580  # HN-NT-CT-CT
   1354    3     582     577     576     578  # HC-CT-NT-CT
   1355    3     582     577     576     579  # HC-CT-NT-CT
   1356    4     582     577     576     580  # HN-NT-CT-HC
   1357    3     583     577     576     578  # HC-CT-NT-CT
   1358    3     583     577     576     579  # HC-CT-NT-CT
   1359    4     583     577     576     580  # HN-NT-CT-HC
   1360    1     584     578     576     577  # CT-NT-CT-CT
   1361    1     584     578     576     579  # CT-NT-CT-CT
   1362    2     584     578     576     580  # HN-NT-CT-CT
   1363    3     585     578     576     577  # HC-CT-NT-CT
   1364    3     585     578     576     579  # HC-CT-NT-CT
   1365    4     585     578     576     580  # HN-NT-CT-HC
   1366    3     586     578     576     577  # HC-CT-NT-CT
   1367    3     586     578     576     579  # HC-CT-NT-CT
   1368    4     586     578     576     580  # HN-NT-CT-HC
   1369    1     587     579     576     577  # CT-NT-CT-CT
   1370    1     587     579     576     578  # CT-NT-CT-CT
   1371    2     587     579     576     580  # HN-NT-CT-CT
   1372    3     588     579     576     577  # HC-CT-NT-CT
   1373    3     588     579     576     578  # HC-CT-NT-CT
   1374    4     588     579     576     580  # HN-NT-CT-HC
   1375    3     589     579     576     577  # HC-CT-NT-CT
   1376    3     589     579     576     578  # HC-CT-NT-CT
   1377    4     589     579     576     580  # HN-NT-CT-HC
   1378    5     590     581     577     576  # HC-CT-CT-NT
   1379    6     590     581     577     582  # HC-CT-CT-HC
   1380    6     590     581     577     583  # HC-CT-CT-HC
   1381    5     591     581     577     576  # HC-CT-CT-NT
   1382    6     591     581     577     582  # HC-CT-CT-HC
   1383    6     591     581     577     583  # HC-CT-CT-HC
   1384    5     592     581     577     576  # HC-CT-CT-NT
   1385    6     592     581     577     582  # HC-CT-CT-HC
   1386    6     592     581     577     583  # HC-CT-CT-HC
   1387    5     593     584     578     576  # HC-CT-CT-NT
   1388    6     593     584     578     585  # HC-CT-CT-HC
   1389    6     593     584     578     586  # HC-CT-CT-HC
   1390    5     594     584     578     576  # HC-CT-CT-NT
   1391    6     594     584     578     585  # HC-CT-CT-HC
   1392    6     594     584     578     586  # HC-CT-CT-HC
   1393    5     595     584     578     576  # HC-CT-CT-NT
   1394    6     595     584     578     585  # HC-CT-CT-HC
   1395    6     595     584     578     586  # HC-CT-CT-HC
   1396    5     596     587     579     576  # HC-CT-CT-NT
   1397    6     596     587     579     588  # HC-CT-CT-HC
   1398    6     596     587     579     589  # HC-CT-CT-HC
   1399    5     597     587     579     576  # HC-CT-CT-NT
   1400    6     597     587     579     588  # HC-CT-CT-HC
   1401    6     597     587     579     589  # HC-CT-CT-HC
   1402    5     598     587     579     576  # HC-CT-CT-NT
   1403    6     598     587     579     588  # HC-CT-CT-HC
   1404    6     598     587     579     589  # HC-CT-CT-HC
   1405    1     604     600     599     601  # CT-NT-CT-CT
   1406    1     604     600     599     602  # CT-NT-CT-CT
   1407    2     604     600     599     603  # HN-NT-CT-CT
   1408    3     605     600     599     601  # HC-CT-NT-CT
   1409    3     605     600     599     602  # HC-CT-NT-CT
   1410    4     605     600     599     603  # HN-NT-CT-HC
   1411    3     606     600     599     601  # HC-CT-NT-CT
   1412    3     606     600     599     602  # HC-CT-NT-CT
   1413    4     606     600     599     603  # HN-NT-CT-HC
   1414    1     607     601     599     600  # CT-NT-CT-CT
   1415    1     607     601     599     602  # CT-NT-CT-CT
   1416    2     607     601     599     603  # HN-NT-CT-CT
   1417    3     608     601     599     600  # HC-CT-NT-CT
   1418    3     608     601     599     602  # HC-CT-NT-CT
   1419    4     608     601     599     603  # HN-NT-CT-HC
   1420    3     609     601     599     600  # HC-CT-NT-CT
   1421    3     609     601     599     602  # HC-CT-NT-CT
   1422    4     609     601     599     603  # HN-NT-CT-HC
   1423    1     610     602     599     600  # CT-NT-CT-CT
   1424    1     610     602     599     601  # CT-NT-CT-CT
   1425    2     610     602     599     603  # HN-NT-CT-CT
   1426    3     611     602     599     600  # HC-CT-NT-CT
   1427    3     611     602     599     601  # HC-CT-NT-CT
   1428    4     611     602     599     603  # HN-NT-CT-HC
   1429    3     612     602     599     600  # HC-CT-NT-CT
   1430    3     612     602     599     601  # HC-CT-NT-CT
   1431    4     612     602     599     603  # HN-NT-CT-HC
   1432    5     613     604     600     599  # HC-CT-CT-NT
   1433    6     613     604     600     605  # HC-CT-CT-HC
   1434    6     613     604     600     606  # HC-CT-CT-HC
   1435    5     614     604     600     599  # HC-CT-CT-NT
   1436    6     614     604     600     605  # HC-CT-CT-HC
   1437    6     614     604     600     606  # HC-CT-CT-HC
   1438    5     615     604     600     599  # HC-CT-CT-NT
   1439    6     615     604     600     605  # HC-CT-CT-HC
   1440    6     615     604     600     606  # HC-CT-CT-HC
   1441    5     616     607     601     599  # HC-CT-CT-NT
   1442    6     616     607     601     608  # HC-CT-CT-HC
   1443    6     616     607     601     609  # HC-CT-CT-HC
   1444    5     617     607     601     599  # HC-CT-CT-NT
   1445    6     617     607     601     608  # HC-CT-CT-HC
   1446    6     617     607     601     609  # HC-CT-CT-HC
   1447    5     618     607     601     599  # HC-CT-CT-NT
   1448    6     618     607     601     608  # HC-CT-CT-HC
   1449    6     618     607     601     609  # HC-CT-CT-HC
   1450    5     619     610     602     599  # HC-CT-CT-NT
   1451    6     619     610     602     611  # HC-CT-CT-HC
   1452    6     619     610     602     612  # HC-CT-CT-HC
   1453    5     620     610     602     599  # HC-CT-CT-NT
   1454    6     620     610     602     611  # HC-CT-CT-HC
   1455    6     620     610     602     612  # HC-CT-CT-HC
   1456    5     621     610     602     599  # HC-CT-CT-NT
   1457    6     621     610     602     611  # HC-CT-CT-HC
   1458    6     621     610     602     612  # HC-CT-CT-HC
   1459    1     627     623     622     624  # CT-NT-CT-CT
   1460    1     627     623     622     625  # CT-NT-CT-CT
   1461    2     627     623     622     626  # HN-NT-CT-CT
   1462    3     628     623     622     624  # HC-CT-NT-CT
   1463    3     628     623     622     625  # HC-CT-NT-CT
   1464    4     628     623     622     626  # HN-NT-CT-HC
   1465    3     629     623     622     624  # HC-CT-NT-CT
   1466    3     629     623     622     625  # HC-CT-NT-CT
   1467    4     629     623     622     626  # HN-NT-CT-HC
   1468    1     630     624     622     623  # CT-NT-CT-CT
   1469    1     630     624     622     625  # CT-NT-CT-CT
   1470    2     630     624     622     626  # HN-NT-CT-CT
   1471    3     631     624     622     623  # HC-CT-NT-CT
   1472    3     631     624     622     625  # HC-CT-NT-CT
   1473    4     631     624     622     626  # HN-NT-CT-HC
   1474    3     632     624     622     623  # HC-CT-NT-CT
   1475    3     632     624     622     625  # HC-CT-NT-CT
   1476    4     632     624     622     626  # HN-NT-CT-HC
   1477    1     633     625     622     623  # CT-NT-CT-CT
   1478    1     633     625     622     624  # CT-NT-CT-CT
   1479    2     633     625     622     626  # HN-NT-CT-CT
   1480    3     634     625     622     623  # HC-CT-NT-CT
   1481    3     634     625     622     624  # HC-CT-NT-CT
   1482    4     634     625     622     626  # HN-NT-CT-HC
   1483    3     635     625     622     623  # HC-CT-NT-CT
   1484    3     635     625     622     624  # HC-CT-NT-CT
   1485    4     635     625     622     626  # HN-NT-CT-HC
   1486    5     636     627     623     622  # HC-CT-CT-NT
   1487    6     636     627     623     628  # HC-CT-CT-HC
   1488    6     636     627     623     629  # HC-CT-CT-HC
   1489    5     637     627     623     622  # HC-CT-CT-NT
   1490    6     637     627     623     628  # HC-CT-CT-HC
   1491    6     637     627     623     629  # HC-CT-CT-HC
   1492    5     638     627     623     622  # HC-CT-CT-NT
   1493    6     638     627     623     628  # HC-CT-CT-HC
   1494    6     638     627     623     629  # HC-CT-CT-HC
   1495    5     639     630     624     622  # HC-CT-CT-NT
   1496    6     639     630     624     631  # HC-CT-CT-HC
   1497    6     639     630     624     632  # HC-CT-CT-HC
   1498    5     640     630     624     622  # HC-CT-CT-NT
   1499    6     640     630     624     631  # HC-CT-CT-HC
   1500    6     640     630     624     632  # HC-CT-CT-HC
   1501    5     641     630     624     622  # HC-CT-CT-NT
   1502    6     641     630     624     631  # HC-CT-CT-HC
   1503    6     641     630     624     632  # HC-CT-CT-HC
   1504    5     642     633     625     622  # HC-CT-CT-NT
   1505    6     642     633     625     634  # HC-CT-CT-HC
   1506    6     642     633     625     635  # HC-CT-CT-HC
   1507    5     643     633     625     622  # HC-CT-CT-NT
   1508    6     643     633     625     634  # HC-CT-CT-HC
   1509    6     643     633     625     635  # HC-CT-CT-HC
   1510    5     644     633     625     622  # HC-CT-CT-NT
   1511    6     644     633     625     634  # HC-CT-CT-HC
   1512    6     644     633     625     635  # HC-CT-CT-HC
   1513    1     650     646     645     647  # CT-NT-CT-CT
   1514    1     650     646     645     648  # CT-NT-CT-CT
   1515    2     650     646     645     649  # HN-NT-CT-CT
   1516    3     651     646     645     647  # HC-CT-NT-CT
   1517    3     651     646     645     648  # HC-CT-NT-CT
   1518    4     651     646     645     649  # HN-NT-CT-HC
   1519    3     652     646     645     647  # HC-CT-NT-CT
   1520    3     652     646     645     648  # HC-CT-NT-CT
   1521    4     652     646     645     649  # HN-NT-CT-HC
   1522    1     653     647     645     646  # CT-NT-CT-CT
   1523    1     653     647     645     648  # CT-NT-CT-CT
   1524    2     653     647     645     649  # HN-NT-CT-CT
   1525    3     654     647     645     646  # HC-CT-NT-CT
   1526    3     654     647     645     648  # HC-CT-NT-CT
   1527    4     654     647     645     649  # HN-NT-CT-HC
   1528    3     655     647     645     646  # HC-CT-NT-CT
   1529    3     655     647     645     648  # HC-CT-NT-CT
   1530    4     655     647     645     649  # HN-NT-CT-HC
   1531    1     656     648     645     646  # CT-NT-CT-CT
   1532    1     656     648     645     647  # CT-NT-CT-CT
   1533    2     656     648     645     649  # HN-NT-CT-CT
   1534    3     657     648     645     646  # HC-CT-NT-CT
   1535    3     657     648     645     647  # HC-CT-NT-CT
   1536    4     657     648     645     649  # HN-NT-CT-HC
   1537    3     658     648     645     646  # HC-CT-NT-CT
   1538    3     658     648     645     647  # HC-CT-NT-CT
   1539    4     658     648     645     649  # HN-NT-CT-HC
   1540    5     659     650     646     645  # HC-CT-CT-NT
   1541    6     659     650     646     651  # HC-CT-CT-HC
   1542    6     659     650     646     652  # HC-CT-CT-HC
   1543    5     660     650     646     645  # HC-CT-CT-NT
   1544    6     660     650     646     651  # HC-CT-CT-HC
   1545    6     660     650     646     652  # HC-CT-CT-HC
   1546    5     661     650     646     645  # HC-CT-CT-NT
   1547    6     661     650     646     651  # HC-CT-CT-HC
   1548    6     661     650     646     652  # HC-CT-CT-HC
   1549    5     662     653     647     645  # HC-CT-CT-NT
   1550    6     662     653     647     654  # HC-CT-CT-HC
   1551    6     662     653     647     655  # HC-CT-CT-HC
   1552    5     663     653     647     645  # HC-CT-CT-NT
   1553    6     663     653     647     654  # HC-CT-CT-HC
   1554    6     663     653     647     655  # HC-CT-CT-HC
   1555    5     664     653     647     645  # HC-CT-CT-NT
   1556    6     664     653     647     654  # HC-CT-CT-HC
   1557    6     664     653     647     655  # HC-CT-CT-HC
   1558    5     665     656     648     645  # HC-CT-CT-NT
   1559    6     665     656     648     657  # HC-CT-CT-HC
   1560    6     665     656     648     658  # HC-CT-CT-HC
   1561    5     666     656     648     645  # HC-CT-CT-NT
   1562    6     666     656     648     657  # HC-CT-CT-HC
   1563    6     666     656     648     658  # HC-CT-CT-HC
   1564    5     667     656     648     645  # HC-CT-CT-NT
   1565    6     667     656     648     657  # HC-CT-CT-HC
   1566    6     667     656     648     658  # HC-CT-CT-HC
   1567    1     673     669     668     670  # CT-NT-CT-CT
   1568    1     673     669     668     671  # CT-NT-CT-CT
   1569    2     673     669     668     672  # HN-NT-CT-CT
   1570    3     674     669     668     670  # HC-CT-NT-CT
   1571    3     674     669     668     671  # HC-CT-NT-CT
   1572    4     674     669     668     672  # HN-NT-CT-HC
   1573    3     675     669     668     670  # HC-CT-NT-CT
   1574    3     675     669     668     671  # HC-CT-NT-CT
   1575    4     675     669     668     672  # HN-NT-CT-HC
   1576    1     676     670     668     669  # CT-NT-CT-CT
   1577    1     676     670     668     671  # CT-NT-CT-CT
   1578    2     676     670     668     672  # HN-NT-CT-CT
   1579    3     677     670     668     669  # HC-CT-NT-CT
   1580    3     677     670     668     671  # HC-CT-NT-CT
   1581    4     677     670     668     672  # HN-NT-CT-HC
   1582    3     678     670     668     669  # HC-CT-NT-CT
   1583    3     678     670     668     671  # HC-CT-NT-CT
   1584    4     678     670     668     672  # HN-NT-CT-HC
   1585    1     679     671     668     669  # CT-NT-CT-CT
   1586    1     679     671     668     670  # CT-NT-CT-CT
   1587    2     679     671     668     672  # HN-NT-CT-CT
   1588    3     680     671     668     669  # HC-CT-NT-CT
   1589    3     680     671     668     670  # HC-CT-NT-CT
   1590    4     680     671     668     672  # HN-NT-CT-HC
   1591    3     681     671     668     669  # HC-CT-NT-CT
   1592    3     681     671     668     670  # HC-CT-NT-CT
   1593    4     681     671     668     672  # HN-NT-CT-HC
   1594    5     682     673     669     668  # HC-CT-CT-NT
   1595    6     682     673     669     674  # HC-CT-CT-HC
   1596    6     682     673     669     675  # HC-CT-CT-HC
   1597    5     683     673     669     668  # HC-CT-CT-NT
   1598    6     683     673     669     674  # HC-CT-CT-HC
   1599    6     683     673     669     675  # HC-CT-CT-HC
   1600    5     684     673     669     668  # HC-CT-CT-NT
   1601    6     684     673     669     674  # HC-CT-CT-HC
   1602    6     684     673     669     675  # HC-CT-CT-HC
   1603    5     685     676     670     668  # HC-CT-CT-NT
   1604    6     685     676     670     677  # HC-CT-CT-HC
   1605    6     685     676     670     678  # HC-CT-CT-HC
   1606    5     686     676     670     668  # HC-CT-CT-NT
   1607    6     686     676     670     677  # HC-CT-CT-HC
   1608    6     686     676     670     678  # HC-CT-CT-HC
   1609    5     687     676     670     668  # HC-CT-CT-NT
   1610    6     687     676     670     677  # HC-CT-CT-HC
   1611    6     687     676     670     678  # HC-CT-CT-HC
   1612    5     688     679     671     668  # HC-CT-CT-NT
   1613    6     688     679     671     680  # HC-CT-CT-HC
   1614    6     688     679     671     681  # HC-CT-CT-HC
   1615    5     689     679     671     668  # HC-CT-CT-NT
   1616    6     689     679     671     680  # HC-CT-CT-HC
   1617    6     689     679     671     681  # HC-CT-CT-HC
   1618    5     690     679     671     668  # HC-CT-CT-NT
   1619    6     690     679     671     680  # HC-CT-CT-HC
   1620    6     690     679     671     681  # HC-CT-CT-HC
   1621    1     696     692     691     693  # CT-NT-CT-CT
   1622    1     696     692     691     694  # CT-NT-CT-CT
   1623    2     696     692     691     695  # HN-NT-CT-CT
   1624    3     697     692     691     693  # HC-CT-NT-CT
   1625    3     697     692     691     694  # HC-CT-NT-CT
   1626    4     697     692     691     695  # HN-NT-CT-HC
   1627    3     698     692     691     693  # HC-CT-NT-CT
   1628    3     698     692     691     694  # HC-CT-NT-CT
   1629    4     698     692     691     695  # HN-NT-CT-HC
   1630    1     699     693     691     692  # CT-NT-CT-CT
   1631    1     699     693     691     694  # CT-NT-CT-CT
   1632    2     699     693     691     695  # HN-NT-CT-CT
   1633    3     700     693     691     692  # HC-CT-NT-CT
   1634    3     700     693     691     694  # HC-CT-NT-CT
   1635    4     700     693     691     695  # HN-NT-CT-HC
   1636    3     701     693     691     692  # HC-CT-NT-CT
   1637    3     701     693     691     694  # HC-CT-NT-CT
   1638    4     701     693     691     695  # HN-NT-CT-HC
   1639    1     702     694     691     692  # CT-NT-CT-CT
   1640    1     702     694     691     693  # CT-NT-CT-CT
   1641    2     702     694     691     695  # HN-NT-CT-CT
   1642    3     703     694     691     692  # HC-CT-NT-CT
   1643    3     703     694     691     693  # HC-CT-NT-CT
   1644    4     703     694     691     695  # HN-NT-CT-HC
   1645    3     704     694     691     692  # HC-CT-NT-CT
   1646    3     704     694     691     693  # HC-CT-NT-CT
   1647    4     704     694     691     695  # HN-NT-CT-HC
   1648    5     705     696     692     691  # HC-CT-CT-NT
   1649    6     705     696     692     697  # HC-CT-CT-HC
   1650    6     705     696     692     698  # HC-CT-CT-HC
   1651    5     706     696     692     691  # HC-CT-CT-NT
   1652    6     706     696     692     697  # HC-CT-CT-HC
   1653    6     706     696     692     698  # HC-CT-CT-HC
   1654    5     707     696     692     691  # HC-CT-CT-NT
   1655    6     707     696     692     697  # HC-CT-CT-HC
   1656    6     707     696     692     698  # HC-CT-CT-HC
   1657    5     708     699     693     691  # HC-CT-CT-NT
   1658    6     708     699     693     700  # HC-CT-CT-HC
   1659    6     708     699     693     701  # HC-CT-CT-HC
   1660    5     709     699     693     691  # HC-CT-CT-NT
   1661    6     709     699     693     700  # HC-CT-CT-HC
   1662    6     709     699     693     701  # HC-CT-CT-HC
   1663    5     710     699     693     691  # HC-CT-CT-NT
   1664    6     710     699     693     700  # HC-CT-CT-HC
   1665    6     710     699     693     701  # HC-CT-CT-HC
   1666    5     711     702     694     691  # HC-CT-CT-NT
   1667    6     711     702     694     703  # HC-CT-CT-HC
   1668    6     711     702     694     704  # HC-CT-CT-HC
   1669    5     712     702     694     691  # HC-CT-CT-NT
   1670    6     712     702     694     703  # HC-CT-CT-HC
   1671    6     712     702     694     704  # HC-CT-CT-HC
   1672    5     713     702     694     691  # HC-CT-CT-NT
   1673    6     713     702     694     703  # HC-CT-CT-HC
   1674    6     713     702     694     704  # HC-CT-CT-HC
   1675    1     719     715     714     716  # CT-NT-CT-CT
   1676    1     719     715     714     717  # CT-NT-CT-CT
   1677    2     719     715     714     718  # HN-NT-CT-CT
   1678    3     720     715     714     716  # HC-CT-NT-CT
   1679    3     720     715     714     717  # HC-CT-NT-CT
   1680    4     720     715     714     718  # HN-NT-CT-HC
   1681    3     721     715     714     716  # HC-CT-NT-CT
   1682    3     721     715     714     717  # HC-CT-NT-CT
   1683    4     721     715     714     718  # HN-NT-CT-HC
   1684    1     722     716     714     715  # CT-NT-CT-CT
   1685    1     722     716     714     717  # CT-NT-CT-CT
   1686    2     722     716     714     718  # HN-NT-CT-CT
   1687    3     723     716     714     715  # HC-CT-NT-CT
   1688    3     723     716     714     717  # HC-CT-NT-CT
   1689    4     723     716     714     718  # HN-NT-CT-HC
   1690    3     724     716     714     715  # HC-CT-NT-CT
   1691    3     724     716     714     717  # HC-CT-NT-CT
   1692    4     724     716     714     718  # HN-NT-CT-HC
   1693    1     725     717     714     715  # CT-NT-CT-CT
   1694    1     725     717     714     716  # CT-NT-CT-CT
   1695    2     725     717     714     718  # HN-NT-CT-CT
   1696    3     726     717     714     715  # HC-CT-NT-CT
   1697    3     726     717     714     716  # HC-CT-NT-CT
   1698    4     726     717     714     718  # HN-NT-CT-HC
   1699    3     727     717     714     715  # HC-CT-NT-CT
   1700    3     727     717     714     716  # HC-CT-NT-CT
   1701    4     727     717     714     718  # HN-NT-CT-HC
   1702    5     728     719     715     714  # HC-CT-CT-NT
   1703    6     728     719     715     720  # HC-CT-CT-HC
   1704    6     728     719     715     721  # HC-CT-CT-HC
   1705    5     729     719     715     714  # HC-CT-CT-NT
   1706    6     729     719     715     720  # HC-CT-CT-HC
   1707    6     729     719     715     721  # HC-CT-CT-HC
   1708    5     730     719     715     714  # HC-CT-CT-NT
   1709    6     730     719     715     720  # HC-CT-CT-HC
   1710    6     730     719     715     721  # HC-CT-CT-HC
   1711    5     731     722     716     714  # HC-CT-CT-NT
   1712    6     731     722     716     723  # HC-CT-CT-HC
   1713    6     731     722     716     724  # HC-CT-CT-HC
   1714    5     732     722     716     714  # HC-CT-CT-NT
   1715    6     732     722     716     723  # HC-CT-CT-HC
   1716    6     732     722     716     724  # HC-CT-CT-HC
   1717    5     733     722     716     714  # HC-CT-CT-NT
   1718    6     733     722     716     723  # HC-CT-CT-HC
   1719    6     733     722     716     724  # HC-CT-CT-HC
   1720    5     734     725     717     714  # HC-CT-CT-NT
   1721    6     734     725     717     726  # HC-CT-CT-HC
   1722    6     734     725     717     727  # HC-CT-CT-HC
   1723    5     735     725     717     714  # HC-CT-CT-NT
   1724    6     735     725     717     726  # HC-CT-CT-HC
   1725    6     735     725     717     727  # HC-CT-CT-HC
   1726    5     736     725     717     714  # HC-CT-CT-NT
   1727    6     736     725     717     726  # HC-CT-CT-HC
   1728    6     736     725     717     727  # HC-CT-CT-HC
   1729    1     742     738     737     739  # CT-NT-CT-CT
   1730    1     742     738     737     740  # CT-NT-CT-CT
   1731    2     742     738     737     741  # HN-NT-CT-CT
   1732    3     743     738     737     739  # HC-CT-NT-CT
   1733    3     743     738     737     740  # HC-CT-NT-CT
   1734    4     743     738     737     741  # HN-NT-CT-HC
   1735    3     744     738     737     739  # HC-CT-NT-CT
   1736    3     744     738     737     740  # HC-CT-NT-CT
   1737    4     744     738     737     741  # HN-NT-CT-HC
   1738    1     745     739     737     738  # CT-NT-CT-CT
   1739    1     745     739     737     740  # CT-NT-CT-CT
   1740    2     745     739     737     741  # HN-NT-CT-CT
   1741    3     746     739     737     738  # HC-CT-NT-CT
   1742    3     746     739     737     740  # HC-CT-NT-CT
   1743    4     746     739     737     741  # HN-NT-CT-HC
   1744    3     747     739     737     738  # HC-CT-NT-CT
   1745    3     747     739     737     740  # HC-CT-NT-CT
   1746    4     747     739     737     741  # HN-NT-CT-HC
   1747    1     748     740     737     738  # CT-NT-CT-CT
   1748    1     748     740     737     739  # CT-NT-CT-CT
   1749    2     748     740     737     741  # HN-NT-CT-CT
   1750    3     749     740     737     738  # HC-CT-NT-CT
   1751    3     749     740     737     739  # HC-CT-NT-CT
   1752    4     749     740     737     741  # HN-NT-CT-HC
   1753    3     750     740     737     738  # HC-CT-NT-CT
   1754    3     750     740     737     739  # HC-CT-NT-CT
   1755    4     750     740     737     741  # HN-NT-CT-HC
   1756    5     751     742     738     737  # HC-CT-CT-NT
   1757    6     751     742     738     743  # HC-CT-CT-HC
   1758    6     751     742     738     744  # HC-CT-CT-HC
   1759    5     752     742     738     737  # HC-CT-CT-NT
   1760    6     752     742     738     743  # HC-CT-CT-HC
   1761    6     752     742     738     744  # HC-CT-CT-HC
   1762    5     753     742     738     737  # HC-CT-CT-NT
   1763    6     753     742     738     743  # HC-CT-CT-HC
   1764    6     753     742     738     744  # HC-CT-CT-HC
   1765    5     754     745     739     737  # HC-CT-CT-NT
   1766    6     754     745     739     746  # HC-CT-CT-HC
   1767    6     754     745     739     747  # HC-CT-CT-HC
   1768    5     755     745     739     737  # HC-CT-CT-NT
   1769    6     755     745     739     746  # HC-CT-CT-HC
   1770    6     755     745     739     747  # HC-CT-CT-HC
   1771    5     756     745     739     737  # HC-CT-CT-NT
   1772    6     756     745     739     746  # HC-CT-CT-HC
   1773    6     756     745     739     747  # HC-CT-CT-HC
   1774    5     757     748     740     737  # HC-CT-CT-NT
   1775    6     757     748     740     749  # HC-CT-CT-HC
   1776    6     757     748     740     750  # HC-CT-CT-HC
   1777    5     758     748     740     737  # HC-CT-CT-NT
   1778    6     758     748     740     749  # HC-CT-CT-HC
   1779    6     758     748     740     750  # HC-CT-CT-HC
   1780    5     759     748     740     737  # HC-CT-CT-NT
   1781    6     759     748     740     749  # HC-CT-CT-HC
   1782    6     759     748     740     750  # HC-CT-CT-HC
   1783    1     765     761     760     762  # CT-NT-CT-CT
   1784    1     765     761     760     763  # CT-NT-CT-CT
   1785    2     765     761     760     764  # HN-NT-CT-CT
   1786    3     766     761     760     762  # HC-CT-NT-CT
   1787    3     766     761     760     763  # HC-CT-NT-CT
   1788    4     766     761     760     764  # HN-NT-CT-HC
   1789    3     767     761     760     762  # HC-CT-NT-CT
   1790    3     767     761     760     763  # HC-CT-NT-CT
   1791    4     767     761     760     764  # HN-NT-CT-HC
   1792    1     768     762     760     761  # CT-NT-CT-CT
   1793    1     768     762     760     763  # CT-NT-CT-CT
   1794    2     768     762     760     764  # HN-NT-CT-CT
   1795    3     769     762     760     761  # HC-CT-NT-CT
   1796    3     769     762     760     763  # HC-CT-NT-CT
   1797    4     769     762     760     764  # HN-NT-CT-HC
   1798    3     770     762     760     761  # HC-CT-NT-CT
   1799    3     770     762     760     763  # HC-CT-NT-CT
   1800    4     770     762     760     764  # HN-NT-CT-HC
   1801    1     771     763     760     761  # CT-NT-CT-CT
   1802    1     771     763     760     762  # CT-NT-CT-CT
   1803    2     771     763     760     764  # HN-NT-CT-CT
   1804    3     772     763     760     761  # HC-CT-NT-CT
   1805    3     772     763     760     762  # HC-CT-NT-CT
   1806    4     772     763     760     764  # HN-NT-CT-HC
   1807    3     773     763     760     761  # HC-CT-NT-CT
   1808    3     773     763     760     762  # HC-CT-NT-CT
   1809    4     773     763     760     764  # HN-NT-CT-HC
   1810    5     774     765     761     760  # HC-CT-CT-NT
   1811    6     774     765     761     766  # HC-CT-CT-HC
   1812    6     774     765     761     767  # HC-CT-CT-HC
   1813    5     775     765     761     760  # HC-CT-CT-NT
   1814    6     775     765     761     766  # HC-CT-CT-HC
   1815    6     775     765     761     767  # HC-CT-CT-HC
   1816    5     776     765     761     760  # HC-CT-CT-NT
   1817    6     776     765     761     766  # HC-CT-CT-HC
   1818    6     776     765     761     767  # HC-CT-CT-HC
   1819    5     777     768     762     760  # HC-CT-CT-NT
   1820    6     777     768     762     769  # HC-CT-CT-HC
   1821    6     777     768     762     770  # HC-CT-CT-HC
   1822    5     778     768     762     760  # HC-CT-CT-NT
   1823    6     778     768     762     769  # HC-CT-CT-HC
   1824    6     778     768     762     770  # HC-CT-CT-HC
   1825    5     779     768     762     760  # HC-CT-CT-NT
   1826    6     779     768     762     769  # HC-CT-CT-HC
   1827    6     779     768     762     770  # HC-CT-CT-HC
   1828    5     780     771     763     760  # HC-CT-CT-NT
   1829    6     780     771     763     772  # HC-CT-CT-HC
   1830    6     780     771     763     773  # HC-CT-CT-HC
   1831    5     781     771     763     760  # HC-CT-CT-NT
   1832    6     781     771     763     772  # HC-CT-CT-HC
   1833    6     781     771     763     773  # HC-CT-CT-HC
   1834    5     782     771     763     760  # HC-CT-CT-NT
   1835    6     782     771     763     772  # HC-CT-CT-HC
   1836    6     782     771     763     773  # HC-CT-CT-HC
   1837    1     788     784     783     785  # CT-NT-CT-CT
   1838    1     788     784     783     786  # CT-NT-CT-CT
   1839    2     788     784     783     787  # HN-NT-CT-CT
   1840    3     789     784     783     785  # HC-CT-NT-CT
   1841    3     789     784     783     786  # HC-CT-NT-CT
   1842    4     789     784     783     787  # HN-NT-CT-HC
   1843    3     790     784     783     785  # HC-CT-NT-CT
   1844    3     790     784     783     786  # HC-CT-NT-CT
   1845    4     790     784     783     787  # HN-NT-CT-HC
   1846    1     791     785     783     784  # CT-NT-CT-CT
   1847    1     791     785     783     786  # CT-NT-CT-CT
   1848    2     791     785     783     787  # HN-NT-CT-CT
   1849    3     792     785     783     784  # HC-CT-NT-CT
   1850    3     792     785     783     786  # HC-CT-NT-CT
   1851    4     792     785     783     787  # HN-NT-CT-HC
   1852    3     793     785     783     784  # HC-CT-NT-CT
   1853    3     793     785     783     786  # HC-CT-NT-CT
   1854    4     793     785     783     787  # HN-NT-CT-HC
   1855    1     794     786     783     784  # CT-NT-CT-CT
   1856    1     794     786     783     785  # CT-NT-CT-CT
   1857    2     794     786     783     787  # HN-NT-CT-CT
   1858    3     795     786     783     784  # HC-CT-NT-CT
   1859    3     795     786     783     785  # HC-CT-NT-CT
   1860    4     795     786     783     787  # HN-NT-CT-HC
   1861    3     796     786     783     784  # HC-CT-NT-CT
   1862    3     796     786     783     785  # HC-CT-NT-CT
   1863    4     796     786     783     787  # HN-NT-CT-HC
   1864    5     797     788     784     783  # HC-CT-CT-NT
   1865    6     797     788     784     789  # HC-CT-CT-HC
   1866    6     797     788     784     790  # HC-CT-CT-HC
   1867    5     798     788     784     783  # HC-CT-CT-NT
   1868    6     798     788     784     789  # HC-CT-CT-HC
   1869    6     798     788     784     790  # HC-CT-CT-HC
   1870    5     799     788     784     783  # HC-CT-CT-NT
   1871    6     799     788     784     789  # HC-CT-CT-HC
   1872    6     799     788     784     790  # HC-CT-CT-HC
   1873    5     800     791     785     783  # HC-CT-CT-NT
   1874    6     800     791     785     792  # HC-CT-CT-HC
   1875    6     800     791     785     793  # HC-CT-CT-HC
   1876    5     801     791     785     783  # HC-CT-CT-NT
   1877    6     801     791     785     792  # HC-CT-CT-HC
   1878    6     801     791     785     793  # HC-CT-CT-HC
   1879    5     802     791     785     783  # HC-CT-CT-NT
   1880    6     802     791     785     792  # HC-CT-CT-HC
   1881    6     802     791     785     793  # HC-CT-CT-HC
   1882    5     803     794     786     783  # HC-CT-CT-NT
   1883    6     803     794     786     795  # HC-CT-CT-HC
   1884    6     803     794     786     796  # HC-CT-CT-HC
   1885    5     804     794     786     783  # HC-CT-CT-NT
   1886    6     804     794     786     795  # HC-CT-CT-HC
   1887    6     804     794     786     796  # HC-CT-CT-HC
   1888    5     805     794     786     783  # HC-CT-CT-NT
   1889    6     805     794     786     795  # HC-CT-CT-HC
   1890    6     805     794     786     796  # HC-CT-CT-HC
   1891    1     811     807     806     808  # CT-NT-CT-CT
   1892    1     811     807     806     809  # CT-NT-CT-CT
   1893    2     811     807     806     810  # HN-NT-CT-CT
   1894    3     812     807     806     808  # HC-CT-NT-CT
   1895    3     812     807     806     809  # HC-CT-NT-CT
   1896    4     812     807     806     810  # HN-NT-CT-HC
   1897    3     813     807     806     808  # HC-CT-NT-CT
   1898    3     813     807     806     809  # HC-CT-NT-CT
   1899    4     813     807     806     810  # HN-NT-CT-HC
   1900    1     814     808     806     807  # CT-NT-CT-CT
   1901    1     814     808     806     809  # CT-NT-CT-CT
   1902    2     814     808     806     810  # HN-NT-CT-CT
   1903    3     815     808     806     807  # HC-CT-NT-CT
   1904    3     815     808     806     809  # HC-CT-NT-CT
   1905    4     815     808     806     810  # HN-NT-CT-HC
   1906    3     816     808     806     807  # HC-CT-NT-CT
   1907    3     816     808     806     809  # HC-CT-NT-CT
   1908    4     816     808     806     810  # HN-NT-CT-HC
   1909    1     817     809     806     807  # CT-NT-CT-CT
   1910    1     817     809     806     808  # CT-NT-CT-CT
   1911    2     817     809     806     810  # HN-NT-CT-CT
   1912    3     818     809     806     807  # HC-CT-NT-CT
   1913    3     818     809     806     808  # HC-CT-NT-CT
   1914    4     818     809     806     810  # HN-NT-CT-HC
   1915    3     819     809     806     807  # HC-CT-NT-CT
   1916    3     819     809     806     808  # HC-CT-NT-CT
   1917    4     819     809     806     810  # HN-NT-CT-HC
   1918    5     820     811     807     806  # HC-CT-CT-NT
   1919    6     820     811     807     812  # HC-CT-CT-HC
   1920    6     820     811     807     813  # HC-CT-CT-HC
   1921    5     821     811     807     806  # HC-CT-CT-NT
   1922    6     821     811     807     812  # HC-CT-CT-HC
   1923    6     821     811     807     813  # HC-CT-CT-HC
   1924    5     822     811     807     806  # HC-CT-CT-NT
   1925    6     822     811     807     812  # HC-CT-CT-HC
   1926    6     822     811     807     813  # HC-CT-CT-HC
   1927    5     823     814     808     806  # HC-CT-CT-NT
   1928    6     823     814     808     815  # HC-CT-CT-HC
   1929    6     823     814     808     816  # HC-CT-CT-HC
   1930    5     824     814     808     806  # HC-CT-CT-NT
   1931    6     824     814     808     815  # HC-CT-CT-HC
   1932    6     824     814     808     816  # HC-CT-CT-HC
   1933    5     825     814     808     806  # HC-CT-CT-NT
   1934    6     825     814     808     815  # HC-CT-CT-HC
   1935    6     825     814     808     816  # HC-CT-CT-HC
   1936    5     826     817     809     806  # HC-CT-CT-NT
   1937    6     826     817     809     818  # HC-CT-CT-HC
   1938    6     826     817     809     819  # HC-CT-CT-HC
   1939    5     827     817     809     806  # HC-CT-CT-NT
   1940    6     827     817     809     818  # HC-CT-CT-HC
   1941    6     827     817     809     819  # HC-CT-CT-HC
   1942    5     828     817     809     806  # HC-CT-CT-NT
   1943    6     828     817     809     818  # HC-CT-CT-HC
   1944    6     828     817     809     819  # HC-CT-CT-HC
   1945    1     834     830     829     831  # CT-NT-CT-CT
   1946    1     834     830     829     832  # CT-NT-CT-CT
   1947    2     834     830     829     833  # HN-NT-CT-CT
   1948    3     835     830     829     831  # HC-CT-NT-CT
   1949    3     835     830     829     832  # HC-CT-NT-CT
   1950    4     835     830     829     833  # HN-NT-CT-HC
   1951    3     836     830     829     831  # HC-CT-NT-CT
   1952    3     836     830     829     832  # HC-CT-NT-CT
   1953    4     836     830     829     833  # HN-NT-CT-HC
   1954    1     837     831     829     830  # CT-NT-CT-CT
   1955    1     837     831     829     832  # CT-NT-CT-CT
   1956    2     837     831     829     833  # HN-NT-CT-CT
   1957    3     838     831     829     830  # HC-CT-NT-CT
   1958    3     838     831     829     832  # HC-CT-NT-CT
   1959    4     838     831     829     833  # HN-NT-CT-HC
   1960    3     839     831     829     830  # HC-CT-NT-CT
   1961    3     839     831     829     832  # HC-CT-NT-CT
   1962    4     839     831     829     833  # HN-NT-CT-HC
   1963    1     840     832     829     830  # CT-NT-CT-CT
   1964    1     840     832     829     831  # CT-NT-CT-CT
   1965    2     840     832     829     833  # HN-NT-CT-CT
   1966    3     841     832     829     830  # HC-CT-NT-CT
   1967    3     841     832     829     831  # HC-CT-NT-CT
   1968    4     841     832     829     833  # HN-NT-CT-HC
   1969    3     842     832     829     830  # HC-CT-NT-CT
   1970    3     842     832     829     831  # HC-CT-NT-CT
   1971    4     842     832     829     833  # HN-NT-CT-HC
   1972    5     843     834     830     829  # HC-CT-CT-NT
   1973    6     843     834     830     835  # HC-CT-CT-HC
   1974    6     843     834     830     836  # HC-CT-CT-HC
   1975    5     844     834     830     829  # HC-CT-CT-NT
   1976    6     844     834     830     835  # HC-CT-CT-HC
   1977    6     844     834     830     836  # HC-CT-CT-HC
   1978    5     845     834     830     829  # HC-CT-CT-NT
   1979    6     845     834     830     835  # HC-CT-CT-HC
   1980    6     845     834     830     836  # HC-CT-CT-HC
   1981    5     846     837     831     829  # HC-CT-CT-NT
   1982    6     846     837     831     838  # HC-CT-CT-HC
   1983    6     846     837     831     839  # HC-CT-CT-HC
   1984    5     847     837     831     829  # HC-CT-CT-NT
   1985    6     847     837     831     838  # HC-CT-CT-HC
   1986    6     847     837     831     839  # HC-CT-CT-HC
   1987    5     848     837     831     829  # HC-CT-CT-NT
   1988    6     848     837     831     838  # HC-CT-CT-HC
   1989    6     848     837     831     839  # HC-CT-CT-HC
   1990    5     849     840     832     829  # HC-CT-CT-NT
   1991    6     849     840     832     841  # HC-CT-CT-HC
   1992    6     849     840     832     842  # HC-CT-CT-HC
   1993    5     850     840     832     829  # HC-CT-CT-NT
   1994    6     850     840     832     841  # HC-CT-CT-HC
   1995    6     850     840     832     842  # HC-CT-CT-HC
   1996    5     851     840     832     829  # HC-CT-CT-NT
   1997    6     851     840     832     841  # HC-CT-CT-HC
   1998    6     851     840     832     842  # HC-CT-CT-HC
   1999    1     857     853     852     854  # CT-NT-CT-CT
   2000    1     857     853     852     855  # CT-NT-CT-CT
   2001    2     857     853     852     856  # HN-NT-CT-CT
   2002    3     858     853     852     854  # HC-CT-NT-CT
   2003    3     858     853     852     855  # HC-CT-NT-CT
   2004    4     858     853     852     856  # HN-NT-CT-HC
   2005    3     859     853     852     854  # HC-CT-NT-CT
   2006    3     859     853     852     855  # HC-CT-NT-CT
   2007    4     859     853     852     856  # HN-NT-CT-HC
   2008    1     860     854     852     853  # CT-NT-CT-CT
   2009    1     860     854     852     855  # CT-NT-CT-CT
   2010    2     860     854     852     856  # HN-NT-CT-CT
   2011    3     861     854     852     853  # HC-CT-NT-CT
   2012    3     861     854     852     855  # HC-CT-NT-CT
   2013    4     861     854     852     856  # HN-NT-CT-HC
   2014    3     862     854     852     853  # HC-CT-NT-CT
   2015    3     862     854     852     855  # HC-CT-NT-CT
   2016    4     862     854     852     856  # HN-NT-CT-HC
   2017    1     863     855     852     853  # CT-NT-CT-CT
   2018    1     863     855     852     854  # CT-NT-CT-CT
   2019    2     863     855     852     856  # HN-NT-CT-CT
   2020    3     864     855     852     853  # HC-CT-NT-CT
   2021    3     864     855     852     854  # HC-CT-NT-CT
   2022    4     864     855     852     856  # HN-NT-CT-HC
   2023    3     865     855     852     853  # HC-CT-NT-CT
   2024    3     865     855     852     854  # HC-CT-NT-CT
   2025    4     865     855     852     856  # HN-NT-CT-HC
   2026    5     866     857     853     852  # HC-CT-CT-NT
   2027    6     866     857     853     858  # HC-CT-CT-HC
   2028    6     866     857     853     859  # HC-CT-CT-HC
   2029    5     867     857     853     852  # HC-CT-CT-NT
   2030    6     867     857     853     858  # HC-CT-CT-HC
   2031    6     867     857     853     859  # HC-CT-CT-HC
   2032    5     868     857     853     852  # HC-CT-CT-NT
   2033    6     868     857     853     858  # HC-CT-CT-HC
   2034    6     868     857     853     859  # HC-CT-CT-HC
   2035    5     869     860     854     852  # HC-CT-CT-NT
   2036    6     869     860     854     861  # HC-CT-CT-HC
   2037    6     869     860     854     862  # HC-CT-CT-HC
   2038    5     870     860     854     852  # HC-CT-CT-NT
   2039    6     870     860     854     861  # HC-CT-CT-HC
   2040    6     870     860     854     862  # HC-CT-CT-HC
   2041    5     871     860     854     852  # HC-CT-CT-NT
   2042    6     871     860     854     861  # HC-CT-CT-HC
   2043    6     871     860     854     862  # HC-CT-CT-HC
   2044    5     872     863     855     852  # HC-CT-CT-NT
   2045    6     872     863     855     864  # HC-CT-CT-HC
   2046    6     872     863     855     865  # HC-CT-CT-HC
   2047    5     873     863     855     852  # HC-CT-CT-NT
   2048    6     873     863     855     864  # HC-CT-CT-HC
   2049    6     873     863     855     865  # HC-CT-CT-HC
   2050    5     874     863     855     852  # HC-CT-CT-NT
   2051    6     874     863     855     864  # HC-CT-CT-HC
   2052    6     874     863     855     865  # HC-CT-CT-HC
   2053    1     880     876     875     877  # CT-NT-CT-CT
   2054    1     880     876     875     878  # CT-NT-CT-CT
   2055    2     880     876     875     879  # HN-NT-CT-CT
   2056    3     881     876     875     877  # HC-CT-NT-CT
   2057    3     881     876     875     878  # HC-CT-NT-CT
   2058    4     881     876     875     879  # HN-NT-CT-HC
   2059    3     882     876     875     877  # HC-CT-NT-CT
   2060    3     882     876     875     878  # HC-CT-NT-CT
   2061    4     882     876     875     879  # HN-NT-CT-HC
   2062    1     883     877     875     876  # CT-NT-CT-CT
   2063    1     883     877     875     878  # CT-NT-CT-CT
   2064    2     883     877     875     879  # HN-NT-CT-CT
   2065    3     884     877     875     876  # HC-CT-NT-CT
   2066    3     884     877     875     878  # HC-CT-NT-CT
   2067    4     884     877     875     879  # HN-NT-CT-HC
   2068    3     885     877     875     876  # HC-CT-NT-CT
   2069    3     885     877     875     878  # HC-CT-NT-CT
   2070    4     885     877     875     879  # HN-NT-CT-HC
   2071    1     886     878     875     876  # CT-NT-CT-CT
   2072    1     886     878     875     877  # CT-NT-CT-CT
   2073    2     886     878     875     879  # HN-NT-CT-CT
   2074    3     887     878     875     876  # HC-CT-NT-CT
   2075    3     887     878     875     877  # HC-CT-NT-CT
   2076    4     887     878     875     879  # HN-NT-CT-HC
   2077    3     888     878     875     876  # HC-CT-NT-CT
   2078    3     888     878     875     877  # HC-CT-NT-CT
   2079    4     888     878     875     879  # HN-NT-CT-HC
   2080    5     889     880     876     875  # HC-CT-CT-NT
   2081    6     889     880     876     881  # HC-CT-CT-HC
   2082    6     889     880     876     882  # HC-CT-CT-HC
   2083    5     890     880     876     875  # HC-CT-CT-NT
   2084    6     890     880     876     881  # HC-CT-CT-HC
   2085    6     890     880     876     882  # HC-CT-CT-HC
   2086    5     891     880     876     875  # HC-CT-CT-NT
   2087    6     891     880     876     881  # HC-CT-CT-HC
   2088    6     891     880     876     882  # HC-CT-CT-HC
   2089    5     892     883     877     875  # HC-CT-CT-NT
   2090    6     892     883     877     884  # HC-CT-CT-HC
   2091    6     892     883     877     885  # HC-CT-CT-HC
   2092    5     893     883     877     875  # HC-CT-CT-NT
   2093    6     893     883     877     884  # HC-CT-CT-HC
   2094    6     893     883     877     885  # HC-CT-CT-HC
   2095    5     894     883     877     875  # HC-CT-CT-NT
   2096    6     894     883     877     884  # HC-CT-CT-HC
   2097    6     894     883     877     885  # HC-CT-CT-HC
   2098    5     895     886     878     875  # HC-CT-CT-NT
   2099    6     895     886     878     887  # HC-CT-CT-HC
   2100    6     895     886     878     888  # HC-CT-CT-HC
   2101    5     896     886     878     875  # HC-CT-CT-NT
   2102    6     896     886     878     887  # HC-CT-CT-HC
   2103    6     896     886     878     888  # HC-CT-CT-HC
   2104    5     897     886     878     875  # HC-CT-CT-NT
   2105    6     897     886     878     887  # HC-CT-CT-HC
   2106    6     897     886     878     888  # HC-CT-CT-HC
   2107    1     903     899     898     900  # CT-NT-CT-CT
   2108    1     903     899     898     901  # CT-NT-CT-CT
   2109    2     903     899     898     902  # HN-NT-CT-CT
   2110    3     904     899     898     900  # HC-CT-NT-CT
   2111    3     904     899     898     901  # HC-CT-NT-CT
   2112    4     904     899     898     902  # HN-NT-CT-HC
   2113    3     905     899     898     900  # HC-CT-NT-CT
   2114    3     905     899     898     901  # HC-CT-NT-CT
   2115    4     905     899     898     902  # HN-NT-CT-HC
   2116    1     906     900     898     899  # CT-NT-CT-CT
   2117    1     906     900     898     901  # CT-NT-CT-CT
   2118    2     906     900     898     902  # HN-NT-CT-CT
   2119    3     907     900     898     899  # HC-CT-NT-CT
   2120    3     907     900     898     901  # HC-CT-NT-CT
   2121    4     907     900     898     902  # HN-NT-CT-HC
   2122    3     908     900     898     899  # HC-CT-NT-CT
   2123    3     908     900     898     901  # HC-CT-NT-CT
   2124    4     908     900     898     902  # HN-NT-CT-HC
   2125    1     909     901     898     899  # CT-NT-CT-CT
   2126    1     909     901     898     900  # CT-NT-CT-CT
   2127    2     909     901     898     902  # HN-NT-CT-CT
   2128    3     910     901     898     899  # HC-CT-NT-CT
   2129    3     910     901     898     900  # HC-CT-NT-CT
   2130    4     910     901     898     902  # HN-NT-CT-HC
   2131    3     911     901     898     899  # HC-CT-NT-CT
   2132    3     911     901     898     900  # HC-CT-NT-CT
   2133    4     911     901     898     902  # HN-NT-CT-HC
   2134    5     912     903     899     898  # HC-CT-CT-NT
   2135    6     912     903     899     904  # HC-CT-CT-HC
   2136    6     912     903     899     905  # HC-CT-CT-HC
   2137    5     913     903     899     898  # HC-CT-CT-NT
   2138    6     913     903     899     904  # HC-CT-CT-HC
   2139    6     913     903     899     905  # HC-CT-CT-HC
   2140    5     914     903     899     898  # HC-CT-CT-NT
   2141    6     914     903     899     904  # HC-CT-CT-HC
   2142    6     914     903     899     905  # HC-CT-CT-HC
   2143    5     915     906     900     898  # HC-CT-CT-NT
   2144    6     915     906     900     907  # HC-CT-CT-HC
   2145    6     915     906     900     908  # HC-CT-CT-HC
   2146    5     916     906     900     898  # HC-CT-CT-NT
   2147    6     916     906     900     907  # HC-CT-CT-HC
   2148    6     916     906     900     908  # HC-CT-CT-HC
   2149    5     917     906     900     898  # HC-CT-CT-NT
   2150    6     917     906     900     907  # HC-CT-CT-HC
   2151    6     917     906     900     908  # HC-CT-CT-HC
   2152    5     918     909     901     898  # HC-CT-CT-NT
   2153    6     918     909     901     910  # HC-CT-CT-HC
   2154    6     918     909     901     911  # HC-CT-CT-HC
   2155    5     919     909     901     898  # HC-CT-CT-NT
   2156    6     919     909     901     910  # HC-CT-CT-HC
   2157    6     919     909     901     911  # HC-CT-CT-HC
   2158    5     920     909     901     898  # HC-CT-CT-NT
   2159    6     920     909     901     910  # HC-CT-CT-HC
   2160    6     920     909     901     911  # HC-CT-CT-HC
   2161    1     926     922     921     923  # CT-NT-CT-CT
   2162    1     926     922     921     924  # CT-NT-CT-CT
   2163    2     926     922     921     925  # HN-NT-CT-CT
   2164    3     927     922     921     923  # HC-CT-NT-CT
   2165    3     927     922     921     924  # HC-CT-NT-CT
   2166    4     927     922     921     925  # HN-NT-CT-HC
   2167    3     928     922     921     923  # HC-CT-NT-CT
   2168    3     928     922     921     924  # HC-CT-NT-CT
   2169    4     928     922     921     925  # HN-NT-CT-HC
   2170    1     929     923     921     922  # CT-NT-CT-CT
   2171    1     929     923     921     924  # CT-NT-CT-CT
   2172    2     929     923     921     925  # HN-NT-CT-CT
   2173    3     930     923     921     922  # HC-CT-NT-CT
   2174    3     930     923     921     924  # HC-CT-NT-CT
   2175    4     930     923     921     925  # HN-NT-CT-HC
   2176    3     931     923     921     922  # HC-CT-NT-CT
   2177    3     931     923     921     924  # HC-CT-NT-CT
   2178    4     931     923     921     925  # HN-NT-CT-HC
   2179    1     932     924     921     922  # CT-NT-CT-CT
   2180    1     932     924     921     923  # CT-NT-CT-CT
   2181    2     932     924     921     925  # HN-NT-CT-CT
   2182    3     933     924     921     922  # HC-CT-NT-CT
   2183    3     933     924     921     923  # HC-CT-NT-CT
   2184    4     933     924     921     925  # HN-NT-CT-HC
   2185    3     934     924     921     922  # HC-CT-NT-CT
   2186    3     934     924     921     923  # HC-CT-NT-CT
   2187    4     934     924     921     925  # HN-NT-CT-HC
   2188    5     935     926     922     921  # HC-CT-CT-NT
   2189    6     935     926     922     927  # HC-CT-CT-HC
   2190    6     935     926     922     928  # HC-CT-CT-HC
   2191    5     936     926     922     921  # HC-CT-CT-NT
   2192    6     936     926     922     927  # HC-CT-CT-HC
   2193    6     936     926     922     928  # HC-CT-CT-HC
   2194    5     937     926     922     921  # HC-CT-CT-NT
   2195    6     937     926     922     927  # HC-CT-CT-HC
   2196    6     937     926     922     928  # HC-CT-CT-HC
   2197    5     938     929     923     921  # HC-CT-CT-NT
   2198    6     938     929     923     930  # HC-CT-CT-HC
   2199    6     938     929     923     931  # HC-CT-CT-HC
   2200    5     939     929     923     921  # HC-CT-CT-NT
   2201    6     939     929     923     930  # HC-CT-CT-HC
   2202    6     939     929     923     931  # HC-CT-CT-HC
   2203    5     940     929     923     921  # HC-CT-CT-NT
   2204    6     940     929     923     930  # HC-CT-CT-HC
   2205    6     940     929     923     931  # HC-CT-CT-HC
   2206    5     941     932     924     921  # HC-CT-CT-NT
   2207    6     941     932     924     933  # HC-CT-CT-HC
   2208    6     941     932     924     934  # HC-CT-CT-HC
   2209    5     942     932     924     921  # HC-CT-CT-NT
   2210    6     942     932     924     933  # HC-CT-CT-HC
   2211    6     942     932     924     934  # HC-CT-CT-HC
   2212    5     943     932     924     921  # HC-CT-CT-NT
   2213    6     943     932     924     933  # HC-CT-CT-HC
   2214    6     943     932     924     934  # HC-CT-CT-HC
   2215    1     949     945     944     946  # CT-NT-CT-CT
   2216    1     949     945     944     947  # CT-NT-CT-CT
   2217    2     949     945     944     948  # HN-NT-CT-CT
   2218    3     950     945     944     946  # HC-CT-NT-CT
   2219    3     950     945     944     947  # HC-CT-NT-CT
   2220    4     950     945     944     948  # HN-NT-CT-HC
   2221    3     951     945     944     946  # HC-CT-NT-CT
   2222    3     951     945     944     947  # HC-CT-NT-CT
   2223    4     951     945     944     948  # HN-NT-CT-HC
   2224    1     952     946     944     945  # CT-NT-CT-CT
   2225    1     952     946     944     947  # CT-NT-CT-CT
   2226    2     952     946     944     948  # HN-NT-CT-CT
   2227    3     953     946     944     945  # HC-CT-NT-CT
   2228    3     953     946     944     947  # HC-CT-NT-CT
   2229    4     953     946     944     948  # HN-NT-CT-HC
   2230    3     954     946     944     945  # HC-CT-NT-CT
   2231    3     954     946     944     947  # HC-CT-NT-CT
   2232    4     954     946     944     948  # HN-NT-CT-HC
   2233    1     955     947     944     945  # CT-NT-CT-CT
   2234    1     955     947     944     946  # CT-NT-CT-CT
   2235    2     955     947     944     948  # HN-NT-CT-CT
   2236    3     956     947     944     945  # HC-CT-NT-CT
   2237    3     956     947     944     946  # HC-CT-NT-CT
   2238    4     956     947     944     948  # HN-NT-CT-HC
   2239    3     957     947     944     945  # HC-CT-NT-CT
   2240    3     957     947     944     946  # HC-CT-NT-CT
   2241    4     957     947     944     948  # HN-NT-CT-HC
   2242    5     958     949     945     944  # HC-CT-CT-NT
   2243    6     958     949     945     950  # HC-CT-CT-HC
   2244    6     958     949     945     951  # HC-CT-CT-HC
   2245    5     959     949     945     944  # HC-CT-CT-NT
   2246    6     959     949     945     950  # HC-CT-CT-HC
   2247    6     959     949     945     951  # HC-CT-CT-HC
   2248    5     960     949     945     944  # HC-CT-CT-NT
   2249    6     960     949     945     950  # HC-CT-CT-HC
   2250    6     960     949     945     951  # HC-CT-CT-HC
   2251    5     961     952     946     944  # HC-CT-CT-NT
   2252    6     961     952     946     953  # HC-CT-CT-HC
   2253    6     961     952     946     954  # HC-CT-CT-HC
   2254    5     962     952     946     944  # HC-CT-CT-NT
   2255    6     962     952     946     953  # HC-CT-CT-HC
   2256    6     962     952     946     954  # HC-CT-CT-HC
   2257    5     963     952     946     944  # HC-CT-CT-NT
   2258    6     963     952     946     953  # HC-CT-CT-HC
   2259    6     963     952     946     954  # HC-CT-CT-HC
   2260    5     964     955     947     944  # HC-CT-CT-NT
   2261    6     964     955     947     956  # HC-CT-CT-HC
   2262    6     964     955     947     957  # HC-CT-CT-HC
   2263    5     965     955     947     944  # HC-CT-CT-NT
   2264    6     965     955     947     956  # HC-CT-CT-HC
   2265    6     965     955     947     957  # HC-CT-CT-HC
   2266    5     966     955     947     944  # HC-CT-CT-NT
   2267    6     966     955     947     956  # HC-CT-CT-HC
   2268    6     966     955     947     957  # HC-CT-CT-HC
   2269    1     972     968     967     969  # CT-NT-CT-CT
   2270    1     972     968     967     970  # CT-NT-CT-CT
   2271    2     972     968     967     971  # HN-NT-CT-CT
   2272    3     973     968     967     969  # HC-CT-NT-CT
   2273    3     973     968     967     970  # HC-CT-NT-CT
   2274    4     973     968     967     971  # HN-NT-CT-HC
   2275    3     974     968     967     969  # HC-CT-NT-CT
   2276    3     974     968     967     970  # HC-CT-NT-CT
   2277    4     974     968     967     971  # HN-NT-CT-HC
   2278    1     975     969     967     968  # CT-NT-CT-CT
   2279    1     975     969     967     970  # CT-NT-CT-CT
   2280    2     975     969     967     971  # HN-NT-CT-CT
   2281    3     976     969     967     968  # HC-CT-NT-CT
   2282    3     976     969     967     970  # HC-CT-NT-CT
   2283    4     976     969     967     971  # HN-NT-CT-HC
   2284    3     977     969     967     968  # HC-CT-NT-CT
   2285    3     977     969     967     970  # HC-CT-NT-CT
   2286    4     977     969     967     971  # HN-NT-CT-HC
   2287    1     978     970     967     968  # CT-NT-CT-CT
   2288    1     978     970     967     969  # CT-NT-CT-CT
   2289    2     978     970     967     971  # HN-NT-CT-CT
   2290    3     979     970     967     968  # HC-CT-NT-CT
   2291    3     979     970     967     969  # HC-CT-NT-CT
   2292    4     979     970     967     971  # HN-NT-CT-HC
   2293    3     980     970     967     968  # HC-CT-NT-CT
   2294    3     980     970     967     969  # HC-CT-NT-CT
   2295    4     980     970     967     971  # HN-NT-CT-HC
   2296    5     981     972     968     967  # HC-CT-CT-NT
   2297    6     981     972     968     973  # HC-CT-CT-HC
   2298    6     981     972     968     974  # HC-CT-CT-HC
   2299    5     982     972     968     967  # HC-CT-CT-NT
   2300    6     982     972     968     973  # HC-CT-CT-HC
   2301    6     982     972     968     974  # HC-CT-CT-HC
   2302    5     983     972     968     967  # HC-CT-CT-NT
   2303    6     983     972     968     973  # HC-CT-CT-HC
   2304    6     983     972     968     974  # HC-CT-CT-HC
   2305    5     984     975     969     967  # HC-CT-CT-NT
   2306    6     984     975     969     976  # HC-CT-CT-HC
   2307    6     984     975     969     977  # HC-CT-CT-HC
   2308    5     985     975     969     967  # HC-CT-CT-NT
   2309    6     985     975     969     976  # HC-CT-CT-HC
   2310    6     985     975     969     977  # HC-CT-CT-HC
   2311    5     986     975     969     967  # HC-CT-CT-NT
   2312    6     986     975     969     976  # HC-CT-CT-HC
   2313    6     986     975     969     977  # HC-CT-CT-HC
   2314    5     987     978     970     967  # HC-CT-CT-NT
   2315    6     987     978     970     979  # HC-CT-CT-HC
   2316    6     987     978     970     980  # HC-CT-CT-HC
   2317    5     988     978     970     967  # HC-CT-CT-NT
   2318    6     988     978     970     979  # HC-CT-CT-HC
   2319    6     988     978     970     980  # HC-CT-CT-HC
   2320    5     989     978     970     967  # HC-CT-CT-NT
   2321    6     989     978     970     979  # HC-CT-CT-HC
   2322    6     989     978     970     980  # HC-CT-CT-HC
   2323    1     995     991     990     992  # CT-NT-CT-CT
   2324    1     995     991     990     993  # CT-NT-CT-CT
   2325    2     995     991     990     994  # HN-NT-CT-CT
   2326    3     996     991     990     992  # HC-CT-NT-CT
   2327    3     996     991     990     993  # HC-CT-NT-CT
   2328    4     996     991     990     994  # HN-NT-CT-HC
   2329    3     997     991     990     992  # HC-CT-NT-CT
   2330    3     997     991     990     993  # HC-CT-NT-CT
   2331    4     997     991     990     994  # HN-NT-CT-HC
   2332    1     998     992     990     991  # CT-NT-CT-CT
   2333    1     998     992     990     993  # CT-NT-CT-CT
   2334    2     998     992     990     994  # HN-NT-CT-CT
   2335    3     999     992     990     991  # HC-CT-NT-CT
   2336    3     999     992     990     993  # HC-CT-NT-CT
   2337    4     999     992     990     994  # HN-NT-CT-HC
   2338    3    1000     992     990     991  # HC-CT-NT-CT
   2339    3    1000     992     990     993  # HC-CT-NT-CT
   2340    4    1000     992     990     994  # HN-NT-CT-HC
   2341    1    1001     993     990     991  # CT-NT-CT-CT
   2342    1    1001     993     990     992  # CT-NT-CT-CT
   2343    2    1001     993     990     994  # HN-NT-CT-CT
   2344    3    1002     993     990     991  # HC-CT-NT-CT
   2345    3    1002     993     990     992  # HC-CT-NT-CT
   2346    4    1002     993     990     994  # HN-NT-CT-HC
   2347    3    1003     993     990     991  # HC-CT-NT-CT
   2348    3    1003     993     990     992  # HC-CT-NT-CT
   2349    4    1003     993     990     994  # HN-NT-CT-HC
   2350    5    1004     995     991     990  # HC-CT-CT-NT
   2351    6    1004     995     991     996  # HC-CT-CT-HC
   2352    6    1004     995     991     997  # HC-CT-CT-HC
   2353    5    1005     995     991     990  # HC-CT-CT-NT
   2354    6    1005     995     991     996  # HC-CT-CT-HC
   2355    6    1005     995     991     997  # HC-CT-CT-HC
   2356    5    1006     995     991     990  # HC-CT-CT-NT
   2357    6    1006     995     991     996  # HC-CT-CT-HC
   2358    6    1006     995     991     997  # HC-CT-CT-HC
   2359    5    1007     998     992     990  # HC-CT-CT-NT
   2360    6    1007     998     992     999  # HC-CT-CT-HC
   2361    6    1007     998     992    1000  # HC-CT-CT-HC
   2362    5    1008     998     992     990  # HC-CT-CT-NT
   2363    6    1008     998     992     999  # HC-CT-CT-HC
   2364    6    1008     998     992    1000  # HC-CT-CT-HC
   2365    5    1009     998     992     990  # HC-CT-CT-NT
   2366    6    1009     998     992     999  # HC-CT-CT-HC
   2367    6    1009     998     992    1000  # HC-CT-CT-HC
   2368    5    1010    1001     993     990  # HC-CT-CT-NT
   2369    6    1010    1001     993    1002  # HC-CT-CT-HC
   2370    6    1010    1001     993    1003  # HC-CT-CT-HC
   2371    5    1011    1001     993     990  # HC-CT-CT-NT
   2372    6    1011    1001     993    1002  # HC-CT-CT-HC
   2373    6    1011    1001     993    1003  # HC-CT-CT-HC
   2374    5    1012    1001     993     990  # HC-CT-CT-NT
   2375    6    1012    1001     993    1002  # HC-CT-CT-HC
   2376    6    1012    1001     993    1003  # HC-CT-CT-HC
   2377    1    1018    1014    1013    1015  # CT-NT-CT-CT
   2378    1    1018    1014    1013    1016  # CT-NT-CT-CT
   2379    2    1018    1014    1013    1017  # HN-NT-CT-CT
   2380    3    1019    1014    1013    1015  # HC-CT-NT-CT
   2381    3    1019    1014    1013    1016  # HC-CT-NT-CT
   2382    4    1019    1014    1013    1017  # HN-NT-CT-HC
   2383    3    1020    1014    1013    1015  # HC-CT-NT-CT
   2384    3    1020    1014    1013    1016  # HC-CT-NT-CT
   2385    4    1020    1014    1013    1017  # HN-NT-CT-HC
   2386    1    1021    1015    1013    1014  # CT-NT-CT-CT
   2387    1    1021    1015    1013    1016  # CT-NT-CT-CT
   2388    2    1021    1015    1013    1017  # HN-NT-CT-CT
   2389    3    1022    1015    1013    1014  # HC-CT-NT-CT
   2390    3    1022    1015    1013    1016  # HC-CT-NT-CT
   2391    4    1022    1015    1013    1017  # HN-NT-CT-HC
   2392    3    1023    1015    1013    1014  # HC-CT-NT-CT
   2393    3    1023    1015    1013    1016  # HC-CT-NT-CT
   2394    4    1023    1015    1013    1017  # HN-NT-CT-HC
   2395    1    1024    1016    1013    1014  # CT-NT-CT-CT
   2396    1    1024    1016    1013    1015  # CT-NT-CT-CT
   2397    2    1024    1016    1013    1017  # HN-NT-CT-CT
   2398    3    1025    1016    1013    1014  # HC-CT-NT-CT
   2399    3    1025    1016    1013    1015  # HC-CT-NT-CT
   2400    4    1025    1016    1013    1017  # HN-NT-CT-HC
   2401    3    1026    1016    1013    1014  # HC-CT-NT-CT
   2402    3    1026    1016    1013    1015  # HC-CT-NT-CT
   2403    4    1026    1016    1013    1017  # HN-NT-CT-HC
   2404    5    1027    1018    1014    1013  # HC-CT-CT-NT
   2405    6    1027    1018    1014    1019  # HC-CT-CT-HC
   2406    6    1027    1018    1014    1020  # HC-CT-CT-HC
   2407    5    1028    1018    1014    1013  # HC-CT-CT-NT
   2408    6    1028    1018    1014    1019  # HC-CT-CT-HC
   2409    6    1028    1018    1014    1020  # HC-CT-CT-HC
   2410    5    1029    1018    1014    1013  # HC-CT-CT-NT
   2411    6    1029    1018    1014    1019  # HC-CT-CT-HC
   2412    6    1029    1018    1014    1020  # HC-CT-CT-HC
   2413    5    1030    1021    1015    1013  # HC-CT-CT-NT
   2414    6    1030    1021    1015    1022  # HC-CT-CT-HC
   2415    6    1030    1021    1015    1023  # HC-CT-CT-HC
   2416    5    1031    1021    1015    1013  # HC-CT-CT-NT
   2417    6    1031    1021    1015    1022  # HC-CT-CT-HC
   2418    6    1031    1021    1015    1023  # HC-CT-CT-HC
   2419    5    1032    1021    1015    1013  # HC-CT-CT-NT
   2420    6    1032    1021    1015    1022  # HC-CT-CT-HC
   2421    6    1032    1021    1015    1023  # HC-CT-CT-HC
   2422    5    1033    1024    1016    1013  # HC-CT-CT-NT
   2423    6    1033    1024    1016    1025  # HC-CT-CT-HC
   2424    6    1033    1024    1016    1026  # HC-CT-CT-HC
   2425    5    1034    1024    1016    1013  # HC-CT-CT-NT
   2426    6    1034    1024    1016    1025  # HC-CT-CT-HC
   2427    6    1034    1024    1016    1026  # HC-CT-CT-HC
   2428    5    1035    1024    1016    1013  # HC-CT-CT-NT
   2429    6    1035    1024    1016    1025  # HC-CT-CT-HC
   2430    6    1035    1024    1016    1026  # HC-CT-CT-HC
   2431    1    1041    1037    1036    1038  # CT-NT-CT-CT
   2432    1    1041    1037    1036    1039  # CT-NT-CT-CT
   2433    2    1041    1037    1036    1040  # HN-NT-CT-CT
   2434    3    1042    1037    1036    1038  # HC-CT-NT-CT
   2435    3    1042    1037    1036    1039  # HC-CT-NT-CT
   2436    4    1042    1037    1036    1040  # HN-NT-CT-HC
   2437    3    1043    1037    1036    1038  # HC-CT-NT-CT
   2438    3    1043    1037    1036    1039  # HC-CT-NT-CT
   2439    4    1043    1037    1036    1040  # HN-NT-CT-HC
   2440    1    1044    1038    1036    1037  # CT-NT-CT-CT
   2441    1    1044    1038    1036    1039  # CT-NT-CT-CT
   2442    2    1044    1038    1036    1040  # HN-NT-CT-CT
   2443    3    1045    1038    1036    1037  # HC-CT-NT-CT
   2444    3    1045    1038    1036    1039  # HC-CT-NT-CT
   2445    4    1045    1038    1036    1040  # HN-NT-CT-HC
   2446    3    1046    1038    1036    1037  # HC-CT-NT-CT
   2447    3    1046    1038    1036    1039  # HC-CT-NT-CT
   2448    4    1046    1038    1036    1040  # HN-NT-CT-HC
   2449    1    1047    1039    1036    1037  # CT-NT-CT-CT
   2450    1    1047    1039    1036    1038  # CT-NT-CT-CT
   2451    2    1047    1039    1036    1040  # HN-NT-CT-CT
   2452    3    1048    1039    1036    1037  # HC-CT-NT-CT
   2453    3    1048    1039    1036    1038  # HC-CT-NT-CT
   2454    4    1048    1039    1036    1040  # HN-NT-CT-HC
   2455    3    1049    1039    1036    1037  # HC-CT-NT-CT
   2456    3    1049    1039    1036    1038  # HC-CT-NT-CT
   2457    4    1049    1039    1036    1040  # HN-NT-CT-HC
   2458    5    1050    1041    1037    1036  # HC-CT-CT-NT
   2459    6    1050    1041    1037    1042  # HC-CT-CT-HC
   2460    6    1050    1041    1037    1043  # HC-CT-CT-HC
   2461    5    1051    1041    1037    1036  # HC-CT-CT-NT
   2462    6    1051    1041    1037    1042  # HC-CT-CT-HC
   2463    6    1051    1041    1037    1043  # HC-CT-CT-HC
   2464    5    1052    1041    1037    1036  # HC-CT-CT-NT
   2465    6    1052    1041    1037    1042  # HC-CT-CT-HC
   2466    6    1052    1041    1037    1043  # HC-CT-CT-HC
   2467    5    1053    1044    1038    1036  # HC-CT-CT-NT
   2468    6    1053    1044    1038    1045  # HC-CT-CT-HC
   2469    6    1053    1044    1038    1046  # HC-CT-CT-HC
   2470    5    1054    1044    1038    1036  # HC-CT-CT-NT
   2471    6    1054    1044    1038    1045  # HC-CT-CT-HC
   2472    6    1054    1044    1038    1046  # HC-CT-CT-HC
   2473    5    1055    1044    1038    1036  # HC-CT-CT-NT
   2474    6    1055    1044    1038    1045  # HC-CT-CT-HC
   2475    6    1055    1044    1038    1046  # HC-CT-CT-HC
   2476    5    1056    1047    1039    1036  # HC-CT-CT-NT
   2477    6    1056    1047    1039    1048  # HC-CT-CT-HC
   2478    6    1056    1047    1039    1049  # HC-CT-CT-HC
   2479    5    1057    1047    1039    1036  # HC-CT-CT-NT
   2480    6    1057    1047    1039    1048  # HC-CT-CT-HC
   2481    6    1057    1047    1039    1049  # HC-CT-CT-HC
   2482    5    1058    1047    1039    1036  # HC-CT-CT-NT
   2483    6    1058    1047    1039    1048  # HC-CT-CT-HC
   2484    6    1058    1047    1039    1049  # HC-CT-CT-HC
   2485    1    1064    1060    1059    1061  # CT-NT-CT-CT
   2486    1    1064    1060    1059    1062  # CT-NT-CT-CT
   2487    2    1064    1060    1059    1063  # HN-NT-CT-CT
   2488    3    1065    1060    1059    1061  # HC-CT-NT-CT
   2489    3    1065    1060    1059    1062  # HC-CT-NT-CT
   2490    4    1065    1060    1059    1063  # HN-NT-CT-HC
   2491    3    1066    1060    1059    1061  # HC-CT-NT-CT
   2492    3    1066    1060    1059    1062  # HC-CT-NT-CT
   2493    4    1066    1060    1059    1063  # HN-NT-CT-HC
   2494    1    1067    1061    1059    1060  # CT-NT-CT-CT
   2495    1    1067    1061    1059    1062  # CT-NT-CT-CT
   2496    2    1067    1061    1059    1063  # HN-NT-CT-CT
   2497    3    1068    1061    1059    1060  # HC-CT-NT-CT
   2498    3    1068    1061    1059    1062  # HC-CT-NT-CT
   2499    4    1068    1061    1059    1063  # HN-NT-CT-HC
   2500    3    1069    1061    1059    1060  # HC-CT-NT-CT
   2501    3    1069    1061    1059    1062  # HC-CT-NT-CT
   2502    4    1069    1061    1059    1063  # HN-NT-CT-HC
   2503    1    1070    1062    1059    1060  # CT-NT-CT-CT
   2504    1    1070    1062    1059    1061  # CT-NT-CT-CT
   2505    2    1070    1062    1059    1063  # HN-NT-CT-CT
   2506    3    1071    1062    1059    1060  # HC-CT-NT-CT
   2507    3    1071    1062    1059    1061  # HC-CT-NT-CT
   2508    4    1071    1062    1059    1063  # HN-NT-CT-HC
   2509    3    1072    1062    1059    1060  # HC-CT-NT-CT
   2510    3    1072    1062    1059    1061  # HC-CT-NT-CT
   2511    4    1072    1062    1059    1063  # HN-NT-CT-HC
   2512    5    1073    1064    1060    1059  # HC-CT-CT-NT
   2513    6    1073    1064    1060    1065  # HC-CT-CT-HC
   2514    6    1073    1064    1060    1066  # HC-CT-CT-HC
   2515    5    1074    1064    1060    1059  # HC-CT-CT-NT
   2516    6    1074    1064    1060    1065  # HC-CT-CT-HC
   2517    6    1074    1064    1060    1066  # HC-CT-CT-HC
   2518    5    1075    1064    1060    1059  # HC-CT-CT-NT
   2519    6    1075    1064    1060    1065  # HC-CT-CT-HC
   2520    6    1075    1064    1060    1066  # HC-CT-CT-HC
   2521    5    1076    1067    1061    1059  # HC-CT-CT-NT
   2522    6    1076    1067    1061    1068  # HC-CT-CT-HC
   2523    6    1076    1067    1061    1069  # HC-CT-CT-HC
   2524    5    1077    1067    1061    1059  # HC-CT-CT-NT
   2525    6    1077    1067    1061    1068  # HC-CT-CT-HC
   2526    6    1077    1067    1061    1069  # HC-CT-CT-HC
   2527    5    1078    1067    1061    1059  # HC-CT-CT-NT
   2528    6    1078    1067    1061    1068  # HC-CT-CT-HC
   2529    6    1078    1067    1061    1069  # HC-CT-CT-HC
   2530    5    1079    1070    1062    1059  # HC-CT-CT-NT
   2531    6    1079    1070    1062    1071  # HC-CT-CT-HC
   2532    6    1079    1070    1062    1072  # HC-CT-CT-HC
   2533    5    1080    1070    1062    1059  # HC-CT-CT-NT
   2534    6    1080    1070    1062    1071  # HC-CT-CT-HC
   2535    6    1080    1070    1062    1072  # HC-CT-CT-HC
   2536    5    1081    1070    1062    1059  # HC-CT-CT-NT
   2537    6    1081    1070    1062    1071  # HC-CT-CT-HC
   2538    6    1081    1070    1062    1072  # HC-CT-CT-HC
   2539    1    1087    1083    1082    1084  # CT-NT-CT-CT
   2540    1    1087    1083    1082    1085  # CT-NT-CT-CT
   2541    2    1087    1083    1082    1086  # HN-NT-CT-CT
   2542    3    1088    1083    1082    1084  # HC-CT-NT-CT
   2543    3    1088    1083    1082    1085  # HC-CT-NT-CT
   2544    4    1088    1083    1082    1086  # HN-NT-CT-HC
   2545    3    1089    1083    1082    1084  # HC-CT-NT-CT
   2546    3    1089    1083    1082    1085  # HC-CT-NT-CT
   2547    4    1089    1083    1082    1086  # HN-NT-CT-HC
   2548    1    1090    1084    1082    1083  # CT-NT-CT-CT
   2549    1    1090    1084    1082    1085  # CT-NT-CT-CT
   2550    2    1090    1084    1082    1086  # HN-NT-CT-CT
   2551    3    1091    1084    1082    1083  # HC-CT-NT-CT
   2552    3    1091    1084    1082    1085  # HC-CT-NT-CT
   2553    4    1091    1084    1082    1086  # HN-NT-CT-HC
   2554    3    1092    1084    1082    1083  # HC-CT-NT-CT
   2555    3    1092    1084    1082    1085  # HC-CT-NT-CT
   2556    4    1092    1084    1082    1086  # HN-NT-CT-HC
   2557    1    1093    1085    1082    1083  # CT-NT-CT-CT
   2558    1    1093    1085    1082    1084  # CT-NT-CT-CT
   2559    2    1093    1085    1082    1086  # HN-NT-CT-CT
   2560    3    1094    1085    1082    1083  # HC-CT-NT-CT
   2561    3    1094    1085    1082    1084  # HC-CT-NT-CT
   2562    4    1094    1085    1082    1086  # HN-NT-CT-HC
   2563    3    1095    1085    1082    1083  # HC-CT-NT-CT
   2564    3    1095    1085    1082    1084  # HC-CT-NT-CT
   2565    4    1095    1085    1082    1086  # HN-NT-CT-HC
   2566    5    1096    1087    1083    1082  # HC-CT-CT-NT
   2567    6    1096    1087    1083    1088  # HC-CT-CT-HC
   2568    6    1096    1087    1083    1089  # HC-CT-CT-HC
   2569    5    1097    1087    1083    1082  # HC-CT-CT-NT
   2570    6    1097    1087    1083    1088  # HC-CT-CT-HC
   2571    6    1097    1087    1083    1089  # HC-CT-CT-HC
   2572    5    1098    1087    1083    1082  # HC-CT-CT-NT
   2573    6    1098    1087    1083    1088  # HC-CT-CT-HC
   2574    6    1098    1087    1083    1089  # HC-CT-CT-HC
   2575    5    1099    1090    1084    1082  # HC-CT-CT-NT
   2576    6    1099    1090    1084    1091  # HC-CT-CT-HC
   2577    6    1099    1090    1084    1092  # HC-CT-CT-HC
   2578    5    1100    1090    1084    1082  # HC-CT-CT-NT
   2579    6    1100    1090    1084    1091  # HC-CT-CT-HC
   2580    6    1100    1090    1084    1092  # HC-CT-CT-HC
   2581    5    1101    1090    1084    1082  # HC-CT-CT-NT
   2582    6    1101    1090    1084    1091  # HC-CT-CT-HC
   2583    6    1101    1090    1084    1092  # HC-CT-CT-HC
   2584    5    1102    1093    1085    1082  # HC-CT-CT-NT
   2585    6    1102    1093    1085    1094  # HC-CT-CT-HC
   2586    6    1102    1093    1085    1095  # HC-CT-CT-HC
   2587    5    1103    1093    1085    1082  # HC-CT-CT-NT
   2588    6    1103    1093    1085    1094  # HC-CT-CT-HC
   2589    6    1103    1093    1085    1095  # HC-CT-CT-HC
   2590    5    1104    1093    1085    1082  # HC-CT-CT-NT
   2591    6    1104    1093    1085    1094  # HC-CT-CT-HC
   2592    6    1104    1093    1085    1095  # HC-CT-CT-HC
   2593    1    1110    1106    1105    1107  # CT-NT-CT-CT
   2594    1    1110    1106    1105    1108  # CT-NT-CT-CT
   2595    2    1110    1106    1105    1109  # HN-NT-CT-CT
   2596    3    1111    1106    1105    1107  # HC-CT-NT-CT
   2597    3    1111    1106    1105    1108  # HC-CT-NT-CT
   2598    4    1111    1106    1105    1109  # HN-NT-CT-HC
   2599    3    1112    1106    1105    1107  # HC-CT-NT-CT
   2600    3    1112    1106    1105    1108  # HC-CT-NT-CT
   2601    4    1112    1106    1105    1109  # HN-NT-CT-HC
   2602    1    1113    1107    1105    1106  # CT-NT-CT-CT
   2603    1    1113    1107    1105    1108  # CT-NT-CT-CT
   2604    2    1113    1107    1105    1109  # HN-NT-CT-CT
   2605    3    1114    1107    1105    1106  # HC-CT-NT-CT
   2606    3    1114    1107    1105    1108  # HC-CT-NT-CT
   2607    4    1114    1107    1105    1109  # HN-NT-CT-HC
   2608    3    1115    1107    1105    1106  # HC-CT-NT-CT
   2609    3    1115    1107    1105    1108  # HC-CT-NT-CT
   2610    4    1115    1107    1105    1109  # HN-NT-CT-HC
   2611    1    1116    1108    1105    1106  # CT-NT-CT-CT
   2612    1    1116    1108    1105    1107  # CT-NT-CT-CT
   2613    2    1116    1108    1105    1109  # HN-NT-CT-CT
   2614    3    1117    1108    1105    1106  # HC-CT-NT-CT
   2615    3    1117    1108    1105    1107  # HC-CT-NT-CT
   2616    4    1117    1108    1105    1109  # HN-NT-CT-HC
   2617    3    1118    1108    1105    1106  # HC-CT-NT-CT
   2618    3    1118    1108    1105    1107  # HC-CT-NT-CT
   2619    4    1118    1108    1105    1109  # HN-NT-CT-HC
   2620    5    1119    1110    1106    1105  # HC-CT-CT-NT
   2621    6    1119    1110    1106    1111  # HC-CT-CT-HC
   2622    6    1119    1110    1106    1112  # HC-CT-CT-HC
   2623    5    1120    1110    1106    1105  # HC-CT-CT-NT
   2624    6    1120    1110    1106    1111  # HC-CT-CT-HC
   2625    6    1120    1110    1106    1112  # HC-CT-CT-HC
   2626    5    1121    1110    1106    1105  # HC-CT-CT-NT
   2627    6    1121    1110    1106    1111  # HC-CT-CT-HC
   2628    6    1121    1110    1106    1112  # HC-CT-CT-HC
   2629    5    1122    1113    1107    1105  # HC-CT-CT-NT
   2630    6    1122    1113    1107    1114  # HC-CT-CT-HC
   2631    6    1122    1113    1107    1115  # HC-CT-CT-HC
   2632    5    1123    1113    1107    1105  # HC-CT-CT-NT
   2633    6    1123    1113    1107    1114  # HC-CT-CT-HC
   2634    6    1123    1113    1107    1115  # HC-CT-CT-HC
   2635    5    1124    1113    1107    1105  # HC-CT-CT-NT
   2636    6    1124    1113    1107    1114  # HC-CT-CT-HC
   2637    6    1124    1113    1107    1115  # HC-CT-CT-HC
   2638    5    1125    1116    1108    1105  # HC-CT-CT-NT
   2639    6    1125    1116    1108    1117  # HC-CT-CT-HC
   2640    6    1125    1116    1108    1118  # HC-CT-CT-HC
   2641    5    1126    1116    1108    1105  # HC-CT-CT-NT
   2642    6    1126    1116    1108    1117  # HC-CT-CT-HC
   2643    6    1126    1116    1108    1118  # HC-CT-CT-HC
   2644    5    1127    1116    1108    1105  # HC-CT-CT-NT
   2645    6    1127    1116    1108    1117  # HC-CT-CT-HC
   2646    6    1127    1116    1108    1118  # HC-CT-CT-HC
   2647    1    1133    1129    1128    1130  # CT-NT-CT-CT
   2648    1    1133    1129    1128    1131  # CT-NT-CT-CT
   2649    2    1133    1129    1128    1132  # HN-NT-CT-CT
   2650    3    1134    1129    1128    1130  # HC-CT-NT-CT
   2651    3    1134    1129    1128    1131  # HC-CT-NT-CT
   2652    4    1134    1129    1128    1132  # HN-NT-CT-HC
   2653    3    1135    1129    1128    1130  # HC-CT-NT-CT
   2654    3    1135    1129    1128    1131  # HC-CT-NT-CT
   2655    4    1135    1129    1128    1132  # HN-NT-CT-HC
   2656    1    1136    1130    1128    1129  # CT-NT-CT-CT
   2657    1    1136    1130    1128    1131  # CT-NT-CT-CT
   2658    2    1136    1130    1128    1132  # HN-NT-CT-CT
   2659    3    1137    1130    1128    1129  # HC-CT-NT-CT
   2660    3    1137    1130    1128    1131  # HC-CT-NT-CT
   2661    4    1137    1130    1128    1132  # HN-NT-CT-HC
   2662    3    1138    1130    1128    1129  # HC-CT-NT-CT
   2663    3    1138    1130    1128    1131  # HC-CT-NT-CT
   2664    4    1138    1130    1128    1132  # HN-NT-CT-HC
   2665    1    1139    1131    1128    1129  # CT-NT-CT-CT
   2666    1    1139    1131    1128    1130  # CT-NT-CT-CT
   2667    2    1139    1131    1128    1132  # HN-NT-CT-CT
   2668    3    1140    1131    1128    1129  # HC-CT-NT-CT
   2669    3    1140    1131    1128    1130  # HC-CT-NT-CT
   2670    4    1140    1131    1128    1132  # HN-NT-CT-HC
   2671    3    1141    1131    1128    1129  # HC-CT-NT-CT
   2672    3    1141    1131    1128    1130  # HC-CT-NT-CT
   2673    4    1141    1131    1128    1132  # HN-NT-CT-HC
   2674    5    1142    1133    1129    1128  # HC-CT-CT-NT
   2675    6    1142    1133    1129    1134  # HC-CT-CT-HC
   2676    6    1142    1133    1129    1135  # HC-CT-CT-HC
   2677    5    1143    1133    1129    1128  # HC-CT-CT-NT
   2678    6    1143    1133    1129    1134  # HC-CT-CT-HC
   2679    6    1143    1133    1129    1135  # HC-CT-CT-HC
   2680    5    1144    1133    1129    1128  # HC-CT-CT-NT
   2681    6    1144    1133    1129    1134  # HC-CT-CT-HC
   2682    6    1144    1133    1129    1135  # HC-CT-CT-HC
   2683    5    1145    1136    1130    1128  # HC-CT-CT-NT
   2684    6    1145    1136    1130    1137  # HC-CT-CT-HC
   2685    6    1145    1136    1130    1138  # HC-CT-CT-HC
   2686    5    1146    1136    1130    1128  # HC-CT-CT-NT
   2687    6    1146    1136    1130    1137  # HC-CT-CT-HC
   2688    6    1146    1136    1130    1138  # HC-CT-CT-HC
   2689    5    1147    1136    1130    1128  # HC-CT-CT-NT
   2690    6    1147    1136    1130    1137  # HC-CT-CT-HC
   2691    6    1147    1136    1130    1138  # HC-CT-CT-HC
   2692    5    1148    1139    1131    1128  # HC-CT-CT-NT
   2693    6    1148    1139    1131    1140  # HC-CT-CT-HC
   2694    6    1148    1139    1131    1141  # HC-CT-CT-HC
   2695    5    1149    1139    1131    1128  # HC-CT-CT-NT
   2696    6    1149    1139    1131    1140  # HC-CT-CT-HC
   2697    6    1149    1139    1131    1141  # HC-CT-CT-HC
   2698    5    1150    1139    1131    1128  # HC-CT-CT-NT
   2699    6    1150    1139    1131    1140  # HC-CT-CT-HC
   2700    6    1150    1139    1131    1141  # HC-CT-CT-HC
   2701    1    1156    1152    1151    1153  # CT-NT-CT-CT
   2702    1    1156    1152    1151    1154  # CT-NT-CT-CT
   2703    2    1156    1152    1151    1155  # HN-NT-CT-CT
   2704    3    1157    1152    1151    1153  # HC-CT-NT-CT
   2705    3    1157    1152    1151    1154  # HC-CT-NT-CT
   2706    4    1157    1152    1151    1155  # HN-NT-CT-HC
   2707    3    1158    1152    1151    1153  # HC-CT-NT-CT
   2708    3    1158    1152    1151    1154  # HC-CT-NT-CT
   2709    4    1158    1152    1151    1155  # HN-NT-CT-HC
   2710    1    1159    1153    1151    1152  # CT-NT-CT-CT
   2711    1    1159    1153    1151    1154  # CT-NT-CT-CT
   2712    2    1159    1153    1151    1155  # HN-NT-CT-CT
   2713    3    1160    1153    1151    1152  # HC-CT-NT-CT
   2714    3    1160    1153    1151    1154  # HC-CT-NT-CT
   2715    4    1160    1153    1151    1155  # HN-NT-CT-HC
   2716    3    1161    1153    1151    1152  # HC-CT-NT-CT
   2717    3    1161    1153    1151    1154  # HC-CT-NT-CT
   2718    4    1161    1153    1151    1155  # HN-NT-CT-HC
   2719    1    1162    1154    1151    1152  # CT-NT-CT-CT
   2720    1    1162    1154    1151    1153  # CT-NT-CT-CT
   2721    2    1162    1154    1151    1155  # HN-NT-CT-CT
   2722    3    1163    1154    1151    1152  # HC-CT-NT-CT
   2723    3    1163    1154    1151    1153  # HC-CT-NT-CT
   2724    4    1163    1154    1151    1155  # HN-NT-CT-HC
   2725    3    1164    1154    1151    1152  # HC-CT-NT-CT
   2726    3    1164    1154    1151    1153  # HC-CT-NT-CT
   2727    4    1164    1154    1151    1155  # HN-NT-CT-HC
   2728    5    1165    1156    1152    1151  # HC-CT-CT-NT
   2729    6    1165    1156    1152    1157  # HC-CT-CT-HC
   2730    6    1165    1156    1152    1158  # HC-CT-CT-HC
   2731    5    1166    1156    1152    1151  # HC-CT-CT-NT
   2732    6    1166    1156    1152    1157  # HC-CT-CT-HC
   2733    6    1166    1156    1152    1158  # HC-CT-CT-HC
   2734    5    1167    1156    1152    1151  # HC-CT-CT-NT
   2735    6    1167    1156    1152    1157  # HC-CT-CT-HC
   2736    6    1167    1156    1152    1158  # HC-CT-CT-HC
   2737    5    1168    1159    1153    1151  # HC-CT-CT-NT
   2738    6    1168    1159    1153    1160  # HC-CT-CT-HC
   2739    6    1168    1159    1153    1161  # HC-CT-CT-HC
   2740    5    1169    1159    1153    1151  # HC-CT-CT-NT
   2741    6    1169    1159    1153    1160  # HC-CT-CT-HC
   2742    6    1169    1159    1153    1161  # HC-CT-CT-HC
   2743    5    1170    1159    1153    1151  # HC-CT-CT-NT
   2744    6    1170    1159    1153    1160  # HC-CT-CT-HC
   2745    6    1170    1159    1153    1161  # HC-CT-CT-HC
   2746    5    1171    1162    1154    1151  # HC-CT-CT-NT
   2747    6    1171    1162    1154    1163  # HC-CT-CT-HC
   2748    6    1171    1162    1154    1164  # HC-CT-CT-HC
   2749    5    1172    1162    1154    1151  # HC-CT-CT-NT
   2750    6    1172    1162    1154    1163  # HC-CT-CT-HC
   2751    6    1172    1162    1154    1164  # HC-CT-CT-HC
   2752    5    1173    1162    1154    1151  # HC-CT-CT-NT
   2753    6    1173    1162    1154    1163  # HC-CT-CT-HC
   2754    6    1173    1162    1154    1164  # HC-CT-CT-HC
   2755    1    1179    1175    1174    1176  # CT-NT-CT-CT
   2756    1    1179    1175    1174    1177  # CT-NT-CT-CT
   2757    2    1179    1175    1174    1178  # HN-NT-CT-CT
   2758    3    1180    1175    1174    1176  # HC-CT-NT-CT
   2759    3    1180    1175    1174    1177  # HC-CT-NT-CT
   2760    4    1180    1175    1174    1178  # HN-NT-CT-HC
   2761    3    1181    1175    1174    1176  # HC-CT-NT-CT
   2762    3    1181    1175    1174    1177  # HC-CT-NT-CT
   2763    4    1181    1175    1174    1178  # HN-NT-CT-HC
   2764    1    1182    1176    1174    1175  # CT-NT-CT-CT
   2765    1    1182    1176    1174    1177  # CT-NT-CT-CT
   2766    2    1182    1176    1174    1178  # HN-NT-CT-CT
   2767    3    1183    1176    1174    1175  # HC-CT-NT-CT
   2768    3    1183    1176    1174    1177  # HC-CT-NT-CT
   2769    4    1183    1176    1174    1178  # HN-NT-CT-HC
   2770    3    1184    1176    1174    1175  # HC-CT-NT-CT
   2771    3    1184    1176    1174    1177  # HC-CT-NT-CT
   2772    4    1184    1176    1174    1178  # HN-NT-CT-HC
   2773    1    1185    1177    1174    1175  # CT-NT-CT-CT
   2774    1    1185    1177    1174    1176  # CT-NT-CT-CT
   2775    2    1185    1177    1174    1178  # HN-NT-CT-CT
   2776    3    1186    1177    1174    1175  # HC-CT-NT-CT
   2777    3    1186    1177    1174    1176  # HC-CT-NT-CT
   2778    4    1186    1177    1174    1178  # HN-NT-CT-HC
   2779    3    1187    1177    1174    1175  # HC-CT-NT-CT
   2780    3    1187    1177    1174    1176  # HC-CT-NT-CT
   2781    4    1187    1177    1174    1178  # HN-NT-CT-HC
   2782    5    1188    1179    1175    1174  # HC-CT-CT-NT
   2783    6    1188    1179    1175    1180  # HC-CT-CT-HC
   2784    6    1188    1179    1175    1181  # HC-CT-CT-HC
   2785    5    1189    1179    1175    1174  # HC-CT-CT-NT
   2786    6    1189    1179    1175    1180  # HC-CT-CT-HC
   2787    6    1189    1179    1175    1181  # HC-CT-CT-HC
   2788    5    1190    1179    1175    1174  # HC-CT-CT-NT
   2789    6    1190    1179    1175    1180  # HC-CT-CT-HC
   2790    6    1190    1179    1175    1181  # HC-CT-CT-HC
   2791    5    1191    1182    1176    1174  # HC-CT-CT-NT
   2792    6    1191    1182    1176    1183  # HC-CT-CT-HC
   2793    6    1191    1182    1176    1184  # HC-CT-CT-HC
   2794    5    1192    1182    1176    1174  # HC-CT-CT-NT
   2795    6    1192    1182    1176    1183  # HC-CT-CT-HC
   2796    6    1192    1182    1176    1184  # HC-CT-CT-HC
   2797    5    1193    1182    1176    1174  # HC-CT-CT-NT
   2798    6    1193    1182    1176    1183  # HC-CT-CT-HC
   2799    6    1193    1182    1176    1184  # HC-CT-CT-HC
   2800    5    1194    1185    1177    1174  # HC-CT-CT-NT
   2801    6    1194    1185    1177    1186  # HC-CT-CT-HC
   2802    6    1194    1185    1177    1187  # HC-CT-CT-HC
   2803    5    1195    1185    1177    1174  # HC-CT-CT-NT
   2804    6    1195    1185    1177    1186  # HC-CT-CT-HC
   2805    6    1195    1185    1177    1187  # HC-CT-CT-HC
   2806    5    1196    1185    1177    1174  # HC-CT-CT-NT
   2807    6    1196    1185    1177    1186  # HC-CT-CT-HC
   2808    6    1196    1185    1177    1187  # HC-CT-CT-HC
   2809    1    1202    1198    1197    1199  # CT-NT-CT-CT
   2810    1    1202    1198    1197    1200  # CT-NT-CT-CT
   2811    2    1202    1198    1197    1201  # HN-NT-CT-CT
   2812    3    1203    1198    1197    1199  # HC-CT-NT-CT
   2813    3    1203    1198    1197    1200  # HC-CT-NT-CT
   2814    4    1203    1198    1197    1201  # HN-NT-CT-HC
   2815    3    1204    1198    1197    1199  # HC-CT-NT-CT
   2816    3    1204    1198    1197    1200  # HC-CT-NT-CT
   2817    4    1204    1198    1197    1201  # HN-NT-CT-HC
   2818    1    1205    1199    1197    1198  # CT-NT-CT-CT
   2819    1    1205    1199    1197    1200  # CT-NT-CT-CT
   2820    2    1205    1199    1197    1201  # HN-NT-CT-CT
   2821    3    1206    1199    1197    1198  # HC-CT-NT-CT
   2822    3    1206    1199    1197    1200  # HC-CT-NT-CT
   2823    4    1206    1199    1197    1201  # HN-NT-CT-HC
   2824    3    1207    1199    1197    1198  # HC-CT-NT-CT
   2825    3    1207    1199    1197    1200  # HC-CT-NT-CT
   2826    4    1207    1199    1197    1201  # HN-NT-CT-HC
   2827    1    1208    1200    1197    1198  # CT-NT-CT-CT
   2828    1    1208    1200    1197    1199  # CT-NT-CT-CT
   2829    2    1208    1200    1197    1201  # HN-NT-CT-CT
   2830    3    1209    1200    1197    1198  # HC-CT-NT-CT
   2831    3    1209    1200    1197    1199  # HC-CT-NT-CT
   2832    4    1209    1200    1197    1201  # HN-NT-CT-HC
   2833    3    1210    1200    1197    1198  # HC-CT-NT-CT
   2834    3    1210    1200    1197    1199  # HC-CT-NT-CT
   2835    4    1210    1200    1197    1201  # HN-NT-CT-HC
   2836    5    1211    1202    1198    1197  # HC-CT-CT-NT
   2837    6    1211    1202    1198    1203  # HC-CT-CT-HC
   2838    6    1211    1202    1198    1204  # HC-CT-CT-HC
   2839    5    1212    1202    1198    1197  # HC-CT-CT-NT
   2840    6    1212    1202    1198    1203  # HC-CT-CT-HC
   2841    6    1212    1202    1198    1204  # HC-CT-CT-HC
   2842    5    1213    1202    1198    1197  # HC-CT-CT-NT
   2843    6    1213    1202    1198    1203  # HC-CT-CT-HC
   2844    6    1213    1202    1198    1204  # HC-CT-CT-HC
   2845    5    1214    1205    1199    1197  # HC-CT-CT-NT
   2846    6    1214    1205    1199    1206  # HC-CT-CT-HC
   2847    6    1214    1205    1199    1207  # HC-CT-CT-HC
   2848    5    1215    1205    1199    1197  # HC-CT-CT-NT
   2849    6    1215    1205    1199    1206  # HC-CT-CT-HC
   2850    6    1215    1205    1199    1207  # HC-CT-CT-HC
   2851    5    1216    1205    1199    1197  # HC-CT-CT-NT
   2852    6    1216    1205    1199    1206  # HC-CT-CT-HC
   2853    6    1216    1205    1199    1207  # HC-CT-CT-HC
   2854    5    1217    1208    1200    1197  # HC-CT-CT-NT
   2855    6    1217    1208    1200    1209  # HC-CT-CT-HC
   2856    6    1217    1208    1200    1210  # HC-CT-CT-HC
   2857    5    1218    1208    1200    1197  # HC-CT-CT-NT
   2858    6    1218    1208    1200    1209  # HC-CT-CT-HC
   2859    6    1218    1208    1200    1210  # HC-CT-CT-HC
   2860    5    1219    1208    1200    1197  # HC-CT-CT-NT
   2861    6    1219    1208    1200    1209  # HC-CT-CT-HC
   2862    6    1219    1208    1200    1210  # HC-CT-CT-HC
   2863    1    1225    1221    1220    1222  # CT-NT-CT-CT
   2864    1    1225    1221    1220    1223  # CT-NT-CT-CT
   2865    2    1225    1221    1220    1224  # HN-NT-CT-CT
   2866    3    1226    1221    1220    1222  # HC-CT-NT-CT
   2867    3    1226    1221    1220    1223  # HC-CT-NT-CT
   2868    4    1226    1221    1220    1224  # HN-NT-CT-HC
   2869    3    1227    1221    1220    1222  # HC-CT-NT-CT
   2870    3    1227    1221    1220    1223  # HC-CT-NT-CT
   2871    4    1227    1221    1220    1224  # HN-NT-CT-HC
   2872    1    1228    1222    1220    1221  # CT-NT-CT-CT
   2873    1    1228    1222    1220    1223  # CT-NT-CT-CT
   2874    2    1228    1222    1220    1224  # HN-NT-CT-CT
   2875    3    1229    1222    1220    1221  # HC-CT-NT-CT
   2876    3    1229    1222    1220    1223  # HC-CT-NT-CT
   2877    4    1229    1222    1220    1224  # HN-NT-CT-HC
   2878    3    1230    1222    1220    1221  # HC-CT-NT-CT
   2879    3    1230    1222    1220    1223  # HC-CT-NT-CT
   2880    4    1230    1222    1220    1224  # HN-NT-CT-HC
   2881    1    1231    1223    1220    1221  # CT-NT-CT-CT
   2882    1    1231    1223    1220    1222  # CT-NT-CT-CT
   2883    2    1231    1223    1220    1224  # HN-NT-CT-CT
   2884    3    1232    1223    1220    1221  # HC-CT-NT-CT
   2885    3    1232    1223    1220    1222  # HC-CT-NT-CT
   2886    4    1232    1223    1220    1224  # HN-NT-CT-HC
   2887    3    1233    1223    1220    1221  # HC-CT-NT-CT
   2888    3    1233    1223    1220    1222  # HC-CT-NT-CT
   2889    4    1233    1223    1220    1224  # HN-NT-CT-HC
   2890    5    1234    1225    1221    1220  # HC-CT-CT-NT
   2891    6    1234    1225    1221    1226  # HC-CT-CT-HC
   2892    6    1234    1225    1221    1227  # HC-CT-CT-HC
   2893    5    1235    1225    1221    1220  # HC-CT-CT-NT
   2894    6    1235    1225    1221    1226  # HC-CT-CT-HC
   2895    6    1235    1225    1221    1227  # HC-CT-CT-HC
   2896    5    1236    1225    1221    1220  # HC-CT-CT-NT
   2897    6    1236    1225    1221    1226  # HC-CT-CT-HC
   2898    6    1236    1225    1221    1227  # HC-CT-CT-HC
   2899    5    1237    1228    1222    1220  # HC-CT-CT-NT
   2900    6    1237    1228    1222    1229  # HC-CT-CT-HC
   2901    6    1237    1228    1222    1230  # HC-CT-CT-HC
   2902    5    1238    1228    1222    1220  # HC-CT-CT-NT
   2903    6    1238    1228    1222    1229  # HC-CT-CT-HC
   2904    6    1238    1228    1222    1230  # HC-CT-CT-HC
   2905    5    1239    1228    1222    1220  # HC-CT-CT-NT
   2906    6    1239    1228    1222    1229  # HC-CT-CT-HC
   2907    6    1239    1228    1222    1230  # HC-CT-CT-HC
   2908    5    1240    1231    1223    1220  # HC-CT-CT-NT
   2909    6    1240    1231    1223    1232  # HC-CT-CT-HC
   2910    6    1240    1231    1223    1233  # HC-CT-CT-HC
   2911    5    1241    1231    1223    1220  # HC-CT-CT-NT
   2912    6    1241    1231    1223    1232  # HC-CT-CT-HC
   2913    6    1241    1231    1223    1233  # HC-CT-CT-HC
   2914    5    1242    1231    1223    1220  # HC-CT-CT-NT
   2915    6    1242    1231    1223    1232  # HC-CT-CT-HC
   2916    6    1242    1231    1223    1233  # HC-CT-CT-HC
   2917    1    1248    1244    1243    1245  # CT-NT-CT-CT
   2918    1    1248    1244    1243    1246  # CT-NT-CT-CT
   2919    2    1248    1244    1243    1247  # HN-NT-CT-CT
   2920    3    1249    1244    1243    1245  # HC-CT-NT-CT
   2921    3    1249    1244    1243    1246  # HC-CT-NT-CT
   2922    4    1249    1244    1243    1247  # HN-NT-CT-HC
   2923    3    1250    1244    1243    1245  # HC-CT-NT-CT
   2924    3    1250    1244    1243    1246  # HC-CT-NT-CT
   2925    4    1250    1244    1243    1247  # HN-NT-CT-HC
   2926    1    1251    1245    1243    1244  # CT-NT-CT-CT
   2927    1    1251    1245    1243    1246  # CT-NT-CT-CT
   2928    2    1251    1245    1243    1247  # HN-NT-CT-CT
   2929    3    1252    1245    1243    1244  # HC-CT-NT-CT
   2930    3    1252    1245    1243    1246  # HC-CT-NT-CT
   2931    4    1252    1245    1243    1247  # HN-NT-CT-HC
   2932    3    1253    1245    1243    1244  # HC-CT-NT-CT
   2933    3    1253    1245    1243    1246  # HC-CT-NT-CT
   2934    4    1253    1245    1243    1247  # HN-NT-CT-HC
   2935    1    1254    1246    1243    1244  # CT-NT-CT-CT
   2936    1    1254    1246    1243    1245  # CT-NT-CT-CT
   2937    2    1254    1246    1243    1247  # HN-NT-CT-CT
   2938    3    1255    1246    1243    1244  # HC-CT-NT-CT
   2939    3    1255    1246    1243    1245  # HC-CT-NT-CT
   2940    4    1255    1246    1243    1247  # HN-NT-CT-HC
   2941    3    1256    1246    1243    1244  # HC-CT-NT-CT
   2942    3    1256    1246    1243    1245  # HC-CT-NT-CT
   2943    4    1256    1246    1243    1247  # HN-NT-CT-HC
   2944    5    1257    1248    1244    1243  # HC-CT-CT-NT
   2945    6    1257    1248    1244    1249  # HC-CT-CT-HC
   2946    6    1257    1248    1244    1250  # HC-CT-CT-HC
   2947    5    1258    1248    1244    1243  # HC-CT-CT-NT
   2948    6    1258    1248    1244    1249  # HC-CT-CT-HC
   2949    6    1258    1248    1244    1250  # HC-CT-CT-HC
   2950    5    1259    1248    1244    1243  # HC-CT-CT-NT
   2951    6    1259    1248    1244    1249  # HC-CT-CT-HC
   2952    6    1259    1248    1244    1250  # HC-CT-CT-HC
   2953    5    1260    1251    1245    1243  # HC-CT-CT-NT
   2954    6    1260    1251    1245    1252  # HC-CT-CT-HC
   2955    6    1260    1251    1245    1253  # HC-CT-CT-HC
   2956    5    1261    1251    1245    1243  # HC-CT-CT-NT
   2957    6    1261    1251    1245    1252  # HC-CT-CT-HC
   2958    6    1261    1251    1245    1253  # HC-CT-CT-HC
   2959    5    1262    1251    1245    1243  # HC-CT-CT-NT
   2960    6    1262    1251    1245    1252  # HC-CT-CT-HC
   2961    6    1262    1251    1245    1253  # HC-CT-CT-HC
   2962    5    1263    1254    1246    1243  # HC-CT-CT-NT
   2963    6    1263    1254    1246    1255  # HC-CT-CT-HC
   2964    6    1263    1254    1246    1256  # HC-CT-CT-HC
   2965    5    1264    1254    1246    1243  # HC-CT-CT-NT
   2966    6    1264    1254    1246    1255  # HC-CT-CT-HC
   2967    6    1264    1254    1246    1256  # HC-CT-CT-HC
   2968    5    1265    1254    1246    1243  # HC-CT-CT-NT
   2969    6    1265    1254    1246    1255  # HC-CT-CT-HC
   2970    6    1265    1254    1246    1256  # HC-CT-CT-HC
   2971    1    1271    1267    1266    1268  # CT-NT-CT-CT
   2972    1    1271    1267    1266    1269  # CT-NT-CT-CT
   2973    2    1271    1267    1266    1270  # HN-NT-CT-CT
   2974    3    1272    1267    1266    1268  # HC-CT-NT-CT
   2975    3    1272    1267    1266    1269  # HC-CT-NT-CT
   2976    4    1272    1267    1266    1270  # HN-NT-CT-HC
   2977    3    1273    1267    1266    1268  # HC-CT-NT-CT
   2978    3    1273    1267    1266    1269  # HC-CT-NT-CT
   2979    4    1273    1267    1266    1270  # HN-NT-CT-HC
   2980    1    1274    1268    1266    1267  # CT-NT-CT-CT
   2981    1    1274    1268    1266    1269  # CT-NT-CT-CT
   2982    2    1274    1268    1266    1270  # HN-NT-CT-CT
   2983    3    1275    1268    1266    1267  # HC-CT-NT-CT
   2984    3    1275    1268    1266    1269  # HC-CT-NT-CT
   2985    4    1275    1268    1266    1270  # HN-NT-CT-HC
   2986    3    1276    1268    1266    1267  # HC-CT-NT-CT
   2987    3    1276    1268    1266    1269  # HC-CT-NT-CT
   2988    4    1276    1268    1266    1270  # HN-NT-CT-HC
   2989    1    1277    1269    1266    1267  # CT-NT-CT-CT
   2990    1    1277    1269    1266    1268  # CT-NT-CT-CT
   2991    2    1277    1269    1266    1270  # HN-NT-CT-CT
   2992    3    1278    1269    1266    1267  # HC-CT-NT-CT
   2993    3    1278    1269    1266    1268  # HC-CT-NT-CT
   2994    4    1278    1269    1266    1270  # HN-NT-CT-HC
   2995    3    1279    1269    1266    1267  # HC-CT-NT-CT
   2996    3    1279    1269    1266    1268  # HC-CT-NT-CT
   2997    4    1279    1269    1266    1270  # HN-NT-CT-HC
   2998    5    1280    1271    1267    1266  # HC-CT-CT-NT
   2999    6    1280    1271    1267    1272  # HC-CT-CT-HC
   3000    6    1280    1271    1267    1273  # HC-CT-CT-HC
   3001    5    1281    1271    1267    1266  # HC-CT-CT-NT
   3002    6    1281    1271    1267    1272  # HC-CT-CT-HC
   3003    6    1281    1271    1267    1273  # HC-CT-CT-HC
   3004    5    1282    1271    1267    1266  # HC-CT-CT-NT
   3005    6    1282    1271    1267    1272  # HC-CT-CT-HC
   3006    6    1282    1271    1267    1273  # HC-CT-CT-HC
   3007    5    1283    1274    1268    1266  # HC-CT-CT-NT
   3008    6    1283    1274    1268    1275  # HC-CT-CT-HC
   3009    6    1283    1274    1268    1276  # HC-CT-CT-HC
   3010    5    1284    1274    1268    1266  # HC-CT-CT-NT
   3011    6    1284    1274    1268    1275  # HC-CT-CT-HC
   3012    6    1284    1274    1268    1276  # HC-CT-CT-HC
   3013    5    1285    1274    1268    1266  # HC-CT-CT-NT
   3014    6    1285    1274    1268    1275  # HC-CT-CT-HC
   3015    6    1285    1274    1268    1276  # HC-CT-CT-HC
   3016    5    1286    1277    1269    1266  # HC-CT-CT-NT
   3017    6    1286    1277    1269    1278  # HC-CT-CT-HC
   3018    6    1286    1277    1269    1279  # HC-CT-CT-HC
   3019    5    1287    1277    1269    1266  # HC-CT-CT-NT
   3020    6    1287    1277    1269    1278  # HC-CT-CT-HC
   3021    6    1287    1277    1269    1279  # HC-CT-CT-HC
   3022    5    1288    1277    1269    1266  # HC-CT-CT-NT
   3023    6    1288    1277    1269    1278  # HC-CT-CT-HC
   3024    6    1288    1277    1269    1279  # HC-CT-CT-HC
   3025    1    1294    1290    1289    1291  # CT-NT-CT-CT
   3026    1    1294    1290    1289    1292  # CT-NT-CT-CT
   3027    2    1294    1290    1289    1293  # HN-NT-CT-CT
   3028    3    1295    1290    1289    1291  # HC-CT-NT-CT
   3029    3    1295    1290    1289    1292  # HC-CT-NT-CT
   3030    4    1295    1290    1289    1293  # HN-NT-CT-HC
   3031    3    1296    1290    1289    1291  # HC-CT-NT-CT
   3032    3    1296    1290    1289    1292  # HC-CT-NT-CT
   3033    4    1296    1290    1289    1293  # HN-NT-CT-HC
   3034    1    1297    1291    1289    1290  # CT-NT-CT-CT
   3035    1    1297    1291    1289    1292  # CT-NT-CT-CT
   3036    2    1297    1291    1289    1293  # HN-NT-CT-CT
   3037    3    1298    1291    1289    1290  # HC-CT-NT-CT
   3038    3    1298    1291    1289    1292  # HC-CT-NT-CT
   3039    4    1298    1291    1289    1293  # HN-NT-CT-HC
   3040    3    1299    1291    1289    1290  # HC-CT-NT-CT
   3041    3    1299    1291    1289    1292  # HC-CT-NT-CT
   3042    4    1299    1291    1289    1293  # HN-NT-CT-HC
   3043    1    1300    1292    1289    1290  # CT-NT-CT-CT
   3044    1    1300    1292    1289    1291  # CT-NT-CT-CT
   3045    2    1300    1292    1289    1293  # HN-NT-CT-CT
   3046    3    1301    1292    1289    1290  # HC-CT-NT-CT
   3047    3    1301    1292    1289    1291  # HC-CT-NT-CT
   3048    4    1301    1292    1289    1293  # HN-NT-CT-HC
   3049    3    1302    1292    1289    1290  # HC-CT-NT-CT
   3050    3    1302    1292    1289    1291  # HC-CT-NT-CT
   3051    4    1302    1292    1289    1293  # HN-NT-CT-HC
   3052    5    1303    1294    1290    1289  # HC-CT-CT-NT
   3053    6    1303    1294    1290    1295  # HC-CT-CT-HC
   3054    6    1303    1294    1290    1296  # HC-CT-CT-HC
   3055    5    1304    1294    1290    1289  # HC-CT-CT-NT
   3056    6    1304    1294    1290    1295  # HC-CT-CT-HC
   3057    6    1304    1294    1290    1296  # HC-CT-CT-HC
   3058    5    1305    1294    1290    1289  # HC-CT-CT-NT
   3059    6    1305    1294    1290    1295  # HC-CT-CT-HC
   3060    6    1305    1294    1290    1296  # HC-CT-CT-HC
   3061    5    1306    1297    1291    1289  # HC-CT-CT-NT
   3062    6    1306    1297    1291    1298  # HC-CT-CT-HC
   3063    6    1306    1297    1291    1299  # HC-CT-CT-HC
   3064    5    1307    1297    1291    1289  # HC-CT-CT-NT
   3065    6    1307    1297    1291    1298  # HC-CT-CT-HC
   3066    6    1307    1297    1291    1299  # HC-CT-CT-HC
   3067    5    1308    1297    1291    1289  # HC-CT-CT-NT
   3068    6    1308    1297    1291    1298  # HC-CT-CT-HC
   3069    6    1308    1297    1291    1299  # HC-CT-CT-HC
   3070    5    1309    1300    1292    1289  # HC-CT-CT-NT
   3071    6    1309    1300    1292    1301  # HC-CT-CT-HC
   3072    6    1309    1300    1292    1302  # HC-CT-CT-HC
   3073    5    1310    1300    1292    1289  # HC-CT-CT-NT
   3074    6    1310    1300    1292    1301  # HC-CT-CT-HC
   3075    6    1310    1300    1292    1302  # HC-CT-CT-HC
   3076    5    1311    1300    1292    1289  # HC-CT-CT-NT
   3077    6    1311    1300    1292    1301  # HC-CT-CT-HC
   3078    6    1311    1300    1292    1302  # HC-CT-CT-HC
   3079    1    1317    1313    1312    1314  # CT-NT-CT-CT
   3080    1    1317    1313    1312    1315  # CT-NT-CT-CT
   3081    2    1317    1313    1312    1316  # HN-NT-CT-CT
   3082    3    1318    1313    1312    1314  # HC-CT-NT-CT
   3083    3    1318    1313    1312    1315  # HC-CT-NT-CT
   3084    4    1318    1313    1312    1316  # HN-NT-CT-HC
   3085    3    1319    1313    1312    1314  # HC-CT-NT-CT
   3086    3    1319    1313    1312    1315  # HC-CT-NT-CT
   3087    4    1319    1313    1312    1316  # HN-NT-CT-HC
   3088    1    1320    1314    1312    1313  # CT-NT-CT-CT
   3089    1    1320    1314    1312    1315  # CT-NT-CT-CT
   3090    2    1320    1314    1312    1316  # HN-NT-CT-CT
   3091    3    1321    1314    1312    1313  # HC-CT-NT-CT
   3092    3    1321    1314    1312    1315  # HC-CT-NT-CT
   3093    4    1321    1314    1312    1316  # HN-NT-CT-HC
   3094    3    1322    1314    1312    1313  # HC-CT-NT-CT
   3095    3    1322    1314    1312    1315  # HC-CT-NT-CT
   3096    4    1322    1314    1312    1316  # HN-NT-CT-HC
   3097    1    1323    1315    1312    1313  # CT-NT-CT-CT
   3098    1    1323    1315    1312    1314  # CT-NT-CT-CT
   3099    2    1323    1315    1312    1316  # HN-NT-CT-CT
   3100    3    1324    1315    1312    1313  # HC-CT-NT-CT
   3101    3    1324    1315    1312    1314  # HC-CT-NT-CT
   3102    4    1324    1315    1312    1316  # HN-NT-CT-HC
   3103    3    1325    1315    1312    1313  # HC-CT-NT-CT
   3104    3    1325    1315    1312    1314  # HC-CT-NT-CT
   3105    4    1325    1315    1312    1316  # HN-NT-CT-HC
   3106    5    1326    1317    1313    1312  # HC-CT-CT-NT
   3107    6    1326    1317    1313    1318  # HC-CT-CT-HC
   3108    6    1326    1317    1313    1319  # HC-CT-CT-HC
   3109    5    1327    1317    1313    1312  # HC-CT-CT-NT
   3110    6    1327    1317    1313    1318  # HC-CT-CT-HC
   3111    6    1327    1317    1313    1319  # HC-CT-CT-HC
   3112    5    1328    1317    1313    1312  # HC-CT-CT-NT
   3113    6    1328    1317    1313    1318  # HC-CT-CT-HC
   3114    6    1328    1317    1313    1319  # HC-CT-CT-HC
   3115    5    1329    1320    1314    1312  # HC-CT-CT-NT
   3116    6    1329    1320    1314    1321  # HC-CT-CT-HC
   3117    6    1329    1320    1314    1322  # HC-CT-CT-HC
   3118    5    1330    1320    1314    1312  # HC-CT-CT-NT
   3119    6    1330    1320    1314    1321  # HC-CT-CT-HC
   3120    6    1330    1320    1314    1322  # HC-CT-CT-HC
   3121    5    1331    1320    1314    1312  # HC-CT-CT-NT
   3122    6    1331    1320    1314    1321  # HC-CT-CT-HC
   3123    6    1331    1320    1314    1322  # HC-CT-CT-HC
   3124    5    1332    1323    1315    1312  # HC-CT-CT-NT
   3125    6    1332    1323    1315    1324  # HC-CT-CT-HC
   3126    6    1332    1323    1315    1325  # HC-CT-CT-HC
   3127    5    1333    1323    1315    1312  # HC-CT-CT-NT
   3128    6    1333    1323    1315    1324  # HC-CT-CT-HC
   3129    6    1333    1323    1315    1325  # HC-CT-CT-HC
   3130    5    1334    1323    1315    1312  # HC-CT-CT-NT
   3131    6    1334    1323    1315    1324  # HC-CT-CT-HC
   3132    6    1334    1323    1315    1325  # HC-CT-CT-HC
   3133    1    1340    1336    1335    1337  # CT-NT-CT-CT
   3134    1    1340    1336    1335    1338  # CT-NT-CT-CT
   3135    2    1340    1336    1335    1339  # HN-NT-CT-CT
   3136    3    1341    1336    1335    1337  # HC-CT-NT-CT
   3137    3    1341    1336    1335    1338  # HC-CT-NT-CT
   3138    4    1341    1336    1335    1339  # HN-NT-CT-HC
   3139    3    1342    1336    1335    1337  # HC-CT-NT-CT
   3140    3    1342    1336    1335    1338  # HC-CT-NT-CT
   3141    4    1342    1336    1335    1339  # HN-NT-CT-HC
   3142    1    1343    1337    1335    1336  # CT-NT-CT-CT
   3143    1    1343    1337    1335    1338  # CT-NT-CT-CT
   3144    2    1343    1337    1335    1339  # HN-NT-CT-CT
   3145    3    1344    1337    1335    1336  # HC-CT-NT-CT
   3146    3    1344    1337    1335    1338  # HC-CT-NT-CT
   3147    4    1344    1337    1335    1339  # HN-NT-CT-HC
   3148    3    1345    1337    1335    1336  # HC-CT-NT-CT
   3149    3    1345    1337    1335    1338  # HC-CT-NT-CT
   3150    4    1345    1337    1335    1339  # HN-NT-CT-HC
   3151    1    1346    1338    1335    1336  # CT-NT-CT-CT
   3152    1    1346    1338    1335    1337  # CT-NT-CT-CT
   3153    2    1346    1338    1335    1339  # HN-NT-CT-CT
   3154    3    1347    1338    1335    1336  # HC-CT-NT-CT
   3155    3    1347    1338    1335    1337  # HC-CT-NT-CT
   3156    4    1347    1338    1335    1339  # HN-NT-CT-HC
   3157    3    1348    1338    1335    1336  # HC-CT-NT-CT
   3158    3    1348    1338    1335    1337  # HC-CT-NT-CT
   3159    4    1348    1338    1335    1339  # HN-NT-CT-HC
   3160    5    1349    1340    1336    1335  # HC-CT-CT-NT
   3161    6    1349    1340    1336    1341  # HC-CT-CT-HC
   3162    6    1349    1340    1336    1342  # HC-CT-CT-HC
   3163    5    1350    1340    1336    1335  # HC-CT-CT-NT
   3164    6    1350    1340    1336    1341  # HC-CT-CT-HC
   3165    6    1350    1340    1336    1342  # HC-CT-CT-HC
   3166    5    1351    1340    1336    1335  # HC-CT-CT-NT
   3167    6    1351    1340    1336    1341  # HC-CT-CT-HC
   3168    6    1351    1340    1336    1342  # HC-CT-CT-HC
   3169    5    1352    1343    1337    1335  # HC-CT-CT-NT
   3170    6    1352    1343    1337    1344  # HC-CT-CT-HC
   3171    6    1352    1343    1337    1345  # HC-CT-CT-HC
   3172    5    1353    1343    1337    1335  # HC-CT-CT-NT
   3173    6    1353    1343    1337    1344  # HC-CT-CT-HC
   3174    6    1353    1343    1337    1345  # HC-CT-CT-HC
   3175    5    1354    1343    1337    1335  # HC-CT-CT-NT
   3176    6    1354    1343    1337    1344  # HC-CT-CT-HC
   3177    6    1354    1343    1337    1345  # HC-CT-CT-HC
   3178    5    1355    1346    1338    1335  # HC-CT-CT-NT
   3179    6    1355    1346    1338    1347  # HC-CT-CT-HC
   3180    6    1355    1346    1338    1348  # HC-CT-CT-HC
   3181    5    1356    1346    1338    1335  # HC-CT-CT-NT
   3182    6    1356    1346    1338    1347  # HC-CT-CT-HC
   3183    6    1356    1346    1338    1348  # HC-CT-CT-HC
   3184    5    1357    1346    1338    1335  # HC-CT-CT-NT
   3185    6    1357    1346    1338    1347  # HC-CT-CT-HC
   3186    6    1357    1346    1338    1348  # HC-CT-CT-HC
   3187    1    1363    1359    1358    1360  # CT-NT-CT-CT
   3188    1    1363    1359    1358    1361  # CT-NT-CT-CT
   3189    2    1363    1359    1358    1362  # HN-NT-CT-CT
   3190    3    1364    1359    1358    1360  # HC-CT-NT-CT
   3191    3    1364    1359    1358    1361  # HC-CT-NT-CT
   3192    4    1364    1359    1358    1362  # HN-NT-CT-HC
   3193    3    1365    1359    1358    1360  # HC-CT-NT-CT
   3194    3    1365    1359    1358    1361  # HC-CT-NT-CT
   3195    4    1365    1359    1358    1362  # HN-NT-CT-HC
   3196    1    1366    1360    1358    1359  # CT-NT-CT-CT
   3197    1    1366    1360    1358    1361  # CT-NT-CT-CT
   3198    2    1366    1360    1358    1362  # HN-NT-CT-CT
   3199    3    1367    1360    1358    1359  # HC-CT-NT-CT
   3200    3    1367    1360    1358    1361  # HC-CT-NT-CT
   3201    4    1367    1360    1358    1362  # HN-NT-CT-HC
   3202    3    1368    1360    1358    1359  # HC-CT-NT-CT
   3203    3    1368    1360    1358    1361  # HC-CT-NT-CT
   3204    4    1368    1360    1358    1362  # HN-NT-CT-HC
   3205    1    1369    1361    1358    1359  # CT-NT-CT-CT
   3206    1    1369    1361    1358    1360  # CT-NT-CT-CT
   3207    2    1369    1361    1358    1362  # HN-NT-CT-CT
   3208    3    1370    1361    1358    1359  # HC-CT-NT-CT
   3209    3    1370    1361    1358    1360  # HC-CT-NT-CT
   3210    4    1370    1361    1358    1362  # HN-NT-CT-HC
   3211    3    1371    1361    1358    1359  # HC-CT-NT-CT
   3212    3    1371    1361    1358    1360  # HC-CT-NT-CT
   3213    4    1371    1361    1358    1362  # HN-NT-CT-HC
   3214    5    1372    1363    1359    1358  # HC-CT-CT-NT
   3215    6    1372    1363    1359    1364  # HC-CT-CT-HC
   3216    6    1372    1363    1359    1365  # HC-CT-CT-HC
   3217    5    1373    1363    1359    1358  # HC-CT-CT-NT
   3218    6    1373    1363    1359    1364  # HC-CT-CT-HC
   3219    6    1373    1363    1359    1365  # HC-CT-CT-HC
   3220    5    1374    1363    1359    1358  # HC-CT-CT-NT
   3221    6    1374    1363    1359    1364  # HC-CT-CT-HC
   3222    6    1374    1363    1359    1365  # HC-CT-CT-HC
   3223    5    1375    1366    1360    1358  # HC-CT-CT-NT
   3224    6    1375    1366    1360    1367  # HC-CT-CT-HC
   3225    6    1375    1366    1360    1368  # HC-CT-CT-HC
   3226    5    1376    1366    1360    1358  # HC-CT-CT-NT
   3227    6    1376    1366    1360    1367  # HC-CT-CT-HC
   3228    6    1376    1366    1360    1368  # HC-CT-CT-HC
   3229    5    1377    1366    1360    1358  # HC-CT-CT-NT
   3230    6    1377    1366    1360    1367  # HC-CT-CT-HC
   3231    6    1377    1366    1360    1368  # HC-CT-CT-HC
   3232    5    1378    1369    1361    1358  # HC-CT-CT-NT
   3233    6    1378    1369    1361    1370  # HC-CT-CT-HC
   3234    6    1378    1369    1361    1371  # HC-CT-CT-HC
   3235    5    1379    1369    1361    1358  # HC-CT-CT-NT
   3236    6    1379    1369    1361    1370  # HC-CT-CT-HC
   3237    6    1379    1369    1361    1371  # HC-CT-CT-HC
   3238    5    1380    1369    1361    1358  # HC-CT-CT-NT
   3239    6    1380    1369    1361    1370  # HC-CT-CT-HC
   3240    6    1380    1369    1361    1371  # HC-CT-CT-HC
   3241    1    1386    1382    1381    1383  # CT-NT-CT-CT
   3242    1    1386    1382    1381    1384  # CT-NT-CT-CT
   3243    2    1386    1382    1381    1385  # HN-NT-CT-CT
   3244    3    1387    1382    1381    1383  # HC-CT-NT-CT
   3245    3    1387    1382    1381    1384  # HC-CT-NT-CT
   3246    4    1387    1382    1381    1385  # HN-NT-CT-HC
   3247    3    1388    1382    1381    1383  # HC-CT-NT-CT
   3248    3    1388    1382    1381    1384  # HC-CT-NT-CT
   3249    4    1388    1382    1381    1385  # HN-NT-CT-HC
   3250    1    1389    1383    1381    1382  # CT-NT-CT-CT
   3251    1    1389    1383    1381    1384  # CT-NT-CT-CT
   3252    2    1389    1383    1381    1385  # HN-NT-CT-CT
   3253    3    1390    1383    1381    1382  # HC-CT-NT-CT
   3254    3    1390    1383    1381    1384  # HC-CT-NT-CT
   3255    4    1390    1383    1381    1385  # HN-NT-CT-HC
   3256    3    1391    1383    1381    1382  # HC-CT-NT-CT
   3257    3    1391    1383    1381    1384  # HC-CT-NT-CT
   3258    4    1391    1383    1381    1385  # HN-NT-CT-HC
   3259    1    1392    1384    1381    1382  # CT-NT-CT-CT
   3260    1    1392    1384    1381    1383  # CT-NT-CT-CT
   3261    2    1392    1384    1381    1385  # HN-NT-CT-CT
   3262    3    1393    1384    1381    1382  # HC-CT-NT-CT
   3263    3    1393    1384    1381    1383  # HC-CT-NT-CT
   3264    4    1393    1384    1381    1385  # HN-NT-CT-HC
   3265    3    1394    1384    1381    1382  # HC-CT-NT-CT
   3266    3    1394    1384    1381    1383  # HC-CT-NT-CT
   3267    4    1394    1384    1381    1385  # HN-NT-CT-HC
   3268    5    1395    1386    1382    1381  # HC-CT-CT-NT
   3269    6    1395    1386    1382    1387  # HC-CT-CT-HC
   3270    6    1395    1386    1382    1388  # HC-CT-CT-HC
   3271    5    1396    1386    1382    1381  # HC-CT-CT-NT
   3272    6    1396    1386    1382    1387  # HC-CT-CT-HC
   3273    6    1396    1386    1382    1388  # HC-CT-CT-HC
   3274    5    1397    1386    1382    1381  # HC-CT-CT-NT
   3275    6    1397    1386    1382    1387  # HC-CT-CT-HC
   3276    6    1397    1386    1382    1388  # HC-CT-CT-HC
   3277    5    1398    1389    1383    1381  # HC-CT-CT-NT
   3278    6    1398    1389    1383    1390  # HC-CT-CT-HC
   3279    6    1398    1389    1383    1391  # HC-CT-CT-HC
   3280    5    1399    1389    1383    1381  # HC-CT-CT-NT
   3281    6    1399    1389    1383    1390  # HC-CT-CT-HC
   3282    6    1399    1389    1383    1391  # HC-CT-CT-HC
   3283    5    1400    1389    1383    1381  # HC-CT-CT-NT
   3284    6    1400    1389    1383    1390  # HC-CT-CT-HC
   3285    6    1400    1389    1383    1391  # HC-CT-CT-HC
   3286    5    1401    1392    1384    1381  # HC-CT-CT-NT
   3287    6    1401    1392    1384    1393  # HC-CT-CT-HC
   3288    6    1401    1392    1384    1394  # HC-CT-CT-HC
   3289    5    1402    1392    1384    1381  # HC-CT-CT-NT
   3290    6    1402    1392    1384    1393  # HC-CT-CT-HC
   3291    6    1402    1392    1384    1394  # HC-CT-CT-HC
   3292    5    1403    1392    1384    1381  # HC-CT-CT-NT
   3293    6    1403    1392    1384    1393  # HC-CT-CT-HC
   3294    6    1403    1392    1384    1394  # HC-CT-CT-HC
   3295    1    1409    1405    1404    1406  # CT-NT-CT-CT
   3296    1    1409    1405    1404    1407  # CT-NT-CT-CT
   3297    2    1409    1405    1404    1408  # HN-NT-CT-CT
   3298    3    1410    1405    1404    1406  # HC-CT-NT-CT
   3299    3    1410    1405    1404    1407  # HC-CT-NT-CT
   3300    4    1410    1405    1404    1408  # HN-NT-CT-HC
   3301    3    1411    1405    1404    1406  # HC-CT-NT-CT
   3302    3    1411    1405    1404    1407  # HC-CT-NT-CT
   3303    4    1411    1405    1404    1408  # HN-NT-CT-HC
   3304    1    1412    1406    1404    1405  # CT-NT-CT-CT
   3305    1    1412    1406    1404    1407  # CT-NT-CT-CT
   3306    2    1412    1406    1404    1408  # HN-NT-CT-CT
   3307    3    1413    1406    1404    1405  # HC-CT-NT-CT
   3308    3    1413    1406    1404    1407  # HC-CT-NT-CT
   3309    4    1413    1406    1404    1408  # HN-NT-CT-HC
   3310    3    1414    1406    1404    1405  # HC-CT-NT-CT
   3311    3    1414    1406    1404    1407  # HC-CT-NT-CT
   3312    4    1414    1406    1404    1408  # HN-NT-CT-HC
   3313    1    1415    1407    1404    1405  # CT-NT-CT-CT
   3314    1    1415    1407    1404    1406  # CT-NT-CT-CT
   3315    2    1415    1407    1404    1408  # HN-NT-CT-CT
   3316    3    1416    1407    1404    1405  # HC-CT-NT-CT
   3317    3    1416    1407    1404    1406  # HC-CT-NT-CT
   3318    4    1416    1407    1404    1408  # HN-NT-CT-HC
   3319    3    1417    1407    1404    1405  # HC-CT-NT-CT
   3320    3    1417    1407    1404    1406  # HC-CT-NT-CT
   3321    4    1417    1407    1404    1408  # HN-NT-CT-HC
   3322    5    1418    1409    1405    1404  # HC-CT-CT-NT
   3323    6    1418    1409    1405    1410  # HC-CT-CT-HC
   3324    6    1418    1409    1405    1411  # HC-CT-CT-HC
   3325    5    1419    1409    1405    1404  # HC-CT-CT-NT
   3326    6    1419    1409    1405    1410  # HC-CT-CT-HC
   3327    6    1419    1409    1405    1411  # HC-CT-CT-HC
   3328    5    1420    1409    1405    1404  # HC-CT-CT-NT
   3329    6    1420    1409    1405    1410  # HC-CT-CT-HC
   3330    6    1420    1409    1405    1411  # HC-CT-CT-HC
   3331    5    1421    1412    1406    1404  # HC-CT-CT-NT
   3332    6    1421    1412    1406    1413  # HC-CT-CT-HC
   3333    6    1421    1412    1406    1414  # HC-CT-CT-HC
   3334    5    1422    1412    1406    1404  # HC-CT-CT-NT
   3335    6    1422    1412    1406    1413  # HC-CT-CT-HC
   3336    6    1422    1412    1406    1414  # HC-CT-CT-HC
   3337    5    1423    1412    1406    1404  # HC-CT-CT-NT
   3338    6    1423    1412    1406    1413  # HC-CT-CT-HC
   3339    6    1423    1412    1406    1414  # HC-CT-CT-HC
   3340    5    1424    1415    1407    1404  # HC-CT-CT-NT
   3341    6    1424    1415    1407    1416  # HC-CT-CT-HC
   3342    6    1424    1415    1407    1417  # HC-CT-CT-HC
   3343    5    1425    1415    1407    1404  # HC-CT-CT-NT
   3344    6    1425    1415    1407    1416  # HC-CT-CT-HC
   3345    6    1425    1415    1407    1417  # HC-CT-CT-HC
   3346    5    1426    1415    1407    1404  # HC-CT-CT-NT
   3347    6    1426    1415    1407    1416  # HC-CT-CT-HC
   3348    6    1426    1415    1407    1417  # HC-CT-CT-HC
   3349    1    1432    1428    1427    1429  # CT-NT-CT-CT
   3350    1    1432    1428    1427    1430  # CT-NT-CT-CT
   3351    2    1432    1428    1427    1431  # HN-NT-CT-CT
   3352    3    1433    1428    1427    1429  # HC-CT-NT-CT
   3353    3    1433    1428    1427    1430  # HC-CT-NT-CT
   3354    4    1433    1428    1427    1431  # HN-NT-CT-HC
   3355    3    1434    1428    1427    1429  # HC-CT-NT-CT
   3356    3    1434    1428    1427    1430  # HC-CT-NT-CT
   3357    4    1434    1428    1427    1431  # HN-NT-CT-HC
   3358    1    1435    1429    1427    1428  # CT-NT-CT-CT
   3359    1    1435    1429    1427    1430  # CT-NT-CT-CT
   3360    2    1435    1429    1427    1431  # HN-NT-CT-CT
   3361    3    1436    1429    1427    1428  # HC-CT-NT-CT
   3362    3    1436    1429    1427    1430  # HC-CT-NT-CT
   3363    4    1436    1429    1427    1431  # HN-NT-CT-HC
   3364    3    1437    1429    1427    1428  # HC-CT-NT-CT
   3365    3    1437    1429    1427    1430  # HC-CT-NT-CT
   3366    4    1437    1429    1427    1431  # HN-NT-CT-HC
   3367    1    1438    1430    1427    1428  # CT-NT-CT-CT
   3368    1    1438    1430    1427    1429  # CT-NT-CT-CT
   3369    2    1438    1430    1427    1431  # HN-NT-CT-CT
   3370    3    1439    1430    1427    1428  # HC-CT-NT-CT
   3371    3    1439    1430    1427    1429  # HC-CT-NT-CT
   3372    4    1439    1430    1427    1431  # HN-NT-CT-HC
   3373    3    1440    1430    1427    1428  # HC-CT-NT-CT
   3374    3    1440    1430    1427    1429  # HC-CT-NT-CT
   3375    4    1440    1430    1427    1431  # HN-NT-CT-HC
   3376    5    1441    1432    1428    1427  # HC-CT-CT-NT
   3377    6    1441    1432    1428    1433  # HC-CT-CT-HC
   3378    6    1441    1432    1428    1434  # HC-CT-CT-HC
   3379    5    1442    1432    1428    1427  # HC-CT-CT-NT
   3380    6    1442    1432    1428    1433  # HC-CT-CT-HC
   3381    6    1442    1432    1428    1434  # HC-CT-CT-HC
   3382    5    1443    1432    1428    1427  # HC-CT-CT-NT
   3383    6    1443    1432    1428    1433  # HC-CT-CT-HC
   3384    6    1443    1432    1428    1434  # HC-CT-CT-HC
   3385    5    1444    1435    1429    1427  # HC-CT-CT-NT
   3386    6    1444    1435    1429    1436  # HC-CT-CT-HC
   3387    6    1444    1435    1429    1437  # HC-CT-CT-HC
   3388    5    1445    1435    1429    1427  # HC-CT-CT-NT
   3389    6    1445    1435    1429    1436  # HC-CT-CT-HC
   3390    6    1445    1435    1429    1437  # HC-CT-CT-HC
   3391    5    1446    1435    1429    1427  # HC-CT-CT-NT
   3392    6    1446    1435    1429    1436  # HC-CT-CT-HC
   3393    6    1446    1435    1429    1437  # HC-CT-CT-HC
   3394    5    1447    1438    1430    1427  # HC-CT-CT-NT
   3395    6    1447    1438    1430    1439  # HC-CT-CT-HC
   3396    6    1447    1438    1430    1440  # HC-CT-CT-HC
   3397    5    1448    1438    1430    1427  # HC-CT-CT-NT
   3398    6    1448    1438    1430    1439  # HC-CT-CT-HC
   3399    6    1448    1438    1430    1440  # HC-CT-CT-HC
   3400    5    1449    1438    1430    1427  # HC-CT-CT-NT
   3401    6    1449    1438    1430    1439  # HC-CT-CT-HC
   3402    6    1449    1438    1430    1440  # HC-CT-CT-HC
   3403    1    1455    1451    1450    1452  # CT-NT-CT-CT
   3404    1    1455    1451    1450    1453  # CT-NT-CT-CT
   3405    2    1455    1451    1450    1454  # HN-NT-CT-CT
   3406    3    1456    1451    1450    1452  # HC-CT-NT-CT
   3407    3    1456    1451    1450    1453  # HC-CT-NT-CT
   3408    4    1456    1451    1450    1454  # HN-NT-CT-HC
   3409    3    1457    1451    1450    1452  # HC-CT-NT-CT
   3410    3    1457    1451    1450    1453  # HC-CT-NT-CT
   3411    4    1457    1451    1450    1454  # HN-NT-CT-HC
   3412    1    1458    1452    1450    1451  # CT-NT-CT-CT
   3413    1    1458    1452    1450    1453  # CT-NT-CT-CT
   3414    2    1458    1452    1450    1454  # HN-NT-CT-CT
   3415    3    1459    1452    1450    1451  # HC-CT-NT-CT
   3416    3    1459    1452    1450    1453  # HC-CT-NT-CT
   3417    4    1459    1452    1450    1454  # HN-NT-CT-HC
   3418    3    1460    1452    1450    1451  # HC-CT-NT-CT
   3419    3    1460    1452    1450    1453  # HC-CT-NT-CT
   3420    4    1460    1452    1450    1454  # HN-NT-CT-HC
   3421    1    1461    1453    1450    1451  # CT-NT-CT-CT
   3422    1    1461    1453    1450    1452  # CT-NT-CT-CT
   3423    2    1461    1453    1450    1454  # HN-NT-CT-CT
   3424    3    1462    1453    1450    1451  # HC-CT-NT-CT
   3425    3    1462    1453    1450    1452  # HC-CT-NT-CT
   3426    4    1462    1453    1450    1454  # HN-NT-CT-HC
   3427    3    1463    1453    1450    1451  # HC-CT-NT-CT
   3428    3    1463    1453    1450    1452  # HC-CT-NT-CT
   3429    4    1463    1453    1450    1454  # HN-NT-CT-HC
   3430    5    1464    1455    1451    1450  # HC-CT-CT-NT
   3431    6    1464    1455    1451    1456  # HC-CT-CT-HC
   3432    6    1464    1455    1451    1457  # HC-CT-CT-HC
   3433    5    1465    1455    1451    1450  # HC-CT-CT-NT
   3434    6    1465    1455    1451    1456  # HC-CT-CT-HC
   3435    6    1465    1455    1451    1457  # HC-CT-CT-HC
   3436    5    1466    1455    1451    1450  # HC-CT-CT-NT
   3437    6    1466    1455    1451    1456  # HC-CT-CT-HC
   3438    6    1466    1455    1451    1457  # HC-CT-CT-HC
   3439    5    1467    1458    1452    1450  # HC-CT-CT-NT
   3440    6    1467    1458    1452    1459  # HC-CT-CT-HC
   3441    6    1467    1458    1452    1460  # HC-CT-CT-HC
   3442    5    1468    1458    1452    1450  # HC-CT-CT-NT
   3443    6    1468    1458    1452    1459  # HC-CT-CT-HC
   3444    6    1468    1458    1452    1460  # HC-CT-CT-HC
   3445    5    1469    1458    1452    1450  # HC-CT-CT-NT
   3446    6    1469    1458    1452    1459  # HC-CT-CT-HC
   3447    6    1469    1458    1452    1460  # HC-CT-CT-HC
   3448    5    1470    1461    1453    1450  # HC-CT-CT-NT
   3449    6    1470    1461    1453    1462  # HC-CT-CT-HC
   3450    6    1470    1461    1453    1463  # HC-CT-CT-HC
   3451    5    1471    1461    1453    1450  # HC-CT-CT-NT
   3452    6    1471    1461    1453    1462  # HC-CT-CT-HC
   3453    6    1471    1461    1453    1463  # HC-CT-CT-HC
   3454    5    1472    1461    1453    1450  # HC-CT-CT-NT
   3455    6    1472    1461    1453    1462  # HC-CT-CT-HC
   3456    6    1472    1461    1453    1463  # HC-CT-CT-HC
   3457    1    1478    1474    1473    1475  # CT-NT-CT-CT
   3458    1    1478    1474    1473    1476  # CT-NT-CT-CT
   3459    2    1478    1474    1473    1477  # HN-NT-CT-CT
   3460    3    1479    1474    1473    1475  # HC-CT-NT-CT
   3461    3    1479    1474    1473    1476  # HC-CT-NT-CT
   3462    4    1479    1474    1473    1477  # HN-NT-CT-HC
   3463    3    1480    1474    1473    1475  # HC-CT-NT-CT
   3464    3    1480    1474    1473    1476  # HC-CT-NT-CT
   3465    4    1480    1474    1473    1477  # HN-NT-CT-HC
   3466    1    1481    1475    1473    1474  # CT-NT-CT-CT
   3467    1    1481    1475    1473    1476  # CT-NT-CT-CT
   3468    2    1481    1475    1473    1477  # HN-NT-CT-CT
   3469    3    1482    1475    1473    1474  # HC-CT-NT-CT
   3470    3    1482    1475    1473    1476  # HC-CT-NT-CT
   3471    4    1482    1475    1473    1477  # HN-NT-CT-HC
   3472    3    1483    1475    1473    1474  # HC-CT-NT-CT
   3473    3    1483    1475    1473    1476  # HC-CT-NT-CT
   3474    4    1483    1475    1473    1477  # HN-NT-CT-HC
   3475    1    1484    1476    1473    1474  # CT-NT-CT-CT
   3476    1    1484    1476    1473    1475  # CT-NT-CT-CT
   3477    2    1484    1476    1473    1477  # HN-NT-CT-CT
   3478    3    1485    1476    1473    1474  # HC-CT-NT-CT
   3479    3    1485    1476    1473    1475  # HC-CT-NT-CT
   3480    4    1485    1476    1473    1477  # HN-NT-CT-HC
   3481    3    1486    1476    1473    1474  # HC-CT-NT-CT
   3482    3    1486    1476    1473    1475  # HC-CT-NT-CT
   3483    4    1486    1476    1473    1477  # HN-NT-CT-HC
   3484    5    1487    1478    1474    1473  # HC-CT-CT-NT
   3485    6    1487    1478    1474    1479  # HC-CT-CT-HC
   3486    6    1487    1478    1474    1480  # HC-CT-CT-HC
   3487    5    1488    1478    1474    1473  # HC-CT-CT-NT
   3488    6    1488    1478    1474    1479  # HC-CT-CT-HC
   3489    6    1488    1478    1474    1480  # HC-CT-CT-HC
   3490    5    1489    1478    1474    1473  # HC-CT-CT-NT
   3491    6    1489    1478    1474    1479  # HC-CT-CT-HC
   3492    6    1489    1478    1474    1480  # HC-CT-CT-HC
   3493    5    1490    1481    1475    1473  # HC-CT-CT-NT
   3494    6    1490    1481    1475    1482  # HC-CT-CT-HC
   3495    6    1490    1481    1475    1483  # HC-CT-CT-HC
   3496    5    1491    1481    1475    1473  # HC-CT-CT-NT
   3497    6    1491    1481    1475    1482  # HC-CT-CT-HC
   3498    6    1491    1481    1475    1483  # HC-CT-CT-HC
   3499    5    1492    1481    1475    1473  # HC-CT-CT-NT
   3500    6    1492    1481    1475    1482  # HC-CT-CT-HC
   3501    6    1492    1481    1475    1483  # HC-CT-CT-HC
   3502    5    1493    1484    1476    1473  # HC-CT-CT-NT
   3503    6    1493    1484    1476    1485  # HC-CT-CT-HC
   3504    6    1493    1484    1476    1486  # HC-CT-CT-HC
   3505    5    1494    1484    1476    1473  # HC-CT-CT-NT
   3506    6    1494    1484    1476    1485  # HC-CT-CT-HC
   3507    6    1494    1484    1476    1486  # HC-CT-CT-HC
   3508    5    1495    1484    1476    1473  # HC-CT-CT-NT
   3509    6    1495    1484    1476    1485  # HC-CT-CT-HC
   3510    6    1495    1484    1476    1486  # HC-CT-CT-HC
   3511    1    1501    1497    1496    1498  # CT-NT-CT-CT
   3512    1    1501    1497    1496    1499  # CT-NT-CT-CT
   3513    2    1501    1497    1496    1500  # HN-NT-CT-CT
   3514    3    1502    1497    1496    1498  # HC-CT-NT-CT
   3515    3    1502    1497    1496    1499  # HC-CT-NT-CT
   3516    4    1502    1497    1496    1500  # HN-NT-CT-HC
   3517    3    1503    1497    1496    1498  # HC-CT-NT-CT
   3518    3    1503    1497    1496    1499  # HC-CT-NT-CT
   3519    4    1503    1497    1496    1500  # HN-NT-CT-HC
   3520    1    1504    1498    1496    1497  # CT-NT-CT-CT
   3521    1    1504    1498    1496    1499  # CT-NT-CT-CT
   3522    2    1504    1498    1496    1500  # HN-NT-CT-CT
   3523    3    1505    1498    1496    1497  # HC-CT-NT-CT
   3524    3    1505    1498    1496    1499  # HC-CT-NT-CT
   3525    4    1505    1498    1496    1500  # HN-NT-CT-HC
   3526    3    1506    1498    1496    1497  # HC-CT-NT-CT
   3527    3    1506    1498    1496    1499  # HC-CT-NT-CT
   3528    4    1506    1498    1496    1500  # HN-NT-CT-HC
   3529    1    1507    1499    1496    1497  # CT-NT-CT-CT
   3530    1    1507    1499    1496    1498  # CT-NT-CT-CT
   3531    2    1507    1499    1496    1500  # HN-NT-CT-CT
   3532    3    1508    1499    1496    1497  # HC-CT-NT-CT
   3533    3    1508    1499    1496    1498  # HC-CT-NT-CT
   3534    4    1508    1499    1496    1500  # HN-NT-CT-HC
   3535    3    1509    1499    1496    1497  # HC-CT-NT-CT
   3536    3    1509    1499    1496    1498  # HC-CT-NT-CT
   3537    4    1509    1499    1496    1500  # HN-NT-CT-HC
   3538    5    1510    1501    1497    1496  # HC-CT-CT-NT
   3539    6    1510    1501    1497    1502  # HC-CT-CT-HC
   3540    6    1510    1501    1497    1503  # HC-CT-CT-HC
   3541    5    1511    1501    1497    1496  # HC-CT-CT-NT
   3542    6    1511    1501    1497    1502  # HC-CT-CT-HC
   3543    6    1511    1501    1497    1503  # HC-CT-CT-HC
   3544    5    1512    1501    1497    1496  # HC-CT-CT-NT
   3545    6    1512    1501    1497    1502  # HC-CT-CT-HC
   3546    6    1512    1501    1497    1503  # HC-CT-CT-HC
   3547    5    1513    1504    1498    1496  # HC-CT-CT-NT
   3548    6    1513    1504    1498    1505  # HC-CT-CT-HC
   3549    6    1513    1504    1498    1506  # HC-CT-CT-HC
   3550    5    1514    1504    1498    1496  # HC-CT-CT-NT
   3551    6    1514    1504    1498    1505  # HC-CT-CT-HC
   3552    6    1514    1504    1498    1506  # HC-CT-CT-HC
   3553    5    1515    1504    1498    1496  # HC-CT-CT-NT
   3554    6    1515    1504    1498    1505  # HC-CT-CT-HC
   3555    6    1515    1504    1498    1506  # HC-CT-CT-HC
   3556    5    1516    1507    1499    1496  # HC-CT-CT-NT
   3557    6    1516    1507    1499    1508  # HC-CT-CT-HC
   3558    6    1516    1507    1499    1509  # HC-CT-CT-HC
   3559    5    1517    1507    1499    1496  # HC-CT-CT-NT
   3560    6    1517    1507    1499    1508  # HC-CT-CT-HC
   3561    6    1517    1507    1499    1509  # HC-CT-CT-HC
   3562    5    1518    1507    1499    1496  # HC-CT-CT-NT
   3563    6    1518    1507    1499    1508  # HC-CT-CT-HC
   3564    6    1518    1507    1499    1509  # HC-CT-CT-HC
   3565    1    1524    1520    1519    1521  # CT-NT-CT-CT
   3566    1    1524    1520    1519    1522  # CT-NT-CT-CT
   3567    2    1524    1520    1519    1523  # HN-NT-CT-CT
   3568    3    1525    1520    1519    1521  # HC-CT-NT-CT
   3569    3    1525    1520    1519    1522  # HC-CT-NT-CT
   3570    4    1525    1520    1519    1523  # HN-NT-CT-HC
   3571    3    1526    1520    1519    1521  # HC-CT-NT-CT
   3572    3    1526    1520    1519    1522  # HC-CT-NT-CT
   3573    4    1526    1520    1519    1523  # HN-NT-CT-HC
   3574    1    1527    1521    1519    1520  # CT-NT-CT-CT
   3575    1    1527    1521    1519    1522  # CT-NT-CT-CT
   3576    2    1527    1521    1519    1523  # HN-NT-CT-CT
   3577    3    1528    1521    1519    1520  # HC-CT-NT-CT
   3578    3    1528    1521    1519    1522  # HC-CT-NT-CT
   3579    4    1528    1521    1519    1523  # HN-NT-CT-HC
   3580    3    1529    1521    1519    1520  # HC-CT-NT-CT
   3581    3    1529    1521    1519    1522  # HC-CT-NT-CT
   3582    4    1529    1521    1519    1523  # HN-NT-CT-HC
   3583    1    1530    1522    1519    1520  # CT-NT-CT-CT
   3584    1    1530    1522    1519    1521  # CT-NT-CT-CT
   3585    2    1530    1522    1519    1523  # HN-NT-CT-CT
   3586    3    1531    1522    1519    1520  # HC-CT-NT-CT
   3587    3    1531    1522    1519    1521  # HC-CT-NT-CT
   3588    4    1531    1522    1519    1523  # HN-NT-CT-HC
   3589    3    1532    1522    1519    1520  # HC-CT-NT-CT
   3590    3    1532    1522    1519    1521  # HC-CT-NT-CT
   3591    4    1532    1522    1519    1523  # HN-NT-CT-HC
   3592    5    1533    1524    1520    1519  # HC-CT-CT-NT
   3593    6    1533    1524    1520    1525  # HC-CT-CT-HC
   3594    6    1533    1524    1520    1526  # HC-CT-CT-HC
   3595    5    1534    1524    1520    1519  # HC-CT-CT-NT
   3596    6    1534    1524    1520    1525  # HC-CT-CT-HC
   3597    6    1534    1524    1520    1526  # HC-CT-CT-HC
   3598    5    1535    1524    1520    1519  # HC-CT-CT-NT
   3599    6    1535    1524    1520    1525  # HC-CT-CT-HC
   3600    6    1535    1524    1520    1526  # HC-CT-CT-HC
   3601    5    1536    1527    1521    1519  # HC-CT-CT-NT
   3602    6    1536    1527    1521    1528  # HC-CT-CT-HC
   3603    6    1536    1527    1521    1529  # HC-CT-CT-HC
   3604    5    1537    1527    1521    1519  # HC-CT-CT-NT
   3605    6    1537    1527    1521    1528  # HC-CT-CT-HC
   3606    6    1537    1527    1521    1529  # HC-CT-CT-HC
   3607    5    1538    1527    1521    1519  # HC-CT-CT-NT
   3608    6    1538    1527    1521    1528  # HC-CT-CT-HC
   3609    6    1538    1527    1521    1529  # HC-CT-CT-HC
   3610    5    1539    1530    1522    1519  # HC-CT-CT-NT
   3611    6    1539    1530    1522    1531  # HC-CT-CT-HC
   3612    6    1539    1530    1522    1532  # HC-CT-CT-HC
   3613    5    1540    1530    1522    1519  # HC-CT-CT-NT
   3614    6    1540    1530    1522    1531  # HC-CT-CT-HC
   3615    6    1540    1530    1522    1532  # HC-CT-CT-HC
   3616    5    1541    1530    1522    1519  # HC-CT-CT-NT
   3617    6    1541    1530    1522    1531  # HC-CT-CT-HC
   3618    6    1541    1530    1522    1532  # HC-CT-CT-HC
   3619    1    1547    1543    1542    1544  # CT-NT-CT-CT
   3620    1    1547    1543    1542    1545  # CT-NT-CT-CT
   3621    2    1547    1543    1542    1546  # HN-NT-CT-CT
   3622    3    1548    1543    1542    1544  # HC-CT-NT-CT
   3623    3    1548    1543    1542    1545  # HC-CT-NT-CT
   3624    4    1548    1543    1542    1546  # HN-NT-CT-HC
   3625    3    1549    1543    1542    1544  # HC-CT-NT-CT
   3626    3    1549    1543    1542    1545  # HC-CT-NT-CT
   3627    4    1549    1543    1542    1546  # HN-NT-CT-HC
   3628    1    1550    1544    1542    1543  # CT-NT-CT-CT
   3629    1    1550    1544    1542    1545  # CT-NT-CT-CT
   3630    2    1550    1544    1542    1546  # HN-NT-CT-CT
   3631    3    1551    1544    1542    1543  # HC-CT-NT-CT
   3632    3    1551    1544    1542    1545  # HC-CT-NT-CT
   3633    4    1551    1544    1542    1546  # HN-NT-CT-HC
   3634    3    1552    1544    1542    1543  # HC-CT-NT-CT
   3635    3    1552    1544    1542    1545  # HC-CT-NT-CT
   3636    4    1552    1544    1542    1546  # HN-NT-CT-HC
   3637    1    1553    1545    1542    1543  # CT-NT-CT-CT
   3638    1    1553    1545    1542    1544  # CT-NT-CT-CT
   3639    2    1553    1545    1542    1546  # HN-NT-CT-CT
   3640    3    1554    1545    1542    1543  # HC-CT-NT-CT
   3641    3    1554    1545    1542    1544  # HC-CT-NT-CT
   3642    4    1554    1545    1542    1546  # HN-NT-CT-HC
   3643    3    1555    1545    1542    1543  # HC-CT-NT-CT
   3644    3    1555    1545    1542    1544  # HC-CT-NT-CT
   3645    4    1555    1545    1542    1546  # HN-NT-CT-HC
   3646    5    1556    1547    1543    1542  # HC-CT-CT-NT
   3647    6    1556    1547    1543    1548  # HC-CT-CT-HC
   3648    6    1556    1547    1543    1549  # HC-CT-CT-HC
   3649    5    1557    1547    1543    1542  # HC-CT-CT-NT
   3650    6    1557    1547    1543    1548  # HC-CT-CT-HC
   3651    6    1557    1547    1543    1549  # HC-CT-CT-HC
   3652    5    1558    1547    1543    1542  # HC-CT-CT-NT
   3653    6    1558    1547    1543    1548  # HC-CT-CT-HC
   3654    6    1558    1547    1543    1549  # HC-CT-CT-HC
   3655    5    1559    1550    1544    1542  # HC-CT-CT-NT
   3656    6    1559    1550    1544    1551  # HC-CT-CT-HC
   3657    6    1559    1550    1544    1552  # HC-CT-CT-HC
   3658    5    1560    1550    1544    1542  # HC-CT-CT-NT
   3659    6    1560    1550    1544    1551  # HC-CT-CT-HC
   3660    6    1560    1550    1544    1552  # HC-CT-CT-HC
   3661    5    1561    1550    1544    1542  # HC-CT-CT-NT
   3662    6    1561    1550    1544    1551  # HC-CT-CT-HC
   3663    6    1561    1550    1544    1552  # HC-CT-CT-HC
   3664    5    1562    1553    1545    1542  # HC-CT-CT-NT
   3665    6    1562    1553    1545    1554  # HC-CT-CT-HC
   3666    6    1562    1553    1545    1555  # HC-CT-CT-HC
   3667    5    1563    1553    1545    1542  # HC-CT-CT-NT
   3668    6    1563    1553    1545    1554  # HC-CT-CT-HC
   3669    6    1563    1553    1545    1555  # HC-CT-CT-HC
   3670    5    1564    1553    1545    1542  # HC-CT-CT-NT
   3671    6    1564    1553    1545    1554  # HC-CT-CT-HC
   3672    6    1564    1553    1545    1555  # HC-CT-CT-HC
   3673    1    1570    1566    1565    1567  # CT-NT-CT-CT
   3674    1    1570    1566    1565    1568  # CT-NT-CT-CT
   3675    2    1570    1566    1565    1569  # HN-NT-CT-CT
   3676    3    1571    1566    1565    1567  # HC-CT-NT-CT
   3677    3    1571    1566    1565    1568  # HC-CT-NT-CT
   3678    4    1571    1566    1565    1569  # HN-NT-CT-HC
   3679    3    1572    1566    1565    1567  # HC-CT-NT-CT
   3680    3    1572    1566    1565    1568  # HC-CT-NT-CT
   3681    4    1572    1566    1565    1569  # HN-NT-CT-HC
   3682    1    1573    1567    1565    1566  # CT-NT-CT-CT
   3683    1    1573    1567    1565    1568  # CT-NT-CT-CT
   3684    2    1573    1567    1565    1569  # HN-NT-CT-CT
   3685    3    1574    1567    1565    1566  # HC-CT-NT-CT
   3686    3    1574    1567    1565    1568  # HC-CT-NT-CT
   3687    4    1574    1567    1565    1569  # HN-NT-CT-HC
   3688    3    1575    1567    1565    1566  # HC-CT-NT-CT
   3689    3    1575    1567    1565    1568  # HC-CT-NT-CT
   3690    4    1575    1567    1565    1569  # HN-NT-CT-HC
   3691    1    1576    1568    1565    1566  # CT-NT-CT-CT
   3692    1    1576    1568    1565    1567  # CT-NT-CT-CT
   3693    2    1576    1568    1565    1569  # HN-NT-CT-CT
   3694    3    1577    1568    1565    1566  # HC-CT-NT-CT
   3695    3    1577    1568    1565    1567  # HC-CT-NT-CT
   3696    4    1577    1568    1565    1569  # HN-NT-CT-HC
   3697    3    1578    1568    1565    1566  # HC-CT-NT-CT
   3698    3    1578    1568    1565    1567  # HC-CT-NT-CT
   3699    4    1578    1568    1565    1569  # HN-NT-CT-HC
   3700    5    1579    1570    1566    1565  # HC-CT-CT-NT
   3701    6    1579    1570    1566    1571  # HC-CT-CT-HC
   3702    6    1579    1570    1566    1572  # HC-CT-CT-HC
   3703    5    1580    1570    1566    1565  # HC-CT-CT-NT
   3704    6    1580    1570    1566    1571  # HC-CT-CT-HC
   3705    6    1580    1570    1566    1572  # HC-CT-CT-HC
   3706    5    1581    1570    1566    1565  # HC-CT-CT-NT
   3707    6    1581    1570    1566    1571  # HC-CT-CT-HC
   3708    6    1581    1570    1566    1572  # HC-CT-CT-HC
   3709    5    1582    1573    1567    1565  # HC-CT-CT-NT
   3710    6    1582    1573    1567    1574  # HC-CT-CT-HC
   3711    6    1582    1573    1567    1575  # HC-CT-CT-HC
   3712    5    1583    1573    1567    1565  # HC-CT-CT-NT
   3713    6    1583    1573    1567    1574  # HC-CT-CT-HC
   3714    6    1583    1573    1567    1575  # HC-CT-CT-HC
   3715    5    1584    1573    1567    1565  # HC-CT-CT-NT
   3716    6    1584    1573    1567    1574  # HC-CT-CT-HC
   3717    6    1584    1573    1567    1575  # HC-CT-CT-HC
   3718    5    1585    1576    1568    1565  # HC-CT-CT-NT
   3719    6    1585    1576    1568    1577  # HC-CT-CT-HC
   3720    6    1585    1576    1568    1578  # HC-CT-CT-HC
   3721    5    1586    1576    1568    1565  # HC-CT-CT-NT
   3722    6    1586    1576    1568    1577  # HC-CT-CT-HC
   3723    6    1586    1576    1568    1578  # HC-CT-CT-HC
   3724    5    1587    1576    1568    1565  # HC-CT-CT-NT
   3725    6    1587    1576    1568    1577  # HC-CT-CT-HC
   3726    6    1587    1576    1568    1578  # HC-CT-CT-HC
   3727    1    1593    1589    1588    1590  # CT-NT-CT-CT
   3728    1    1593    1589    1588    1591  # CT-NT-CT-CT
   3729    2    1593    1589    1588    1592  # HN-NT-CT-CT
   3730    3    1594    1589    1588    1590  # HC-CT-NT-CT
   3731    3    1594    1589    1588    1591  # HC-CT-NT-CT
   3732    4    1594    1589    1588    1592  # HN-NT-CT-HC
   3733    3    1595    1589    1588    1590  # HC-CT-NT-CT
   3734    3    1595    1589    1588    1591  # HC-CT-NT-CT
   3735    4    1595    1589    1588    1592  # HN-NT-CT-HC
   3736    1    1596    1590    1588    1589  # CT-NT-CT-CT
   3737    1    1596    1590    1588    1591  # CT-NT-CT-CT
   3738    2    1596    1590    1588    1592  # HN-NT-CT-CT
   3739    3    1597    1590    1588    1589  # HC-CT-NT-CT
   3740    3    1597    1590    1588    1591  # HC-CT-NT-CT
   3741    4    1597    1590    1588    1592  # HN-NT-CT-HC
   3742    3    1598    1590    1588    1589  # HC-CT-NT-CT
   3743    3    1598    1590    1588    1591  # HC-CT-NT-CT
   3744    4    1598    1590    1588    1592  # HN-NT-CT-HC
   3745    1    1599    1591    1588    1589  # CT-NT-CT-CT
   3746    1    1599    1591    1588    1590  # CT-NT-CT-CT
   3747    2    1599    1591    1588    1592  # HN-NT-CT-CT
   3748    3    1600    1591    1588    1589  # HC-CT-NT-CT
   3749    3    1600    1591    1588    1590  # HC-CT-NT-CT
   3750    4    1600    1591    1588    1592  # HN-NT-CT-HC
   3751    3    1601    1591    1588    1589  # HC-CT-NT-CT
   3752    3    1601    1591    1588    1590  # HC-CT-NT-CT
   3753    4    1601    1591    1588    1592  # HN-NT-CT-HC
   3754    5    1602    1593    1589    1588  # HC-CT-CT-NT
   3755    6    1602    1593    1589    1594  # HC-CT-CT-HC
   3756    6    1602    1593    1589    1595  # HC-CT-CT-HC
   3757    5    1603    1593    1589    1588  # HC-CT-CT-NT
   3758    6    1603    1593    1589    1594  # HC-CT-CT-HC
   3759    6    1603    1593    1589    1595  # HC-CT-CT-HC
   3760    5    1604    1593    1589    1588  # HC-CT-CT-NT
   3761    6    1604    1593    1589    1594  # HC-CT-CT-HC
   3762    6    1604    1593    1589    1595  # HC-CT-CT-HC
   3763    5    1605    1596    1590    1588  # HC-CT-CT-NT
   3764    6    1605    1596    1590    1597  # HC-CT-CT-HC
   3765    6    1605    1596    1590    1598  # HC-CT-CT-HC
   3766    5    1606    1596    1590    1588  # HC-CT-CT-NT
   3767    6    1606    1596    1590    1597  # HC-CT-CT-HC
   3768    6    1606    1596    1590    1598  # HC-CT-CT-HC
   3769    5    1607    1596    1590    1588  # HC-CT-CT-NT
   3770    6    1607    1596    1590    1597  # HC-CT-CT-HC
   3771    6    1607    1596    1590    1598  # HC-CT-CT-HC
   3772    5    1608    1599    1591    1588  # HC-CT-CT-NT
   3773    6    1608    1599    1591    1600  # HC-CT-CT-HC
   3774    6    1608    1599    1591    1601  # HC-CT-CT-HC
   3775    5    1609    1599    1591    1588  # HC-CT-CT-NT
   3776    6    1609    1599    1591    1600  # HC-CT-CT-HC
   3777    6    1609    1599    1591    1601  # HC-CT-CT-HC
   3778    5    1610    1599    1591    1588  # HC-CT-CT-NT
   3779    6    1610    1599    1591    1600  # HC-CT-CT-HC
   3780    6    1610    1599    1591    1601  # HC-CT-CT-HC
   3781    1    1616    1612    1611    1613  # CT-NT-CT-CT
   3782    1    1616    1612    1611    1614  # CT-NT-CT-CT
   3783    2    1616    1612    1611    1615  # HN-NT-CT-CT
   3784    3    1617    1612    1611    1613  # HC-CT-NT-CT
   3785    3    1617    1612    1611    1614  # HC-CT-NT-CT
   3786    4    1617    1612    1611    1615  # HN-NT-CT-HC
   3787    3    1618    1612    1611    1613  # HC-CT-NT-CT
   3788    3    1618    1612    1611    1614  # HC-CT-NT-CT
   3789    4    1618    1612    1611    1615  # HN-NT-CT-HC
   3790    1    1619    1613    1611    1612  # CT-NT-CT-CT
   3791    1    1619    1613    1611    1614  # CT-NT-CT-CT
   3792    2    1619    1613    1611    1615  # HN-NT-CT-CT
   3793    3    1620    1613    1611    1612  # HC-CT-NT-CT
   3794    3    1620    1613    1611    1614  # HC-CT-NT-CT
   3795    4    1620    1613    1611    1615  # HN-NT-CT-HC
   3796    3    1621    1613    1611    1612  # HC-CT-NT-CT
   3797    3    1621    1613    1611    1614  # HC-CT-NT-CT
   3798    4    1621    1613    1611    1615  # HN-NT-CT-HC
   3799    1    1622    1614    1611    1612  # CT-NT-CT-CT
   3800    1    1622    1614    1611    1613  # CT-NT-CT-CT
   3801    2    1622    1614    1611    1615  # HN-NT-CT-CT
   3802    3    1623    1614    1611    1612  # HC-CT-NT-CT
   3803    3    1623    1614    1611    1613  # HC-CT-NT-CT
   3804    4    1623    1614    1611    1615  # HN-NT-CT-HC
   3805    3    1624    1614    1611    1612  # HC-CT-NT-CT
   3806    3    1624    1614    1611    1613  # HC-CT-NT-CT
   3807    4    1624    1614    1611    1615  # HN-NT-CT-HC
   3808    5    1625    1616    1612    1611  # HC-CT-CT-NT
   3809    6    1625    1616    1612    1617  # HC-CT-CT-HC
   3810    6    1625    1616    1612    1618  # HC-CT-CT-HC
   3811    5    1626    1616    1612    1611  # HC-CT-CT-NT
   3812    6    1626    1616    1612    1617  # HC-CT-CT-HC
   3813    6    1626    1616    1612    1618  # HC-CT-CT-HC
   3814    5    1627    1616    1612    1611  # HC-CT-CT-NT
   3815    6    1627    1616    1612    1617  # HC-CT-CT-HC
   3816    6    1627    1616    1612    1618  # HC-CT-CT-HC
   3817    5    1628    1619    1613    1611  # HC-CT-CT-NT
   3818    6    1628    1619    1613    1620  # HC-CT-CT-HC
   3819    6    1628    1619    1613    1621  # HC-CT-CT-HC
   3820    5    1629    1619    1613    1611  # HC-CT-CT-NT
   3821    6    1629    1619    1613    1620  # HC-CT-CT-HC
   3822    6    1629    1619    1613    1621  # HC-CT-CT-HC
   3823    5    1630    1619    1613    1611  # HC-CT-CT-NT
   3824    6    1630    1619    1613    1620  # HC-CT-CT-HC
   3825    6    1630    1619    1613    1621  # HC-CT-CT-HC
   3826    5    1631    1622    1614    1611  # HC-CT-CT-NT
   3827    6    1631    1622    1614    1623  # HC-CT-CT-HC
   3828    6    1631    1622    1614    1624  # HC-CT-CT-HC
   3829    5    1632    1622    1614    1611  # HC-CT-CT-NT
   3830    6    1632    1622    1614    1623  # HC-CT-CT-HC
   3831    6    1632    1622    1614    1624  # HC-CT-CT-HC
   3832    5    1633    1622    1614    1611  # HC-CT-CT-NT
   3833    6    1633    1622    1614    1623  # HC-CT-CT-HC
   3834    6    1633    1622    1614    1624  # HC-CT-CT-HC
   3835    1    1639    1635    1634    1636  # CT-NT-CT-CT
   3836    1    1639    1635    1634    1637  # CT-NT-CT-CT
   3837    2    1639    1635    1634    1638  # HN-NT-CT-CT
   3838    3    1640    1635    1634    1636  # HC-CT-NT-CT
   3839    3    1640    1635    1634    1637  # HC-CT-NT-CT
   3840    4    1640    1635    1634    1638  # HN-NT-CT-HC
   3841    3    1641    1635    1634    1636  # HC-CT-NT-CT
   3842    3    1641    1635    1634    1637  # HC-CT-NT-CT
   3843    4    1641    1635    1634    1638  # HN-NT-CT-HC
   3844    1    1642    1636    1634    1635  # CT-NT-CT-CT
   3845    1    1642    1636    1634    1637  # CT-NT-CT-CT
   3846    2    1642    1636    1634    1638  # HN-NT-CT-CT
   3847    3    1643    1636    1634    1635  # HC-CT-NT-CT
   3848    3    1643    1636    1634    1637  # HC-CT-NT-CT
   3849    4    1643    1636    1634    1638  # HN-NT-CT-HC
   3850    3    1644    1636    1634    1635  # HC-CT-NT-CT
   3851    3    1644    1636    1634    1637  # HC-CT-NT-CT
   3852    4    1644    1636    1634    1638  # HN-NT-CT-HC
   3853    1    1645    1637    1634    1635  # CT-NT-CT-CT
   3854    1    1645    1637    1634    1636  # CT-NT-CT-CT
   3855    2    1645    1637    1634    1638  # HN-NT-CT-CT
   3856    3    1646    1637    1634    1635  # HC-CT-NT-CT
   3857    3    1646    1637    1634    1636  # HC-CT-NT-CT
   3858    4    1646    1637    1634    1638  # HN-NT-CT-HC
   3859    3    1647    1637    1634    1635  # HC-CT-NT-CT
   3860    3    1647    1637    1634    1636  # HC-CT-NT-CT
   3861    4    1647    1637    1634    1638  # HN-NT-CT-HC
   3862    5    1648    1639    1635    1634  # HC-CT-CT-NT
   3863    6    1648    1639    1635    1640  # HC-CT-CT-HC
   3864    6    1648    1639    1635    1641  # HC-CT-CT-HC
   3865    5    1649    1639    1635    1634  # HC-CT-CT-NT
   3866    6    1649    1639    1635    1640  # HC-CT-CT-HC
   3867    6    1649    1639    1635    1641  # HC-CT-CT-HC
   3868    5    1650    1639    1635    1634  # HC-CT-CT-NT
   3869    6    1650    1639    1635    1640  # HC-CT-CT-HC
   3870    6    1650    1639    1635    1641  # HC-CT-CT-HC
   3871    5    1651    1642    1636    1634  # HC-CT-CT-NT
   3872    6    1651    1642    1636    1643  # HC-CT-CT-HC
   3873    6    1651    1642    1636    1644  # HC-CT-CT-HC
   3874    5    1652    1642    1636    1634  # HC-CT-CT-NT
   3875    6    1652    1642    1636    1643  # HC-CT-CT-HC
   3876    6    1652    1642    1636    1644  # HC-CT-CT-HC
   3877    5    1653    1642    1636    1634  # HC-CT-CT-NT
   3878    6    1653    1642    1636    1643  # HC-CT-CT-HC
   3879    6    1653    1642    1636    1644  # HC-CT-CT-HC
   3880    5    1654    1645    1637    1634  # HC-CT-CT-NT
   3881    6    1654    1645    1637    1646  # HC-CT-CT-HC
   3882    6    1654    1645    1637    1647  # HC-CT-CT-HC
   3883    5    1655    1645    1637    1634  # HC-CT-CT-NT
   3884    6    1655    1645    1637    1646  # HC-CT-CT-HC
   3885    6    1655    1645    1637    1647  # HC-CT-CT-HC
   3886    5    1656    1645    1637    1634  # HC-CT-CT-NT
   3887    6    1656    1645    1637    1646  # HC-CT-CT-HC
   3888    6    1656    1645    1637    1647  # HC-CT-CT-HC
   3889    1    1662    1658    1657    1659  # CT-NT-CT-CT
   3890    1    1662    1658    1657    1660  # CT-NT-CT-CT
   3891    2    1662    1658    1657    1661  # HN-NT-CT-CT
   3892    3    1663    1658    1657    1659  # HC-CT-NT-CT
   3893    3    1663    1658    1657    1660  # HC-CT-NT-CT
   3894    4    1663    1658    1657    1661  # HN-NT-CT-HC
   3895    3    1664    1658    1657    1659  # HC-CT-NT-CT
   3896    3    1664    1658    1657    1660  # HC-CT-NT-CT
   3897    4    1664    1658    1657    1661  # HN-NT-CT-HC
   3898    1    1665    1659    1657    1658  # CT-NT-CT-CT
   3899    1    1665    1659    1657    1660  # CT-NT-CT-CT
   3900    2    1665    1659    1657    1661  # HN-NT-CT-CT
   3901    3    1666    1659    1657    1658  # HC-CT-NT-CT
   3902    3    1666    1659    1657    1660  # HC-CT-NT-CT
   3903    4    1666    1659    1657    1661  # HN-NT-CT-HC
   3904    3    1667    1659    1657    1658  # HC-CT-NT-CT
   3905    3    1667    1659    1657    1660  # HC-CT-NT-CT
   3906    4    1667    1659    1657    1661  # HN-NT-CT-HC
   3907    1    1668    1660    1657    1658  # CT-NT-CT-CT
   3908    1    1668    1660    1657    1659  # CT-NT-CT-CT
   3909    2    1668    1660    1657    1661  # HN-NT-CT-CT
   3910    3    1669    1660    1657    1658  # HC-CT-NT-CT
   3911    3    1669    1660    1657    1659  # HC-CT-NT-CT
   3912    4    1669    1660    1657    1661  # HN-NT-CT-HC
   3913    3    1670    1660    1657    1658  # HC-CT-NT-CT
   3914    3    1670    1660    1657    1659  # HC-CT-NT-CT
   3915    4    1670    1660    1657    1661  # HN-NT-CT-HC
   3916    5    1671    1662    1658    1657  # HC-CT-CT-NT
   3917    6    1671    1662    1658    1663  # HC-CT-CT-HC
   3918    6    1671    1662    1658    1664  # HC-CT-CT-HC
   3919    5    1672    1662    1658    1657  # HC-CT-CT-NT
   3920    6    1672    1662    1658    1663  # HC-CT-CT-HC
   3921    6    1672    1662    1658    1664  # HC-CT-CT-HC
   3922    5    1673    1662    1658    1657  # HC-CT-CT-NT
   3923    6    1673    1662    1658    1663  # HC-CT-CT-HC
   3924    6    1673    1662    1658    1664  # HC-CT-CT-HC
   3925    5    1674    1665    1659    1657  # HC-CT-CT-NT
   3926    6    1674    1665    1659    1666  # HC-CT-CT-HC
   3927    6    1674    1665    1659    1667  # HC-CT-CT-HC
   3928    5    1675    1665    1659    1657  # HC-CT-CT-NT
   3929    6    1675    1665    1659    1666  # HC-CT-CT-HC
   3930    6    1675    1665    1659    1667  # HC-CT-CT-HC
   3931    5    1676    1665    1659    1657  # HC-CT-CT-NT
   3932    6    1676    1665    1659    1666  # HC-CT-CT-HC
   3933    6    1676    1665    1659    1667  # HC-CT-CT-HC
   3934    5    1677    1668    1660    1657  # HC-CT-CT-NT
   3935    6    1677    1668    1660    1669  # HC-CT-CT-HC
   3936    6    1677    1668    1660    1670  # HC-CT-CT-HC
   3937    5    1678    1668    1660    1657  # HC-CT-CT-NT
   3938    6    1678    1668    1660    1669  # HC-CT-CT-HC
   3939    6    1678    1668    1660    1670  # HC-CT-CT-HC
   3940    5    1679    1668    1660    1657  # HC-CT-CT-NT
   3941    6    1679    1668    1660    1669  # HC-CT-CT-HC
   3942    6    1679    1668    1660    1670  # HC-CT-CT-HC
   3943    1    1685    1681    1680    1682  # CT-NT-CT-CT
   3944    1    1685    1681    1680    1683  # CT-NT-CT-CT
   3945    2    1685    1681    1680    1684  # HN-NT-CT-CT
   3946    3    1686    1681    1680    1682  # HC-CT-NT-CT
   3947    3    1686    1681    1680    1683  # HC-CT-NT-CT
   3948    4    1686    1681    1680    1684  # HN-NT-CT-HC
   3949    3    1687    1681    1680    1682  # HC-CT-NT-CT
   3950    3    1687    1681    1680    1683  # HC-CT-NT-CT
   3951    4    1687    1681    1680    1684  # HN-NT-CT-HC
   3952    1    1688    1682    1680    1681  # CT-NT-CT-CT
   3953    1    1688    1682    1680    1683  # CT-NT-CT-CT
   3954    2    1688    1682    1680    1684  # HN-NT-CT-CT
   3955    3    1689    1682    1680    1681  # HC-CT-NT-CT
   3956    3    1689    1682    1680    1683  # HC-CT-NT-CT
   3957    4    1689    1682    1680    1684  # HN-NT-CT-HC
   3958    3    1690    1682    1680    1681  # HC-CT-NT-CT
   3959    3    1690    1682    1680    1683  # HC-CT-NT-CT
   3960    4    1690    1682    1680    1684  # HN-NT-CT-HC
   3961    1    1691    1683    1680    1681  # CT-NT-CT-CT
   3962    1    1691    1683    1680    1682  # CT-NT-CT-CT
   3963    2    1691    1683    1680    1684  # HN-NT-CT-CT
   3964    3    1692    1683    1680    1681  # HC-CT-NT-CT
   3965    3    1692    1683    1680    1682  # HC-CT-NT-CT
   3966    4    1692    1683    1680    1684  # HN-NT-CT-HC
   3967    3    1693    1683    1680    1681  # HC-CT-NT-CT
   3968    3    1693    1683    1680    1682  # HC-CT-NT-CT
   3969    4    1693    1683    1680    1684  # HN-NT-CT-HC
   3970    5    1694    1685    1681    1680  # HC-CT-CT-NT
   3971    6    1694    1685    1681    1686  # HC-CT-CT-HC
   3972    6    1694    1685    1681    1687  # HC-CT-CT-HC
   3973    5    1695    1685    1681    1680  # HC-CT-CT-NT
   3974    6    1695    1685    1681    1686  # HC-CT-CT-HC
   3975    6    1695    1685    1681    1687  # HC-CT-CT-HC
   3976    5    1696    1685    1681    1680  # HC-CT-CT-NT
   3977    6    1696    1685    1681    1686  # HC-CT-CT-HC
   3978    6    1696    1685    1681    1687  # HC-CT-CT-HC
   3979    5    1697    1688    1682    1680  # HC-CT-CT-NT
   3980    6    1697    1688    1682    1689  # HC-CT-CT-HC
   3981    6    1697    1688    1682    1690  # HC-CT-CT-HC
   3982    5    1698    1688    1682    1680  # HC-CT-CT-NT
   3983    6    1698    1688    1682    1689  # HC-CT-CT-HC
   3984    6    1698    1688    1682    1690  # HC-CT-CT-HC
   3985    5    1699    1688    1682    1680  # HC-CT-CT-NT
   3986    6    1699    1688    1682    1689  # HC-CT-CT-HC
   3987    6    1699    1688    1682    1690  # HC-CT-CT-HC
   3988    5    1700    1691    1683    1680  # HC-CT-CT-NT
   3989    6    1700    1691    1683    1692  # HC-CT-CT-HC
   3990    6    1700    1691    1683    1693  # HC-CT-CT-HC
   3991    5    1701    1691    1683    1680  # HC-CT-CT-NT
   3992    6    1701    1691    1683    1692  # HC-CT-CT-HC
   3993    6    1701    1691    1683    1693  # HC-CT-CT-HC
   3994    5    1702    1691    1683    1680  # HC-CT-CT-NT
   3995    6    1702    1691    1683    1692  # HC-CT-CT-HC
   3996    6    1702    1691    1683    1693  # HC-CT-CT-HC
   3997    7    1707    1704    1703    1705  # HC-CT-CO-O2
   3998    7    1707    1704    1703    1706  # HC-CT-CO-O2
   3999    7    1708    1704    1703    1705  # HC-CT-CO-O2
   4000    7    1708    1704    1703    1706  # HC-CT-CO-O2
   4001    7    1709    1704    1703    1705  # HC-CT-CO-O2
   4002    7    1709    1704    1703    1706  # HC-CT-CO-O2
   4003    8    1704    1705    1703    1706  # CT-O2-CO-O2
   4004    7    1714    1711    1710    1712  # HC-CT-CO-O2
   4005    7    1714    1711    1710    1713  # HC-CT-CO-O2
   4006    7    1715    1711    1710    1712  # HC-CT-CO-O2
   4007    7    1715    1711    1710    1713  # HC-CT-CO-O2
   4008    7    1716    1711    1710    1712  # HC-CT-CO-O2
   4009    7    1716    1711    1710    1713  # HC-CT-CO-O2
   4010    8    1711    1712    1710    1713  # CT-O2-CO-O2
   4011    7    1721    1718    1717    1719  # HC-CT-CO-O2
   4012    7    1721    1718    1717    1720  # HC-CT-CO-O2
   4013    7    1722    1718    1717    1719  # HC-CT-CO-O2
   4014    7    1722    1718    1717    1720  # HC-CT-CO-O2
   4015    7    1723    1718    1717    1719  # HC-CT-CO-O2
   4016    7    1723    1718    1717    1720  # HC-CT-CO-O2
   4017    8    1718    1719    1717    1720  # CT-O2-CO-O2
   4018    7    1728    1725    1724    1726  # HC-CT-CO-O2
   4019    7    1728    1725    1724    1727  # HC-CT-CO-O2
   4020    7    1729    1725    1724    1726  # HC-CT-CO-O2
   4021    7    1729    1725    1724    1727  # HC-CT-CO-O2
   4022    7    1730    1725    1724    1726  # HC-CT-CO-O2
   4023    7    1730    1725    1724    1727  # HC-CT-CO-O2
   4024    8    1725    1726    1724    1727  # CT-O2-CO-O2
   4025    7    1735    1732    1731    1733  # HC-CT-CO-O2
   4026    7    1735    1732    1731    1734  # HC-CT-CO-O2
   4027    7    1736    1732    1731    1733  # HC-CT-CO-O2
   4028    7    1736    1732    1731    1734  # HC-CT-CO-O2
   4029    7    1737    1732    1731    1733  # HC-CT-CO-O2
   4030    7    1737    1732    1731    1734  # HC-CT-CO-O2
   4031    8    1732    1733    1731    1734  # CT-O2-CO-O2
   4032    7    1742    1739    1738    1740  # HC-CT-CO-O2
   4033    7    1742    1739    1738    1741  # HC-CT-CO-O2
   4034    7    1743    1739    1738    1740  # HC-CT-CO-O2
   4035    7    1743    1739    1738    1741  # HC-CT-CO-O2
   4036    7    1744    1739    1738    1740  # HC-CT-CO-O2
   4037    7    1744    1739    1738    1741  # HC-CT-CO-O2
   4038    8    1739    1740    1738    1741  # CT-O2-CO-O2
   4039    7    1749    1746    1745    1747  # HC-CT-CO-O2
   4040    7    1749    1746    1745    1748  # HC-CT-CO-O2
   4041    7    1750    1746    1745    1747  # HC-CT-CO-O2
   4042    7    1750    1746    1745    1748  # HC-CT-CO-O2
   4043    7    1751    1746    1745    1747  # HC-CT-CO-O2
   4044    7    1751    1746    1745    1748  # HC-CT-CO-O2
   4045    8    1746    1747    1745    1748  # CT-O2-CO-O2
   4046    7    1756    1753    1752    1754  # HC-CT-CO-O2
   4047    7    1756    1753    1752    1755  # HC-CT-CO-O2
   4048    7    1757    1753    1752    1754  # HC-CT-CO-O2
   4049    7    1757    1753    1752    1755  # HC-CT-CO-O2
   4050    7    1758    1753    1752    1754  # HC-CT-CO-O2
   4051    7    1758    1753    1752    1755  # HC-CT-CO-O2
   4052    8    1753    1754    1752    1755  # CT-O2-CO-O2
   4053    7    1763    1760    1759    1761  # HC-CT-CO-O2
   4054    7    1763    1760    1759    1762  # HC-CT-CO-O2
   4055    7    1764    1760    1759    1761  # HC-CT-CO-O2
   4056    7    1764    1760    1759    1762  # HC-CT-CO-O2
   4057    7    1765    1760    1759    1761  # HC-CT-CO-O2
   4058    7    1765    1760    1759    1762  # HC-CT-CO-O2
   4059    8    1760    1761    1759    1762  # CT-O2-CO-O2
   4060    7    1770    1767    1766    1768  # HC-CT-CO-O2
   4061    7    1770    1767    1766    1769  # HC-CT-CO-O2
   4062    7    1771    1767    1766    1768  # HC-CT-CO-O2
   4063    7    1771    1767    1766    1769  # HC-CT-CO-O2
   4064    7    1772    1767    1766    1768  # HC-CT-CO-O2
   4065    7    1772    1767    1766    1769  # HC-CT-CO-O2
   4066    8    1767    1768    1766    1769  # CT-O2-CO-O2
   4067    7    1777    1774    1773    1775  # HC-CT-CO-O2
   4068    7    1777    1774    1773    1776  # HC-CT-CO-O2
   4069    7    1778    1774    1773    1775  # HC-CT-CO-O2
   4070    7    1778    1774    1773    1776  # HC-CT-CO-O2
   4071    7    1779    1774    1773    1775  # HC-CT-CO-O2
   4072    7    1779    1774    1773    1776  # HC-CT-CO-O2
   4073    8    1774    1775    1773    1776  # CT-O2-CO-O2
   4074    7    1784    1781    1780    1782  # HC-CT-CO-O2
   4075    7    1784    1781    1780    1783  # HC-CT-CO-O2
   4076    7    1785    1781    1780    1782  # HC-CT-CO-O2
   4077    7    1785    1781    1780    1783  # HC-CT-CO-O2
   4078    7    1786    1781    1780    1782  # HC-CT-CO-O2
   4079    7    1786    1781    1780    1783  # HC-CT-CO-O2
   4080    8    1781    1782    1780    1783  # CT-O2-CO-O2
   4081    7    1791    1788    1787    1789  # HC-CT-CO-O2
   4082    7    1791    1788    1787    1790  # HC-CT-CO-O2
   4083    7    1792    1788    1787    1789  # HC-CT-CO-O2
   4084    7    1792    1788    1787    1790  # HC-CT-CO-O2
   4085    7    1793    1788    1787    1789  # HC-CT-CO-O2
   4086    7    1793    1788    1787    1790  # HC-CT-CO-O2
   4087    8    1788    1789    1787    1790  # CT-O2-CO-O2
   4088    7    1798    1795    1794    1796  # HC-CT-CO-O2
   4089    7    1798    1795    1794    1797  # HC-CT-CO-O2
   4090    7    1799    1795    1794    1796  # HC-CT-CO-O2
   4091    7    1799    1795    1794    1797  # HC-CT-CO-O2
   4092    7    1800    1795    1794    1796  # HC-CT-CO-O2
   4093    7    1800    1795    1794    1797  # HC-CT-CO-O2
   4094    8    1795    1796    1794    1797  # CT-O2-CO-O2
   4095    7    1805    1802    1801    1803  # HC-CT-CO-O2
   4096    7    1805    1802    1801    1804  # HC-CT-CO-O2
   4097    7    1806    1802    1801    1803  # HC-CT-CO-O2
   4098    7    1806    1802    1801    1804  # HC-CT-CO-O2
   4099    7    1807    1802    1801    1803  # HC-CT-CO-O2
   4100    7    1807    1802    1801    1804  # HC-CT-CO-O2
   4101    8    1802    1803    1801    1804  # CT-O2-CO-O2
   4102    7    1812    1809    1808    1810  # HC-CT-CO-O2
   4103    7    1812    1809    1808    1811  # HC-CT-CO-O2
   4104    7    1813    1809    1808    1810  # HC-CT-CO-O2
   4105    7    1813    1809    1808    1811  # HC-CT-CO-O2
   4106    7    1814    1809    1808    1810  # HC-CT-CO-O2
   4107    7    1814    1809    1808    1811  # HC-CT-CO-O2
   4108    8    1809    1810    1808    1811  # CT-O2-CO-O2
   4109    7    1819    1816    1815    1817  # HC-CT-CO-O2
   4110    7    1819    1816    1815    1818  # HC-CT-CO-O2
   4111    7    1820    1816    1815    1817  # HC-CT-CO-O2
   4112    7    1820    1816    1815    1818  # HC-CT-CO-O2
   4113    7    1821    1816    1815    1817  # HC-CT-CO-O2
   4114    7    1821    1816    1815    1818  # HC-CT-CO-O2
   4115    8    1816    1817    1815    1818  # CT-O2-CO-O2
   4116    7    1826    1823    1822    1824  # HC-CT-CO-O2
   4117    7    1826    1823    1822    1825  # HC-CT-CO-O2
   4118    7    1827    1823    1822    1824  # HC-CT-CO-O2
   4119    7    1827    1823    1822    1825  # HC-CT-CO-O2
   4120    7    1828    1823    1822    1824  # HC-CT-CO-O2
   4121    7    1828    1823    1822    1825  # HC-CT-CO-O2
   4122    8    1823    1824    1822    1825  # CT-O2-CO-O2
   4123    7    1833    1830    1829    1831  # HC-CT-CO-O2
   4124    7    1833    1830    1829    1832  # HC-CT-CO-O2
   4125    7    1834    1830    1829    1831  # HC-CT-CO-O2
   4126    7    1834    1830    1829    1832  # HC-CT-CO-O2
   4127    7    1835    1830    1829    1831  # HC-CT-CO-O2
   4128    7    1835    1830    1829    1832  # HC-CT-CO-O2
   4129    8    1830    1831    1829    1832  # CT-O2-CO-O2
   4130    7    1840    1837    1836    1838  # HC-CT-CO-O2
   4131    7    1840    1837    1836    1839  # HC-CT-CO-O2
   4132    7    1841    1837    1836    1838  # HC-CT-CO-O2
   4133    7    1841    1837    1836    1839  # HC-CT-CO-O2
   4134    7    1842    1837    1836    1838  # HC-CT-CO-O2
   4135    7    1842    1837    1836    1839  # HC-CT-CO-O2
   4136    8    1837    1838    1836    1839  # CT-O2-CO-O2
   4137    7    1847    1844    1843    1845  # HC-CT-CO-O2
   4138    7    1847    1844    1843    1846  # HC-CT-CO-O2
   4139    7    1848    1844    1843    1845  # HC-CT-CO-O2
   4140    7    1848    1844    1843    1846  # HC-CT-CO-O2
   4141    7    1849    1844    1843    1845  # HC-CT-CO-O2
   4142    7    1849    1844    1843    1846  # HC-CT-CO-O2
   4143    8    1844    1845    1843    1846  # CT-O2-CO-O2
   4144    7    1854    1851    1850    1852  # HC-CT-CO-O2
   4145    7    1854    1851    1850    1853  # HC-CT-CO-O2
   4146    7    1855    1851    1850    1852  # HC-CT-CO-O2
   4147    7    1855    1851    1850    1853  # HC-CT-CO-O2
   4148    7    1856    1851    1850    1852  # HC-CT-CO-O2
   4149    7    1856    1851    1850    1853  # HC-CT-CO-O2
   4150    8    1851    1852    1850    1853  # CT-O2-CO-O2
   4151    7    1861    1858    1857    1859  # HC-CT-CO-O2
   4152    7    1861    1858    1857    1860  # HC-CT-CO-O2
   4153    7    1862    1858    1857    1859  # HC-CT-CO-O2
   4154    7    1862    1858    1857    1860  # HC-CT-CO-O2
   4155    7    1863    1858    1857    1859  # HC-CT-CO-O2
   4156    7    1863    1858    1857    1860  # HC-CT-CO-O2
   4157    8    1858    1859    1857    1860  # CT-O2-CO-O2
   4158    7    1868    1865    1864    1866  # HC-CT-CO-O2
   4159    7    1868    1865    1864    1867  # HC-CT-CO-O2
   4160    7    1869    1865    1864    1866  # HC-CT-CO-O2
   4161    7    1869    1865    1864    1867  # HC-CT-CO-O2
   4162    7    1870    1865    1864    1866  # HC-CT-CO-O2
   4163    7    1870    1865    1864    1867  # HC-CT-CO-O2
   4164    8    1865    1866    1864    1867  # CT-O2-CO-O2
   4165    7    1875    1872    1871    1873  # HC-CT-CO-O2
   4166    7    1875    1872    1871    1874  # HC-CT-CO-O2
   4167    7    1876    1872    1871    1873  # HC-CT-CO-O2
   4168    7    1876    1872    1871    1874  # HC-CT-CO-O2
   4169    7    1877    1872    1871    1873  # HC-CT-CO-O2
   4170    7    1877    1872    1871    1874  # HC-CT-CO-O2
   4171    8    1872    1873    1871    1874  # CT-O2-CO-O2
   4172    7    1882    1879    1878    1880  # HC-CT-CO-O2
   4173    7    1882    1879    1878    1881  # HC-CT-CO-O2
   4174    7    1883    1879    1878    1880  # HC-CT-CO-O2
   4175    7    1883    1879    1878    1881  # HC-CT-CO-O2
   4176    7    1884    1879    1878    1880  # HC-CT-CO-O2
   4177    7    1884    1879    1878    1881  # HC-CT-CO-O2
   4178    8    1879    1880    1878    1881  # CT-O2-CO-O2
   4179    7    1889    1886    1885    1887  # HC-CT-CO-O2
   4180    7    1889    1886    1885    1888  # HC-CT-CO-O2
   4181    7    1890    1886    1885    1887  # HC-CT-CO-O2
   4182    7    1890    1886    1885    1888  # HC-CT-CO-O2
   4183    7    1891    1886    1885    1887  # HC-CT-CO-O2
   4184    7    1891    1886    1885    1888  # HC-CT-CO-O2
   4185    8    1886    1887    1885    1888  # CT-O2-CO-O2
   4186    7    1896    1893    1892    1894  # HC-CT-CO-O2
   4187    7    1896    1893    1892    1895  # HC-CT-CO-O2
   4188    7    1897    1893    1892    1894  # HC-CT-CO-O2
   4189    7    1897    1893    1892    1895  # HC-CT-CO-O2
   4190    7    1898    1893    1892    1894  # HC-CT-CO-O2
   4191    7    1898    1893    1892    1895  # HC-CT-CO-O2
   4192    8    1893    1894    1892    1895  # CT-O2-CO-O2
   4193    7    1903    1900    1899    1901  # HC-CT-CO-O2
   4194    7    1903    1900    1899    1902  # HC-CT-CO-O2
   4195    7    1904    1900    1899    1901  # HC-CT-CO-O2
   4196    7    1904    1900    1899    1902  # HC-CT-CO-O2
   4197    7    1905    1900    1899    1901  # HC-CT-CO-O2
   4198    7    1905    1900    1899    1902  # HC-CT-CO-O2
   4199    8    1900    1901    1899    1902  # CT-O2-CO-O2
   4200    7    1910    1907    1906    1908  # HC-CT-CO-O2
   4201    7    1910    1907    1906    1909  # HC-CT-CO-O2
   4202    7    1911    1907    1906    1908  # HC-CT-CO-O2
   4203    7    1911    1907    1906    1909  # HC-CT-CO-O2
   4204    7    1912    1907    1906    1908  # HC-CT-CO-O2
   4205    7    1912    1907    1906    1909  # HC-CT-CO-O2
   4206    8    1907    1908    1906    1909  # CT-O2-CO-O2
   4207    7    1917    1914    1913    1915  # HC-CT-CO-O2
   4208    7    1917    1914    1913    1916  # HC-CT-CO-O2
   4209    7    1918    1914    1913    1915  # HC-CT-CO-O2
   4210    7    1918    1914    1913    1916  # HC-CT-CO-O2
   4211    7    1919    1914    1913    1915  # HC-CT-CO-O2
   4212    7    1919    1914    1913    1916  # HC-CT-CO-O2
   4213    8    1914    1915    1913    1916  # CT-O2-CO-O2
   4214    7    1924    1921    1920    1922  # HC-CT-CO-O2
   4215    7    1924    1921    1920    1923  # HC-CT-CO-O2
   4216    7    1925    1921    1920    1922  # HC-CT-CO-O2
   4217    7    1925    1921    1920    1923  # HC-CT-CO-O2
   4218    7    1926    1921    1920    1922  # HC-CT-CO-O2
   4219    7    1926    1921    1920    1923  # HC-CT-CO-O2
   4220    8    1921    1922    1920    1923  # CT-O2-CO-O2
   4221    7    1931    1928    1927    1929  # HC-CT-CO-O2
   4222    7    1931    1928    1927    1930  # HC-CT-CO-O2
   4223    7    1932    1928    1927    1929  # HC-CT-CO-O2
   4224    7    1932    1928    1927    1930  # HC-CT-CO-O2
   4225    7    1933    1928    1927    1929  # HC-CT-CO-O2
   4226    7    1933    1928    1927    1930  # HC-CT-CO-O2
   4227    8    1928    1929    1927    1930  # CT-O2-CO-O2
   4228    7    1938    1935    1934    1936  # HC-CT-CO-O2
   4229    7    1938    1935    1934    1937  # HC-CT-CO-O2
   4230    7    1939    1935    1934    1936  # HC-CT-CO-O2
   4231    7    1939    1935    1934    1937  # HC-CT-CO-O2
   4232    7    1940    1935    1934    1936  # HC-CT-CO-O2
   4233    7    1940    1935    1934    1937  # HC-CT-CO-O2
   4234    8    1935    1936    1934    1937  # CT-O2-CO-O2
   4235    7    1945    1942    1941    1943  # HC-CT-CO-O2
   4236    7    1945    1942    1941    1944  # HC-CT-CO-O2
   4237    7    1946    1942    1941    1943  # HC-CT-CO-O2
   4238    7    1946    1942    1941    1944  # HC-CT-CO-O2
   4239    7    1947    1942    1941    1943  # HC-CT-CO-O2
   4240    7    1947    1942    1941    1944  # HC-CT-CO-O2
   4241    8    1942    1943    1941    1944  # CT-O2-CO-O2
   4242    7    1952    1949    1948    1950  # HC-CT-CO-O2
   4243    7    1952    1949    1948    1951  # HC-CT-CO-O2
   4244    7    1953    1949    1948    1950  # HC-CT-CO-O2
   4245    7    1953    1949    1948    1951  # HC-CT-CO-O2
   4246    7    1954    1949    1948    1950  # HC-CT-CO-O2
   4247    7    1954    1949    1948    1951  # HC-CT-CO-O2
   4248    8    1949    1950    1948    1951  # CT-O2-CO-O2
   4249    7    1959    1956    1955    1957  # HC-CT-CO-O2
   4250    7    1959    1956    1955    1958  # HC-CT-CO-O2
   4251    7    1960    1956    1955    1957  # HC-CT-CO-O2
   4252    7    1960    1956    1955    1958  # HC-CT-CO-O2
   4253    7    1961    1956    1955    1957  # HC-CT-CO-O2
   4254    7    1961    1956    1955    1958  # HC-CT-CO-O2
   4255    8    1956    1957    1955    1958  # CT-O2-CO-O2
   4256    7    1966    1963    1962    1964  # HC-CT-CO-O2
   4257    7    1966    1963    1962    1965  # HC-CT-CO-O2
   4258    7    1967    1963    1962    1964  # HC-CT-CO-O2
   4259    7    1967    1963    1962    1965  # HC-CT-CO-O2
   4260    7    1968    1963    1962    1964  # HC-CT-CO-O2
   4261    7    1968    1963    1962    1965  # HC-CT-CO-O2
   4262    8    1963    1964    1962    1965  # CT-O2-CO-O2
   4263    7    1973    1970    1969    1971  # HC-CT-CO-O2
   4264    7    1973    1970    1969    1972  # HC-CT-CO-O2
   4265    7    1974    1970    1969    1971  # HC-CT-CO-O2
   4266    7    1974    1970    1969    1972  # HC-CT-CO-O2
   4267    7    1975    1970    1969    1971  # HC-CT-CO-O2
   4268    7    1975    1970    1969    1972  # HC-CT-CO-O2
   4269    8    1970    1971    1969    1972  # CT-O2-CO-O2
   4270    7    1980    1977    1976    1978  # HC-CT-CO-O2
   4271    7    1980    1977    1976    1979  # HC-CT-CO-O2
   4272    7    1981    1977    1976    1978  # HC-CT-CO-O2
   4273    7    1981    1977    1976    1979  # HC-CT-CO-O2
   4274    7    1982    1977    1976    1978  # HC-CT-CO-O2
   4275    7    1982    1977    1976    1979  # HC-CT-CO-O2
   4276    8    1977    1978    1976    1979  # CT-O2-CO-O2
   4277    7    1987    1984    1983    1985  # HC-CT-CO-O2
   4278    7    1987    1984    1983    1986  # HC-CT-CO-O2
   4279    7    1988    1984    1983    1985  # HC-CT-CO-O2
   4280    7    1988    1984    1983    1986  # HC-CT-CO-O2
   4281    7    1989    1984    1983    1985  # HC-CT-CO-O2
   4282    7    1989    1984    1983    1986  # HC-CT-CO-O2
   4283    8    1984    1985    1983    1986  # CT-O2-CO-O2
   4284    7    1994    1991    1990    1992  # HC-CT-CO-O2
   4285    7    1994    1991    1990    1993  # HC-CT-CO-O2
   4286    7    1995    1991    1990    1992  # HC-CT-CO-O2
   4287    7    1995    1991    1990    1993  # HC-CT-CO-O2
   4288    7    1996    1991    1990    1992  # HC-CT-CO-O2
   4289    7    1996    1991    1990    1993  # HC-CT-CO-O2
   4290    8    1991    1992    1990    1993  # CT-O2-CO-O2
   4291    7    2001    1998    1997    1999  # HC-CT-CO-O2
   4292    7    2001    1998    1997    2000  # HC-CT-CO-O2
   4293    7    2002    1998    1997    1999  # HC-CT-CO-O2
   4294    7    2002    1998    1997    2000  # HC-CT-CO-O2
   4295    7    2003    1998    1997    1999  # HC-CT-CO-O2
   4296    7    2003    1998    1997    2000  # HC-CT-CO-O2
   4297    8    1998    1999    1997    2000  # CT-O2-CO-O2
   4298    7    2008    2005    2004    2006  # HC-CT-CO-O2
   4299    7    2008    2005    2004    2007  # HC-CT-CO-O2
   4300    7    2009    2005    2004    2006  # HC-CT-CO-O2
   4301    7    2009    2005    2004    2007  # HC-CT-CO-O2
   4302    7    2010    2005    2004    2006  # HC-CT-CO-O2
   4303    7    2010    2005    2004    2007  # HC-CT-CO-O2
   4304    8    2005    2006    2004    2007  # CT-O2-CO-O2
   4305    7    2015    2012    2011    2013  # HC-CT-CO-O2
   4306    7    2015    2012    2011    2014  # HC-CT-CO-O2
   4307    7    2016    2012    2011    2013  # HC-CT-CO-O2
   4308    7    2016    2012    2011    2014  # HC-CT-CO-O2
   4309    7    2017    2012    2011    2013  # HC-CT-CO-O2
   4310    7    2017    2012    2011    2014  # HC-CT-CO-O2
   4311    8    2012    2013    2011    2014  # CT-O2-CO-O2
   4312    7    2022    2019    2018    2020  # HC-CT-CO-O2
   4313    7    2022    2019    2018    2021  # HC-CT-CO-O2
   4314    7    2023    2019    2018    2020  # HC-CT-CO-O2
   4315    7    2023    2019    2018    2021  # HC-CT-CO-O2
   4316    7    2024    2019    2018    2020  # HC-CT-CO-O2
   4317    7    2024    2019    2018    2021  # HC-CT-CO-O2
   4318    8    2019    2020    2018    2021  # CT-O2-CO-O2
   4319    7    2029    2026    2025    2027  # HC-CT-CO-O2
   4320    7    2029    2026    2025    2028  # HC-CT-CO-O2
   4321    7    2030    2026    2025    2027  # HC-CT-CO-O2
   4322    7    2030    2026    2025    2028  # HC-CT-CO-O2
   4323    7    2031    2026    2025    2027  # HC-CT-CO-O2
   4324    7    2031    2026    2025    2028  # HC-CT-CO-O2
   4325    8    2026    2027    2025    2028  # CT-O2-CO-O2
   4326    7    2036    2033    2032    2034  # HC-CT-CO-O2
   4327    7    2036    2033    2032    2035  # HC-CT-CO-O2
   4328    7    2037    2033    2032    2034  # HC-CT-CO-O2
   4329    7    2037    2033    2032    2035  # HC-CT-CO-O2
   4330    7    2038    2033    2032    2034  # HC-CT-CO-O2
   4331    7    2038    2033    2032    2035  # HC-CT-CO-O2
   4332    8    2033    2034    2032    2035  # CT-O2-CO-O2
   4333    7    2043    2040    2039    2041  # HC-CT-CO-O2
   4334    7    2043    2040    2039    2042  # HC-CT-CO-O2
   4335    7    2044    2040    2039    2041  # HC-CT-CO-O2
   4336    7    2044    2040    2039    2042  # HC-CT-CO-O2
   4337    7    2045    2040    2039    2041  # HC-CT-CO-O2
   4338    7    2045    2040    2039    2042  # HC-CT-CO-O2
   4339    8    2040    2041    2039    2042  # CT-O2-CO-O2
   4340    7    2050    2047    2046    2048  # HC-CT-CO-O2
   4341    7    2050    2047    2046    2049  # HC-CT-CO-O2
   4342    7    2051    2047    2046    2048  # HC-CT-CO-O2
   4343    7    2051    2047    2046    2049  # HC-CT-CO-O2
   4344    7    2052    2047    2046    2048  # HC-CT-CO-O2
   4345    7    2052    2047    2046    2049  # HC-CT-CO-O2
   4346    8    2047    2048    2046    2049  # CT-O2-CO-O2
   4347    7    2057    2054    2053    2055  # HC-CT-CO-O2
   4348    7    2057    2054    2053    2056  # HC-CT-CO-O2
   4349    7    2058    2054    2053    2055  # HC-CT-CO-O2
   4350    7    2058    2054    2053    2056  # HC-CT-CO-O2
   4351    7    2059    2054    2053    2055  # HC-CT-CO-O2
   4352    7    2059    2054    2053    2056  # HC-CT-CO-O2
   4353    8    2054    2055    2053    2056  # CT-O2-CO-O2
   4354    7    2064    2061    2060    2062  # HC-CT-CO-O2
   4355    7    2064    2061    2060    2063  # HC-CT-CO-O2
   4356    7    2065    2061    2060    2062  # HC-CT-CO-O2
   4357    7    2065    2061    2060    2063  # HC-CT-CO-O2
   4358    7    2066    2061    2060    2062  # HC-CT-CO-O2
   4359    7    2066    2061    2060    2063  # HC-CT-CO-O2
   4360    8    2061    2062    2060    2063  # CT-O2-CO-O2
   4361    7    2071    2068    2067    2069  # HC-CT-CO-O2
   4362    7    2071    2068    2067    2070  # HC-CT-CO-O2
   4363    7    2072    2068    2067    2069  # HC-CT-CO-O2
   4364    7    2072    2068    2067    2070  # HC-CT-CO-O2
   4365    7    2073    2068    2067    2069  # HC-CT-CO-O2
   4366    7    2073    2068    2067    2070  # HC-CT-CO-O2
   4367    8    2068    2069    2067    2070  # CT-O2-CO-O2
   4368    7    2078    2075    2074    2076  # HC-CT-CO-O2
   4369    7    2078    2075    2074    2077  # HC-CT-CO-O2
   4370    7    2079    2075    2074    2076  # HC-CT-CO-O2
   4371    7    2079    2075    2074    2077  # HC-CT-CO-O2
   4372    7    2080    2075    2074    2076  # HC-CT-CO-O2
   4373    7    2080    2075    2074    2077  # HC-CT-CO-O2
   4374    8    2075    2076    2074    2077  # CT-O2-CO-O2
   4375    7    2085    2082    2081    2083  # HC-CT-CO-O2
   4376    7    2085    2082    2081    2084  # HC-CT-CO-O2
   4377    7    2086    2082    2081    2083  # HC-CT-CO-O2
   4378    7    2086    2082    2081    2084  # HC-CT-CO-O2
   4379    7    2087    2082    2081    2083  # HC-CT-CO-O2
   4380    7    2087    2082    2081    2084  # HC-CT-CO-O2
   4381    8    2082    2083    2081    2084  # CT-O2-CO-O2
   4382    7    2092    2089    2088    2090  # HC-CT-CO-O2
   4383    7    2092    2089    2088    2091  # HC-CT-CO-O2
   4384    7    2093    2089    2088    2090  # HC-CT-CO-O2
   4385    7    2093    2089    2088    2091  # HC-CT-CO-O2
   4386    7    2094    2089    2088    2090  # HC-CT-CO-O2
   4387    7    2094    2089    2088    2091  # HC-CT-CO-O2
   4388    8    2089    2090    2088    2091  # CT-O2-CO-O2
   4389    7    2099    2096    2095    2097  # HC-CT-CO-O2
   4390    7    2099    2096    2095    2098  # HC-CT-CO-O2
   4391    7    2100    2096    2095    2097  # HC-CT-CO-O2
   4392    7    2100    2096    2095    2098  # HC-CT-CO-O2
   4393    7    2101    2096    2095    2097  # HC-CT-CO-O2
   4394    7    2101    2096    2095    2098  # HC-CT-CO-O2
   4395    8    2096    2097    2095    2098  # CT-O2-CO-O2
   4396    7    2106    2103    2102    2104  # HC-CT-CO-O2
   4397    7    2106    2103    2102    2105  # HC-CT-CO-O2
   4398    7    2107    2103    2102    2104  # HC-CT-CO-O2
   4399    7    2107    2103    2102    2105  # HC-CT-CO-O2
   4400    7    2108    2103    2102    2104  # HC-CT-CO-O2
   4401    7    2108    2103    2102    2105  # HC-CT-CO-O2
   4402    8    2103    2104    2102    2105  # CT-O2-CO-O2
   4403    7    2113    2110    2109    2111  # HC-CT-CO-O2
   4404    7    2113    2110    2109    2112  # HC-CT-CO-O2
   4405    7    2114    2110    2109    2111  # HC-CT-CO-O2
   4406    7    2114    2110    2109    2112  # HC-CT-CO-O2
   4407    7    2115    2110    2109    2111  # HC-CT-CO-O2
   4408    7    2115    2110    2109    2112  # HC-CT-CO-O2
   4409    8    2110    2111    2109    2112  # CT-O2-CO-O2
   4410    7    2120    2117    2116    2118  # HC-CT-CO-O2
   4411    7    2120    2117    2116    2119  # HC-CT-CO-O2
   4412    7    2121    2117    2116    2118  # HC-CT-CO-O2
   4413    7    2121    2117    2116    2119  # HC-CT-CO-O2
   4414    7    2122    2117    2116    2118  # HC-CT-CO-O2
   4415    7    2122    2117    2116    2119  # HC-CT-CO-O2
   4416    8    2117    2118    2116    2119  # CT-O2-CO-O2
   4417    7    2127    2124    2123    2125  # HC-CT-CO-O2
   4418    7    2127    2124    2123    2126  # HC-CT-CO-O2
   4419    7    2128    2124    2123    2125  # HC-CT-CO-O2
   4420    7    2128    2124    2123    2126  # HC-CT-CO-O2
   4421    7    2129    2124    2123    2125  # HC-CT-CO-O2
   4422    7    2129    2124    2123    2126  # HC-CT-CO-O2
   4423    8    2124    2125    2123    2126  # CT-O2-CO-O2
   4424    7    2134    2131    2130    2132  # HC-CT-CO-O2
   4425    7    2134    2131    2130    2133  # HC-CT-CO-O2
   4426    7    2135    2131    2130    2132  # HC-CT-CO-O2
   4427    7    2135    2131    2130    2133  # HC-CT-CO-O2
   4428    7    2136    2131    2130    2132  # HC-CT-CO-O2
   4429    7    2136    2131    2130    2133  # HC-CT-CO-O2
   4430    8    2131    2132    2130    2133  # CT-O2-CO-O2
   4431    7    2141    2138    2137    2139  # HC-CT-CO-O2
   4432    7    2141    2138    2137    2140  # HC-CT-CO-O2
   4433    7    2142    2138    2137    2139  # HC-CT-CO-O2
   4434    7    2142    2138    2137    2140  # HC-CT-CO-O2
   4435    7    2143    2138    2137    2139  # HC-CT-CO-O2
   4436    7    2143    2138    2137    2140  # HC-CT-CO-O2
   4437    8    2138    2139    2137    2140  # CT-O2-CO-O2
   4438    7    2148    2145    2144    2146  # HC-CT-CO-O2
   4439    7    2148    2145    2144    2147  # HC-CT-CO-O2
   4440    7    2149    2145    2144    2146  # HC-CT-CO-O2
   4441    7    2149    2145    2144    2147  # HC-CT-CO-O2
   4442    7    2150    2145    2144    2146  # HC-CT-CO-O2
   4443    7    2150    2145    2144    2147  # HC-CT-CO-O2
   4444    8    2145    2146    2144    2147  # CT-O2-CO-O2
   4445    7    2155    2152    2151    2153  # HC-CT-CO-O2
   4446    7    2155    2152    2151    2154  # HC-CT-CO-O2
   4447    7    2156    2152    2151    2153  # HC-CT-CO-O2
   4448    7    2156    2152    2151    2154  # HC-CT-CO-O2
   4449    7    2157    2152    2151    2153  # HC-CT-CO-O2
   4450    7    2157    2152    2151    2154  # HC-CT-CO-O2
   4451    8    2152    2153    2151    2154  # CT-O2-CO-O2
   4452    7    2162    2159    2158    2160  # HC-CT-CO-O2
   4453    7    2162    2159    2158    2161  # HC-CT-CO-O2
   4454    7    2163    2159    2158    2160  # HC-CT-CO-O2
   4455    7    2163    2159    2158    2161  # HC-CT-CO-O2
   4456    7    2164    2159    2158    2160  # HC-CT-CO-O2
   4457    7    2164    2159    2158    2161  # HC-CT-CO-O2
   4458    8    2159    2160    2158    2161  # CT-O2-CO-O2
   4459    7    2169    2166    2165    2167  # HC-CT-CO-O2
   4460    7    2169    2166    2165    2168  # HC-CT-CO-O2
   4461    7    2170    2166    2165    2167  # HC-CT-CO-O2
   4462    7    2170    2166    2165    2168  # HC-CT-CO-O2
   4463    7    2171    2166    2165    2167  # HC-CT-CO-O2
   4464    7    2171    2166    2165    2168  # HC-CT-CO-O2
   4465    8    2166    2167    2165    2168  # CT-O2-CO-O2
   4466    7    2176    2173    2172    2174  # HC-CT-CO-O2
   4467    7    2176    2173    2172    2175  # HC-CT-CO-O2
   4468    7    2177    2173    2172    2174  # HC-CT-CO-O2
   4469    7    2177    2173    2172    2175  # HC-CT-CO-O2
   4470    7    2178    2173    2172    2174  # HC-CT-CO-O2
   4471    7    2178    2173    2172    2175  # HC-CT-CO-O2
   4472    8    2173    2174    2172    2175  # CT-O2-CO-O2
   4473    7    2183    2180    2179    2181  # HC-CT-CO-O2
   4474    7    2183    2180    2179    2182  # HC-CT-CO-O2
   4475    7    2184    2180    2179    2181  # HC-CT-CO-O2
   4476    7    2184    2180    2179    2182  # HC-CT-CO-O2
   4477    7    2185    2180    2179    2181  # HC-CT-CO-O2
   4478    7    2185    2180    2179    2182  # HC-CT-CO-O2
   4479    8    2180    2181    2179    2182  # CT-O2-CO-O2
   4480    7    2190    2187    2186    2188  # HC-CT-CO-O2
   4481    7    2190    2187    2186    2189  # HC-CT-CO-O2
   4482    7    2191    2187    2186    2188  # HC-CT-CO-O2
   4483    7    2191    2187    2186    2189  # HC-CT-CO-O2
   4484    7    2192    2187    2186    2188  # HC-CT-CO-O2
   4485    7    2192    2187    2186    2189  # HC-CT-CO-O2
   4486    8    2187    2188    2186    2189  # CT-O2-CO-O2
   4487    7    2197    2194    2193    2195  # HC-CT-CO-O2
   4488    7    2197    2194    2193    2196  # HC-CT-CO-O2
   4489    7    2198    2194    2193    2195  # HC-CT-CO-O2
   4490    7    2198    2194    2193    2196  # HC-CT-CO-O2
   4491    7    2199    2194    2193    2195  # HC-CT-CO-O2
   4492    7    2199    2194    2193    2196  # HC-CT-CO-O2
   4493    8    2194    2195    2193    2196  # CT-O2-CO-O2
   4494    7    2204    2201    2200    2202  # HC-CT-CO-O2
   4495    7    2204    2201    2200    2203  # HC-CT-CO-O2
   4496    7    2205    2201    2200    2202  # HC-CT-CO-O2
   4497    7    2205    2201    2200    2203  # HC-CT-CO-O2
   4498    7    2206    2201    2200    2202  # HC-CT-CO-O2
   4499    7    2206    2201    2200    2203  # HC-CT-CO-O2
   4500    8    2201    2202    2200    2203  # CT-O2-CO-O2
   4501    7    2211    2208    2207    2209  # HC-CT-CO-O2
   4502    7    2211    2208    2207    2210  # HC-CT-CO-O2
   4503    7    2212    2208    2207    2209  # HC-CT-CO-O2
   4504    7    2212    2208    2207    2210  # HC-CT-CO-O2
   4505    7    2213    2208    2207    2209  # HC-CT-CO-O2
   4506    7    2213    2208    2207    2210  # HC-CT-CO-O2
   4507    8    2208    2209    2207    2210  # CT-O2-CO-O2
   4508    7    2218    2215    2214    2216  # HC-CT-CO-O2
   4509    7    2218    2215    2214    2217  # HC-CT-CO-O2
   4510    7    2219    2215    2214    2216  # HC-CT-CO-O2
   4511    7    2219    2215    2214    2217  # HC-CT-CO-O2
   4512    7    2220    2215    2214    2216  # HC-CT-CO-O2
   4513    7    2220    2215    2214    2217  # HC-CT-CO-O2
   4514    8    2215    2216    2214    2217  # CT-O2-CO-O2
   4515    7    2225    2222    2221    2223  # HC-CT-CO-O2
   4516    7    2225    2222    2221    2224  # HC-CT-CO-O2
   4517    7    2226    2222    2221    2223  # HC-CT-CO-O2
   4518    7    2226    2222    2221    2224  # HC-CT-CO-O2
   4519    7    2227    2222    2221    2223  # HC-CT-CO-O2
   4520    7    2227    2222    2221    2224  # HC-CT-CO-O2
   4521    8    2222    2223    2221    2224  # CT-O2-CO-O2
   4522    7    2232    2229    2228    2230  # HC-CT-CO-O2
   4523    7    2232    2229    2228    2231  # HC-CT-CO-O2
   4524    7    2233    2229    2228    2230  # HC-CT-CO-O2
   4525    7    2233    2229    2228    2231  # HC-CT-CO-O2
   4526    7    2234    2229    2228    2230  # HC-CT-CO-O2
   4527    7    2234    2229    2228    2231  # HC-CT-CO-O2
   4528    8    2229    2230    2228    2231  # CT-O2-CO-O2
   4529    7    2239    2236    2235    2237  # HC-CT-CO-O2
   4530    7    2239    2236    2235    2238  # HC-CT-CO-O2
   4531    7    2240    2236    2235    2237  # HC-CT-CO-O2
   4532    7    2240    2236    2235    2238  # HC-CT-CO-O2
   4533    7    2241    2236    2235    2237  # HC-CT-CO-O2
   4534    7    2241    2236    2235    2238  # HC-CT-CO-O2
   4535    8    2236    2237    2235    2238  # CT-O2-CO-O2
