LAMMPS (10 Dec 2025)
OMP_NUM_THREADS environment is not set. Defaulting to 1 thread.
  using 1 OpenMP thread(s) per MPI task
# created by fftool

units real
boundary p p p

atom_style full
bond_style harmonic
angle_style harmonic
dihedral_style opls

special_bonds lj/coul 0.0 0.0 0.5

# remove hybrid if not necessary
pair_style hybrid lj/cut/coul/long 10.0 10.0
pair_modify mix geometric tail yes
read_data data.lmp
Reading data file ...
  orthogonal box = (0 0 0) to (36.51 36.51 36.51)
  1 by 1 by 2 MPI processor grid
  reading atoms ...
  3130 atoms
  scanning bonds ...
  1 = max bonds/atom
  scanning angles ...
  6 = max angles/atom
  scanning dihedrals ...
  9 = max dihedrals/atom
  orthogonal box = (0 0 0) to (36.51 36.51 36.51)
  1 by 1 by 2 MPI processor grid
  reading bonds ...
  2682 bonds
  reading angles ...
  4097 angles
  reading dihedrals ...
  4535 dihedrals
Finding 1-2 1-3 1-4 neighbors ...
  special bond factors lj:    0        0        0.5     
  special bond factors coul:  0        0        0.5     
     4 = max # of 1-2 neighbors
     9 = max # of 1-3 neighbors
    18 = max # of 1-4 neighbors
    22 = max # of special neighbors
  special bonds CPU = 0.036 seconds
  read_data CPU = 0.296 seconds
# read_restart restart1.lmp

kspace_style pppm 1.0e-5

# remove pair style if not using hybrid
pair_coeff    1    1 lj/cut/coul/long     0.170000     3.250000  # N3 N3
pair_coeff    2    2 lj/cut/coul/long     0.065999     3.500000  # C1 C1
pair_coeff    3    3 lj/cut/coul/long     0.000000     1.000000  # H3 H3
pair_coeff    4    4 lj/cut/coul/long     0.065999     3.500000  # CE CE
pair_coeff    5    5 lj/cut/coul/long     0.030000     2.500000  # H1 H1
pair_coeff    6    6 lj/cut/coul/long     0.030000     2.500000  # HC HC
pair_coeff    7    7 lj/cut/coul/long     0.105000     3.750000  # CO2 CO2
pair_coeff    8    8 lj/cut/coul/long     0.065999     3.500000  # CTA CTA
pair_coeff    9    9 lj/cut/coul/long     0.210000     2.960000  # O2 O2
pair_coeff   10   10 lj/cut/coul/long     0.000000     1.000000  # Hw Hw
pair_coeff   11   11 lj/cut/coul/long     0.155425     3.165500  # Ow Ow
pair_coeff   12   12 lj/cut/coul/long     0.125643     2.995200  # Nd Nd

# minimize 1.0e-4 1.0e-6 100 1000
# reset_timestep 0

fix SHAKE all shake 0.0001 20 0 b 2 4 7
Finding SHAKE clusters ...
      74 = # of size 2 clusters
     518 = # of size 3 clusters
     299 = # of size 4 clusters
       0 = # of frozen angles
  find clusters CPU = 0.039 seconds

neighbor 2.0 bin
neigh_modify delay 0 every 1 check yes








#fix VAVG all ave/time 10 1000 50000 v_vinst

# ---------------------------------------------------------------------------
# RENEU 2026 simulation protocol (stage3b M6 triethylammonium acetate)
# 1 minimise  2 NVT relaxation  3 NPT equilibration  4 NPT production
# ---------------------------------------------------------------------------
timestep 1.0

variable TK      equal 300.0
variable PBAR    equal 1.0
variable NVTRUN  equal 20000
variable EQRUN   equal 100000
variable PRODRUN equal 200000

variable dens equal density
variable vol  equal vol

thermo 1000
thermo_style custom step temp press vol v_dens pe etotal

# --- 1. energy minimisation ------------------------------------------------
print "RENEU >>> stage 1 of 4: energy minimisation"
RENEU >>> stage 1 of 4: energy minimisation
minimize 1.0e-4 1.0e-6 10000 100000
PPPM initialization ...
  using 12-bit tables for long-range coulomb
  G vector (1/distance) = 0.28358546
  grid = 24 24 24
  stencil order = 5
  estimated absolute RMS force accuracy = 0.0038327489
  estimated relative force accuracy = 1.1542209e-05
  using double precision FFTW3
  3d grid and FFT values/proc = 18259 6912
Generated 66 of 66 mixed pair_coeff terms from geometric mixing rule
WARNING: Using fix shake with minimization.
  Substituting constraints with harmonic restraint forces using kbond=1987206.7 (src/RIGID/fix_shake.cpp:397)
Neighbor list info ...
  update: every = 1 steps, delay = 0 steps, check = yes
  max neighbors/atom: 2000, page size: 100000
  master list distance cutoff = 12
  ghost atom cutoff = 12
  binsize = 6, bins = 7 7 7
  1 neighbor lists, perpetual/occasional/extra = 1 0 0
  (1) pair lj/cut/coul/long, perpetual
      attributes: half, newton on
      pair build: half/bin/newton
      stencil: half/bin/3d
      bin: standard
Per MPI rank memory allocation (min/avg/max) = 17.37 | 17.56 | 17.75 Mbytes
   Step          Temp          Press          Volume         v_dens         PotEng         TotEng    
         0   0             -7336930.9      48667.103      0.60003868     109844.85      109844.85    
        37   0             -33530.249      48667.103      0.60003868     75.633092      75.633092    
Loop time of 6.87458 on 2 procs for 37 steps with 3130 atoms

99.8% CPU use with 2 MPI tasks x 1 OpenMP threads

Minimization stats:
  Stopping criterion = energy tolerance
  Energy initial, next-to-last, final = 
       109844.85149644   75.6345415925528   75.6330922327483
  Force two-norm initial, final = 1217474.7 17151.596
  Force max component initial, final = 73407.214 3604.6987
  Final line search alpha, max atom move = 6.9351862e-06 0.024999257
  Iterations, force evaluations = 37 152

MPI task timing breakdown:
Section |  min time  |  avg time  |  max time  |%varavg| %total
---------------------------------------------------------------
Pair    | 4.1355     | 4.2925     | 4.4496     |   7.6 | 62.44
Bond    | 0.24301    | 0.24711    | 0.25121    |   0.8 |  3.59
Kspace  | 1.7322     | 1.8802     | 2.0282     |  10.8 | 27.35
Neigh   | 0          | 0          | 0          |   0.0 |  0.00
Comm    | 0.24509    | 0.24545    | 0.2458     |   0.1 |  3.57
Output  | 0          | 0          | 0          |   0.0 |  0.00
Modify  | 0.06665    | 0.068949   | 0.071249   |   0.9 |  1.00
Other   |            | 0.1404     |            |       |  2.04

Nlocal:           1565 ave        1624 max        1506 min
Histogram: 1 0 0 0 0 0 0 0 0 1
Nghost:         7628.5 ave        7682 max        7575 min
Histogram: 1 0 0 0 0 0 0 0 0 1
Neighs:         400872 ave      415411 max      386332 min
Histogram: 1 0 0 0 0 0 0 0 0 1

Total # of neighbors = 801743
Ave neighs/atom = 256.14792
Ave special neighs/atom = 7.1801917
Neighbor list builds = 0
Dangerous builds = 0
reset_timestep 0

# --- 2. NVT relaxation (lets the packed box relax before the barostat) ------
print "RENEU >>> stage 2 of 4: NVT relaxation"
RENEU >>> stage 2 of 4: NVT relaxation
velocity all create ${TK} 12345 mom yes rot yes dist gaussian
velocity all create 300 12345 mom yes rot yes dist gaussian
fix NVTRELAX all nvt temp ${TK} ${TK} 100
fix NVTRELAX all nvt temp 300 ${TK} 100
fix NVTRELAX all nvt temp 300 300 100
run ${NVTRUN}
run 20000
PPPM initialization ...
  using 12-bit tables for long-range coulomb
  G vector (1/distance) = 0.28358546
  grid = 24 24 24
  stencil order = 5
  estimated absolute RMS force accuracy = 0.0038327489
  estimated relative force accuracy = 1.1542209e-05
  using double precision FFTW3
  3d grid and FFT values/proc = 18259 6912
Generated 66 of 66 mixed pair_coeff terms from geometric mixing rule
Per MPI rank memory allocation (min/avg/max) = 16.25 | 16.44 | 16.63 Mbytes
   Step          Temp          Press          Volume         v_dens         PotEng         TotEng    
         0   300            16677.815      48667.103      0.60003868     53.140063      2252.9779    
      1000   289.61259     -1162.6284      48667.103      0.60003868    -9806.078      -7682.4089    
      2000   294.68736     -661.80261      48667.103      0.60003868    -10285.221     -8124.3396    
      3000   300.50202     -1984.3643      48667.103      0.60003868    -10578.453     -8374.9342    
      4000   296.66246     -155.76612      48667.103      0.60003868    -10803.185     -8627.8209    
      5000   301.07508     -1489.6848      48667.103      0.60003868    -10794.101     -8586.3801    
      6000   293.40377     -1657.5843      48667.103      0.60003868    -10931.808     -8780.3393    
      7000   306.19957     -1318.6134      48667.103      0.60003868    -11076.686     -8831.3885    
      8000   309.06724     -1096.8341      48667.103      0.60003868    -11085.992     -8819.6664    
      9000   301.1622      -1009.3276      48667.103      0.60003868    -11208.082     -8999.7217    
     10000   299.91879     -1043.6163      48667.103      0.60003868    -11157.62      -8958.3775    
     11000   299.56961     -810.74052      48667.103      0.60003868    -11234.144     -9037.4623    
     12000   305.05634     -917.81431      48667.103      0.60003868    -11269.807     -9032.892     
     13000   301.31458     -706.56347      48667.103      0.60003868    -11281.608     -9072.1305    
     14000   291.87126     -1123.1044      48667.103      0.60003868    -11267.268     -9127.0365    
     15000   302.10028     -649.1709       48667.103      0.60003868    -11373.942     -9158.7034    
     16000   300.30827     -997.45886      48667.103      0.60003868    -11342.557     -9140.4588    
     17000   292.05274     -52.801465      48667.103      0.60003868    -11316.438     -9174.8761    
     18000   291.35308     -520.4404       48667.103      0.60003868    -11367.74      -9231.3083    
     19000   298.00914     -853.53293      48667.103      0.60003868    -11381.281     -9196.0414    
     20000   306.90544     -237.91789      48667.103      0.60003868    -11394.59      -9144.1164    
Loop time of 845.686 on 2 procs for 20000 steps with 3130 atoms

Performance: 2.043 ns/day, 11.746 hours/ns, 23.649 timesteps/s, 74.023 katom-step/s
98.9% CPU use with 2 MPI tasks x 1 OpenMP threads

MPI task timing breakdown:
Section |  min time  |  avg time  |  max time  |%varavg| %total
---------------------------------------------------------------
Pair    | 362.92     | 414.68     | 466.45     | 254.2 | 49.04
Bond    | 33.637     | 33.992     | 34.347     |   6.1 |  4.02
Kspace  | 249.56     | 299.98     | 350.4      | 291.1 | 35.47
Neigh   | 40.298     | 40.435     | 40.571     |   2.1 |  4.78
Comm    | 28.95      | 30.319     | 31.688     |  24.9 |  3.59
Output  | 0.0020175  | 0.0059456  | 0.0098737  |   5.1 |  0.00
Modify  | 22.149     | 22.33      | 22.512     |   3.8 |  2.64
Other   |            | 3.939      |            |       |  0.47

Nlocal:           1565 ave        1658 max        1472 min
Histogram: 1 0 0 0 0 0 0 0 0 1
Nghost:           6953 ave        7235 max        6671 min
Histogram: 1 0 0 0 0 0 0 0 0 1
Neighs:         439445 ave      501302 max      377588 min
Histogram: 1 0 0 0 0 0 0 0 0 1

Total # of neighbors = 878890
Ave neighs/atom = 280.79553
Ave special neighs/atom = 7.1801917
Neighbor list builds = 983
Dangerous builds = 0
unfix NVTRELAX

# --- 3. NPT equilibration (this is where the density finds its own value) ---
# restart files are written every 25000 steps. If the run stops for any
# reason you can pick up from the last one instead of starting over:
#     read_restart rst_a.lmp      (or rst_b.lmp, whichever is newer)
print "RENEU >>> stage 3 of 4: NPT equilibration - watch the density column"
RENEU >>> stage 3 of 4: NPT equilibration - watch the density column
restart 25000 rst_a.lmp rst_b.lmp
fix NPTEQ all npt temp ${TK} ${TK} 100 iso ${PBAR} ${PBAR} 1000
fix NPTEQ all npt temp 300 ${TK} 100 iso ${PBAR} ${PBAR} 1000
fix NPTEQ all npt temp 300 300 100 iso ${PBAR} ${PBAR} 1000
fix NPTEQ all npt temp 300 300 100 iso 1 ${PBAR} 1000
fix NPTEQ all npt temp 300 300 100 iso 1 1 1000
run ${EQRUN}
run 100000
PPPM initialization ...
  using 12-bit tables for long-range coulomb
  G vector (1/distance) = 0.28358546
  grid = 24 24 24
  stencil order = 5
  estimated absolute RMS force accuracy = 0.0038327489
  estimated relative force accuracy = 1.1542209e-05
  using double precision FFTW3
  3d grid and FFT values/proc = 18259 6912
Generated 66 of 66 mixed pair_coeff terms from geometric mixing rule
Per MPI rank memory allocation (min/avg/max) = 16.25 | 16.63 | 17.01 Mbytes
   Step          Temp          Press          Volume         v_dens         PotEng         TotEng    
     20000   306.90544     -238.07969      48667.103      0.60003868    -11394.59      -9144.1164    
     21000   289.02177      12.449274      44744.725      0.65263883    -11420.072     -9300.7351    
     22000   308.19434     -188.62844      42815.108      0.68205234    -11561.902     -9301.9769    
     23000   299.35505      235.3571       41494.976      0.70375133    -11501.465     -9306.3563    
     24000   290.28092     -726.8111       40938.249      0.71332178    -11534.899     -9406.3293    
     25000   300.43509      137.41973      39654.23       0.7364194     -11547.493     -9344.4649    
     26000   297.98436     -142.42681      38680.455      0.75495867    -11653.184     -9468.1268    
     27000   306.94419      80.027357      38641.604      0.75571771    -11610.499     -9359.7409    
     28000   305.47705     -1059.8009      37207.824      0.78483881    -11660.834     -9420.8337    
     29000   304.05598     -114.35639      36588.778      0.79811751    -11626.434     -9396.8548    
     30000   311.00676      426.33015      35791.784      0.8158896     -11666.321     -9385.7729    
     31000   291.80735      155.18876      35573.891      0.820887      -11695.088     -9555.3251    
     32000   308.06302      669.69787      34841.192      0.83814999    -11612.498     -9353.5357    
     33000   302.41944      825.92822      34318.64       0.85091205    -11696.427     -9478.8481    
     34000   304.80052     -445.95645      34650.872      0.84275353    -11687.824     -9452.7847    
     35000   306.64489      266.62087      33553.995      0.87030305    -11685.872     -9437.3086    
     36000   297.71528     -1231.2412      32665.194      0.89398351    -11829.282     -9646.1977    
     37000   304.131       -439.06451      33144.943      0.88104375    -11788.184     -9558.0547    
     38000   295.71113     -764.82315      32929.833      0.88679906    -11791.961     -9623.5728    
     39000   291.23987      334.36577      32218.417      0.90638049    -11859.307     -9723.7054    
     40000   301.50153     -387.89486      32043.097      0.91133965    -11796.568     -9585.7199    
     41000   297.85214     -1024.7912      32065.01       0.91071683    -11788.181     -9604.093     
     42000   305.72834      104.79846      31788.138      0.9186491     -11816.138     -9574.2959    
     43000   298.35861     -851.28656      31721.786      0.92057063    -11817.531     -9629.7287    
     44000   289.94266      26.893557      31437.007      0.92890983    -11842.341     -9716.2517    
     45000   304.84846     -1099.589       31007.509      0.94177655    -11859.578     -9624.1875    
     46000   309.51281     -760.6546       30559.717      0.95557641    -11910.579     -9640.9861    
     47000   296.80683     -491.08718      30843.188      0.94679396    -11862.349     -9685.9262    
     48000   304.65854     -142.80457      30820.154      0.94750157    -11792.438     -9558.4403    
     49000   298.53157      192.628        30252.074      0.96529397    -11931.319     -9742.249     
     50000   298.22061      56.300406      30420.561      0.9599476     -11958.953     -9772.1627    
     51000   302.26962      409.47737      30165.87       0.96805245    -11850.746     -9634.2659    
     52000   298.54263     -949.02597      30170.711      0.96789712    -11967.219     -9778.0679    
     53000   298.34041      1061.0489      30072.545      0.97105663    -11871.411     -9683.7428    
     54000   297.89315     -933.08382      29787.227      0.98035793    -11935.295     -9750.9064    
     55000   298.08266      498.32537      29835.527      0.97877088    -11961.713     -9775.9342    
     56000   297.11374     -1565.4075      29749.123      0.98161363    -11993.409     -9814.7353    
     57000   294.69024     -856.93658      30379.376      0.96124899    -11932.208     -9771.3053    
     58000   302.75624      122.48469      30173.38       0.9678115     -11902.492     -9682.4434    
     59000   290.33699     -840.66138      30090.237      0.9704857     -12001.67      -9872.6889    
     60000   305.46709      933.94697      29984.436      0.97391009    -11973.531     -9733.6038    
     61000   294.64897      397.86843      30069.802      0.97114524    -11941.754     -9781.1538    
     62000   304.25636     -281.8866       30173.166      0.96781839    -11986.314     -9755.2655    
     63000   297.16774     -364.48186      30024.392      0.97261402    -11974.535     -9795.4653    
     64000   294.87511     -258.29211      29982.908      0.97395972    -11903.361     -9741.1032    
     65000   309.50407     -105.87952      30199.365      0.96697877    -11925.978     -9656.4487    
     66000   303.97474     -519.80776      30180.003      0.96759912    -11929.487     -9700.5029    
     67000   289.14737     -436.23675      29710.567      0.98288747    -11918.418     -9798.1599    
     68000   303.44443     -190.97725      29798.192      0.97999718    -11933.085     -9707.9899    
     69000   302.89256      517.51511      29887.055      0.97708336    -11967.097     -9746.0482    
     70000   296.29931     -417.1514       29687.483      0.98365174    -11966.575     -9793.8734    
     71000   301.74408      1105.8469      29497.969      0.98997137    -11989.355     -9776.7282    
     72000   308.48013     -922.33732      29501.579      0.98985022    -11986.701     -9724.6799    
     73000   303.56508     -349.95734      29575.534      0.98737505    -12021.615     -9795.6351    
     74000   301.88317     -598.52735      29827.952      0.97901944    -11946.922     -9733.2749    
     75000   294.92593     -316.5928       29602.722      0.98646821    -12026.39      -9863.7596    
     76000   294.21262      632.97243      29382.649      0.99385677    -11989.901     -9832.5012    
     77000   302.06372     -735.88688      29566.109      0.9876898     -11966.211     -9751.2404    
     78000   292.50115     -256.42346      29876.612      0.97742488    -11953.461     -9808.6108    
     79000   304.58316      874.08298      29630.875      0.98553094    -12002.064     -9768.6191    
     80000   296.42441     -345.93273      29502.766      0.98981039    -12059.374     -9885.7555    
     81000   300.91175      257.87603      29813.341      0.97949922    -12001.198     -9794.6745    
     82000   301.56604     -195.14738      29533.247      0.98878881    -12030.551     -9819.23      
     83000   294.74673      648.00225      29477.069      0.99067329    -12050.107     -9888.7902    
     84000   308.74445      174.00297      29554.441      0.98807975    -11953.584     -9689.6254    
     85000   299.44526      299.40041      29617.953      0.98596092    -12020.69      -9824.9201    
     86000   296.82663     -279.25458      29704.08       0.98310213    -11966.756     -9790.1877    
     87000   304.56327      234.86349      29487.87       0.99031039    -11980.71      -9747.4102    
     88000   299.86262     -1497.821       29386.326      0.9937324     -12025.116     -9826.2851    
     89000   291.77873      386.28108      29113.127      1.0030577     -12085.585     -9946.032     
     90000   295.41859      460.53338      29639.958      0.98522896    -11952.695     -9786.4517    
     91000   297.67919     -1062.0167      29671.584      0.98417883    -12010.465     -9827.6455    
     92000   305.83414     -1100.021       29721.475      0.98252675    -11990.745     -9748.127     
     93000   304.29363      63.26941       29303.709      0.99653407    -12041.725     -9810.4031    
     94000   293.92565     -1484.3306      29702.723      0.98314706    -11970.184     -9814.888     
     95000   302.23288     -299.63691      29736.126      0.98204268    -12074.73      -9858.519     
     96000   303.52924      1219.7578      29420.296      0.992585      -12018.934     -9793.2174    
     97000   308.32801     -168.06004      29288.906      0.99703774    -12033.421     -9772.516     
     98000   300.96615      148.68606      29548.548      0.98827679    -11981.072     -9774.1498    
     99000   302.82426      417.17992      29422.156      0.99252225    -11949.237     -9728.6896    
    100000   296.23205     -376.06774      28999.275      1.0069957     -12084.56      -9912.3516    
    101000   299.29659      256.98042      29247.523      0.99844846    -12086.228     -9891.5481    
    102000   302.74094     -961.60608      29357.874      0.99469547    -11990.87      -9770.9329    
    103000   301.52365      494.04872      29337.943      0.99537122    -12084.731     -9873.7207    
    104000   312.37361     -703.55003      29379.629      0.99395894    -12057.693     -9767.1218    
    105000   301.60532     -616.42407      29344.159      0.99516039    -12003.295     -9791.6858    
    106000   297.71631      1239.9187      29135.806      1.0022769     -12072.009     -9888.9165    
    107000   300.77421     -486.00122      29154.166      1.0016457     -12104.812     -9899.2968    
    108000   307.60914      499.36408      29131.646      1.00242       -12059.307     -9803.6734    
    109000   288.32746     -791.1733       29394.879      0.99344326    -11993.583     -9879.3374    
    110000   300.78385     -245.72857      29349.205      0.99498929    -12076.608     -9871.0225    
    111000   298.13969     -1381.1746      29411.502      0.99288177    -12118.116     -9931.9194    
    112000   296.36255     -854.41959      29559.296      0.98791746    -12028.759     -9855.5943    
    113000   303.11527      2080.8499      29222.569      0.99930108    -11960.823     -9738.1413    
    114000   302.89914      864.32082      29423.317      0.99248308    -12075.245     -9854.1488    
    115000   304.03577     -131.30415      29510.608      0.98954736    -12069.973     -9840.5413    
    116000   310.00131     -54.951948      29412.696      0.99284149    -12011.634     -9738.4589    
    117000   298.88591     -243.16086      29361.357      0.9945775     -12064.183     -9872.5142    
    118000   293.13699     -1254.6803      29234.821      0.99888229    -12102.021     -9952.5082    
    119000   301.18961     -1310.2202      29269.059      0.99771383    -12052.015     -9843.4539    
    120000   301.86246      201.42121      29337.619      0.99538224    -11946.224     -9732.7292    
Loop time of 5764.96 on 2 procs for 100000 steps with 3130 atoms

Performance: 1.499 ns/day, 16.014 hours/ns, 17.346 timesteps/s, 54.294 katom-step/s
97.4% CPU use with 2 MPI tasks x 1 OpenMP threads

MPI task timing breakdown:
Section |  min time  |  avg time  |  max time  |%varavg| %total
---------------------------------------------------------------
Pair    | 2977.9     | 3093.5     | 3209.1     | 207.9 | 53.66
Bond    | 196.99     | 197.81     | 198.63     |   5.8 |  3.43
Kspace  | 1432.7     | 1547.4     | 1662.1     | 291.6 | 26.84
Neigh   | 238.19     | 238.61     | 239.03     |   2.7 |  4.14
Comm    | 174.43     | 175.84     | 177.25     |  10.6 |  3.05
Output  | 0.036076   | 0.080083   | 0.12409    |  15.6 |  0.00
Modify  | 447.12     | 447.15     | 447.18     |   0.1 |  7.76
Other   |            | 64.59      |            |       |  1.12

Nlocal:           1565 ave        1601 max        1529 min
Histogram: 1 0 0 0 0 0 0 0 0 1
Nghost:        11102.5 ave       11181 max       11024 min
Histogram: 1 0 0 0 0 0 0 0 0 1
Neighs:         606030 ave      615168 max      596892 min
Histogram: 1 0 0 0 0 0 0 0 0 1

Total # of neighbors = 1212060
Ave neighs/atom = 387.23962
Ave special neighs/atom = 7.1801917
Neighbor list builds = 3884
Dangerous builds = 0
unfix NPTEQ
write_data data.after_equilibration.lmp
System init for write_data ...
PPPM initialization ...
  using 12-bit tables for long-range coulomb
  G vector (1/distance) = 0.29670633
  grid = 24 24 24
  stencil order = 5
  estimated absolute RMS force accuracy = 0.0023054525
  estimated relative force accuracy = 6.9428018e-06
  using double precision FFTW3
  3d grid and FFT values/proc = 18259 6912
Generated 66 of 66 mixed pair_coeff terms from geometric mixing rule

# --- 4. NPT production - this is the trajectory you analyse ----------------
print "RENEU >>> stage 4 of 4: NPT production"
RENEU >>> stage 4 of 4: NPT production
reset_timestep 0
fix NPTPROD all npt temp ${TK} ${TK} 100 iso ${PBAR} ${PBAR} 1000
fix NPTPROD all npt temp 300 ${TK} 100 iso ${PBAR} ${PBAR} 1000
fix NPTPROD all npt temp 300 300 100 iso ${PBAR} ${PBAR} 1000
fix NPTPROD all npt temp 300 300 100 iso 1 ${PBAR} 1000
fix NPTPROD all npt temp 300 300 100 iso 1 1 1000
fix DENSAVG all ave/time 10 100 1000 v_dens v_vol file density.dat

dump TRAJ all custom 500 dump.lammpstrj id mol type element q xu yu zu
dump_modify TRAJ element N C H C H H C C O H O N

run ${PRODRUN}
run 200000
PPPM initialization ...
  using 12-bit tables for long-range coulomb
  G vector (1/distance) = 0.29670633
  grid = 24 24 24
  stencil order = 5
  estimated absolute RMS force accuracy = 0.0023054525
  estimated relative force accuracy = 6.9428018e-06
  using double precision FFTW3
  3d grid and FFT values/proc = 18259 6912
Generated 66 of 66 mixed pair_coeff terms from geometric mixing rule
Per MPI rank memory allocation (min/avg/max) = 17.56 | 17.56 | 17.56 Mbytes
   Step          Temp          Press          Volume         v_dens         PotEng         TotEng    
         0   301.86246      300.353        29337.619      0.99538224    -11946.202     -9732.7068    
      1000   303.41974     -493.61863      29384.406      0.99379732    -12066.295     -9841.3813    
      2000   297.86041      455.02451      29022.669      1.006184      -12110.987     -9926.8383    
      3000   301.94137      350.13446      29145.092      1.0019575     -12063.37      -9849.2966    
      4000   297.50959      977.59765      29221.193      0.99934813    -12112.404     -9930.828     
      5000   296.30416     -301.37998      29252.159      0.99829024    -12041.239     -9868.502     
      6000   308.19011     -354.72151      29066.286      1.0046741     -12113.468     -9853.574     
      7000   297.91007     -95.759925      28989.96       1.0073193     -12042.678     -9858.1651    
      8000   304.02801      848.66947      29209.83       0.9997369     -12105.418     -9876.0437    
      9000   288.34119     -173.22004      29341.227      0.99525984    -12105.309     -9990.9625    
     10000   302.0235       733.31157      29164.843      1.001279      -12108.047     -9893.3711    
     11000   286.31931      512.056        29113.095      1.0030587     -12099.83      -10000.31     
     12000   303.77469      650.74294      29206.008      0.9998677     -12140.684     -9913.1674    
     13000   305.07644     -1029.0739      29254.595      0.99820712    -12070.747     -9833.6849    
     14000   293.08955      1514.6069      29013.89       1.0064884     -12083.612     -9934.4467    
     15000   300.81228     -1247.0418      29207.808      0.99980608    -12076.064     -9870.2703    
     16000   307.74174      41.900712      28942.42       1.0089738     -12068.752     -9812.1457    
     17000   293.84708      1308.9483      29142.005      1.0020637     -12016.763     -9862.0431    
     18000   300.71443     -515.47034      29068.066      1.0046126     -12056.392     -9851.3156    
     19000   302.61787      1084.747       28869.886      1.0115088     -12166.879     -9947.8452    
     20000   296.77605      823.64997      28768.617      1.0150695     -12054.697     -9878.5002    
     21000   302.53098     -81.652547      29116.759      1.0029325     -12070.762     -9852.3653    
     22000   300.83476      555.3846       29032.296      1.0058503     -12094.464     -9888.5053    
     23000   297.2545      -344.54684      29357.907      0.99469437    -12023.034     -9843.3286    
     24000   302.94064     -330.23079      29255.035      0.9981921     -12006.799     -9785.3985    
     25000   293.01575     -64.095895      29164.253      1.0012992     -12072.083     -9923.4591    
     26000   290.7234      -1115.9323      28977.866      1.0077396     -12112.336     -9980.522     
     27000   299.40364     -186.42561      28863.397      1.0117362     -12055.609     -9860.1447    
     28000   310.67618      634.3354       28675.529      1.0183646     -12029.818     -9751.6943    
     29000   292.683       -77.804854      28967.99       1.0080832     -12054.303     -9908.1193    
     30000   300.07508      975.37553      28883.43       1.0110345     -12054.137     -9853.7486    
     31000   310.41454     -213.57223      28732.12       1.0163588     -12060.378     -9784.1724    
     32000   295.6776      -42.100753      28882.151      1.0110793     -12074.147     -9906.0049    
     33000   304.41041      1096.3766      28768.615      1.0150695     -12077.647     -9845.469     
     34000   296.03454      816.37948      28960.291      1.0083512     -12043.226     -9872.4659    
     35000   299.11635     -212.71477      28726.107      1.0165716     -12066.311     -9872.9529    
     36000   305.23737      498.84141      28756.819      1.0154859     -12087.566     -9849.3236    
     37000   301.43903     -954.29422      28833.951      1.0127694     -12008.589     -9798.1986    
     38000   301.83277      141.10923      28788.429      1.0143709     -12091.003     -9877.7254    
     39000   297.72977     -357.84851      28757.019      1.0154788     -12055.539     -9872.3483    
     40000   289.4807       222.24596      28695.744      1.0176472     -12091.011     -9968.3095    
     41000   291.77533      170.91308      28638.636      1.0196765     -11971.731     -9832.2032    
     42000   294.42972      533.34375      28506.716      1.0243953     -12095.302     -9936.3094    
     43000   306.29961     -1167.5644      28763.373      1.0152545     -12065.327     -9819.2954    
     44000   295.16247     -1315.2454      28561.328      1.0224365     -12090.702     -9926.337     
     45000   300.90643      229.65617      28543.632      1.0230704     -12098.275     -9891.7902    
     46000   299.13564     -73.459298      28637.81       1.0197059     -12127.111     -9933.6118    
     47000   306.9828      -589.99108      28555.041      1.0226616     -12156.285     -9905.2436    
     48000   301.20645      217.13116      28460.457      1.0260603     -12128.939     -9920.2545    
     49000   311.34702     -1427.5837      28736.14       1.0162167     -12097.931     -9814.888     
     50000   302.17237     -259.38354      28794.537      1.0141557     -12152.717     -9936.9493    
     51000   294.84436     -392.90722      28625.369      1.0201491     -12100.445     -9938.4121    
     52000   302.17245      814.00474      28871.199      1.0114628     -12051.101     -9835.3327    
     53000   307.13657     -946.22976      28467.401      1.02581       -12120.53      -9868.3615    
     54000   302.52725      1213.0936      28478.342      1.0254159     -12174.105     -9955.7353    
     55000   285.93433      338.69645      28610.501      1.0206792     -12116.563     -10019.866    
     56000   302.63172     -1418.3366      28723.559      1.0166618     -12078.633     -9859.4975    
     57000   290.07736      455.27448      28974.958      1.0078408     -12091.175     -9964.0982    
     58000   298.41462     -793.72753      28883.278      1.0110398     -12012.592     -9824.3796    
     59000   301.56537     -1691.9677      28726.183      1.0165689     -12122.425     -9911.1089    
     60000   304.53335     -326.77051      28773.28       1.0149049     -12067.175     -9834.095     
     61000   298.00614      217.7139       28688.447      1.0179061     -12126.17      -9940.9529    
     62000   301.57561     -457.29496      28485.349      1.0251637     -12031.089     -9819.6977    
     63000   299.68834      632.7688       28615.815      1.0204897     -12073.349     -9875.7965    
     64000   305.89195      921.32834      28411.172      1.0278402     -12211.07      -9968.0275    
     65000   298.12469      1270.2607      28438.939      1.0268366     -12045.9       -9859.8136    
     66000   302.20259     -120.05605      28433.542      1.0270315     -12178.789     -9962.8004    
     67000   302.60317     -4.868696       28651.166      1.0192306     -12067.863     -9848.9366    
     68000   295.41368     -1252.8155      28745.756      1.0158767     -12042.009     -9875.8021    
     69000   305.37833      85.180819      28831.259      1.012864      -12062.25      -9822.9736    
     70000   307.70375     -603.32882      28646.933      1.0193812     -12079.777     -9823.4494    
     71000   294.99212     -784.66983      28600.195      1.021047      -12058.439     -9895.3227    
     72000   304.01324     -1153.0587      28727.029      1.016539      -12011.002     -9781.7356    
     73000   294.30867     -845.66668      28728.877      1.0164736     -12109.664     -9951.5591    
     74000   300.03665      1326.0002      28545.38       1.0230077     -12061.107     -9861.0002    
     75000   298.46017     -372.73669      28526.068      1.0237003     -12103.028     -9914.4817    
     76000   304.38808      1147.41        28139.311      1.0377704     -12045.525     -9813.5101    
     77000   294.09465      338.59151      28520.759      1.0238909     -12117.039     -9960.5041    
     78000   299.68709      372.12332      28623.774      1.020206      -12120.054     -9922.5106    
     79000   305.0974       237.35679      28484.213      1.0252046     -12038.371     -9801.1547    
     80000   301.17466      168.09146      28703.044      1.0173884     -12106.087     -9897.6355    
     81000   297.40786      451.02782      28326.356      1.0309178     -12092.285     -9911.4547    
     82000   292.42245     -278.39683      28234.484      1.0342723     -12075.08      -9930.8066    
     83000   294.09047     -50.302328      28378.166      1.0290356     -12081.586     -9925.081     
     84000   302.90358      393.82665      28668.493      1.0186146     -12040.181     -9819.0519    
     85000   308.18487      1237.8505      28304.574      1.0317111     -12178.852     -9918.9964    
     86000   298.93992     -557.19649      28523.241      1.0238017     -12086.238     -9894.1733    
     87000   299.93193     -231.01612      28639.541      1.0196443     -12099.139     -9899.8006    
     88000   296.94913     -1769.9396      28653.143      1.0191602     -12087.775     -9910.3089    
     89000   300.76134     -896.74217      28697.359      1.01759       -12112.474     -9907.053     
     90000   304.07331     -1327.1448      28849.533      1.0122224     -12065.212     -9835.5056    
     91000   298.11416      338.08975      28496.365      1.0247673     -12065.45      -9879.4403    
     92000   299.39746     -35.024533      28509.166      1.0243072     -12104.531     -9909.1118    
     93000   301.66699      769.12132      28405.364      1.0280504     -12069.892     -9857.8305    
     94000   301.16627      369.80865      28384.291      1.0288136     -12084.484     -9876.0938    
     95000   299.982        1153.8534      28499.458      1.0246561     -12111.852     -9912.146     
     96000   300.06762     -1387.2138      28944.792      1.0088912     -12009.637     -9809.3031    
     97000   293.63935     -441.42004      28588.273      1.0214729     -12041.065     -9887.8682    
     98000   299.35419      118.65952      28654.686      1.0191054     -12159.577     -9964.4744    
     99000   301.68163      195.89896      28600.012      1.0210536     -12084.362     -9872.1935    
    100000   310.36082      564.14349      28286.408      1.0323737     -12113.263     -9837.4515    
    101000   295.61511      407.11239      28336.943      1.0305326     -12126.455     -9958.7708    
    102000   304.17128      664.42677      28269.9        1.0329766     -12138.849     -9908.4239    
    103000   293.19366      7.1009744      28181.295      1.0362243     -12148.016     -9998.0881    
    104000   294.49987     -358.01267      28508.852      1.0243185     -12110.708     -9951.2017    
    105000   298.97108     -447.70021      28594.084      1.0212653     -12029.575     -9837.2821    
    106000   295.61705     -1302.6286      28636.688      1.0197459     -12059.611     -9891.9121    
    107000   304.15376      1996.1324      28453.491      1.0263115     -12136.837     -9906.541     
    108000   298.80266      151.35988      28249.929      1.0337068     -12091.45      -9900.3917    
    109000   300.80924      749.44384      28144.705      1.0375715     -12167.303     -9961.5314    
    110000   306.57565      1218.5264      28458.115      1.0261447     -12032.914     -9784.8581    
    111000   301.35167     -551.47379      28281.261      1.0325616     -12218.923     -10009.174    
    112000   303.83181      24.417552      28178.999      1.0363088     -12130.842     -9902.9066    
    113000   299.78622     -859.08274      28392.058      1.0285322     -12159.786     -9961.5159    
    114000   308.34564      870.70863      28491.645      1.0249371     -12053.845     -9792.8101    
    115000   299.70519      1901.4963      28351.981      1.0299861     -12138.269     -9940.5934    
    116000   300.01139      932.00286      28553.909      1.0227022     -12094.926     -9895.0044    
    117000   305.30486      584.85414      28370.087      1.0293287     -12133.141     -9894.404     
    118000   295.91184      536.93177      28161.765      1.036943      -12113.214     -9943.3534    
    119000   294.72721     -215.1857       28230.521      1.0344175     -12088.566     -9927.3925    
    120000   299.21541      465.1633       28278.364      1.0326674     -12108.89      -9914.8058    
    121000   306.23778      434.77118      28134.565      1.0379455     -12099.264     -9853.6862    
    122000   294.07039      120.9386       28304.102      1.0317283     -12091.912     -9935.555     
    123000   300.89727     -102.70309      28451.092      1.026398      -12156.519     -9950.1018    
    124000   303.02404     -422.96273      28205.555      1.0353331     -12140.634     -9918.6211    
    125000   305.45079     -601.68615      28146.247      1.0375147     -12179.951     -9940.1438    
    126000   301.19061      146.7188       28370.432      1.0293162     -12087.348     -9878.7792    
    127000   297.21504     -1457.1936      28346.137      1.0301984     -12161.145     -9981.7289    
    128000   299.50164     -140.57374      28336.869      1.0305353     -12118.452     -9922.2686    
    129000   292.03582      1569.7423      28155.585      1.0371706     -12134.684     -9993.246     
    130000   303.75458      883.4354       28175.637      1.0364325     -12114.005     -9886.6351    
    131000   301.52886     -473.85282      28463.681      1.0259441     -12159.538     -9948.4895    
    132000   301.10889     -1088.1164      28615.629      1.0204963     -12145.379     -9937.4095    
    133000   304.95028     -730.68484      28465.394      1.0258823     -12066.894     -9830.7567    
    134000   297.98198     -970.54078      28524.825      1.0237449     -12133.09      -9948.0501    
    135000   308.09406     -354.96234      28589.477      1.0214298     -12120.883     -9861.6929    
    136000   299.81046     -206.02068      28481.362      1.0253072     -12105.522     -9907.0744    
    137000   292.51832     -999.19733      28450.077      1.0264346     -12127.67      -9982.6939    
    138000   300.65833     -199.36924      28465.25       1.0258875     -12097.769     -9893.1036    
    139000   302.74126     -1024.9102      28424.151      1.0273709     -12134.51      -9914.5713    
    140000   297.84733     -755.06127      28224.057      1.0346544     -12149.847     -9965.7945    
    141000   304.27058     -321.06765      28300.439      1.0318619     -12076.391     -9845.2375    
    142000   302.95426     -344.42763      28211.57       1.0351124     -12074.369     -9852.8679    
    143000   287.83836      608.52922      28282.433      1.0325188     -12041.094     -9930.4349    
    144000   301.92968     -311.42164      28513.291      1.024159      -12162.48      -9948.4927    
    145000   300.83996     -450.75348      28524.737      1.0237481     -12144.295     -9938.2975    
    146000   307.66786      769.97948      28200.941      1.0355025     -12108.285     -9852.2208    
    147000   296.38724     -926.3731       28643.376      1.0195078     -12062.502     -9889.1556    
    148000   298.83474     -153.73578      28699.913      1.0174994     -12132.311     -9941.0177    
    149000   303.36084     -708.75321      28336.304      1.0305559     -12183.708     -9959.2256    
    150000   301.61319     -1584.4933      28458.852      1.0261181     -12112.856     -9901.189     
    151000   296.35878      220.36704      28167.04       1.0367488     -12129.514     -9956.3763    
    152000   290.94291     -608.41148      28305.71       1.0316697     -12153.764     -10020.34     
    153000   298.63053      789.5364       28349.016      1.0300938     -12128.21      -9938.4138    
    154000   296.82143      324.62196      28435.356      1.026966      -12137.348     -9960.818     
    155000   291.31939      765.21837      28469.311      1.0257412     -12211.482     -10075.298    
    156000   298.85287     -890.77922      28279.306      1.032633      -12108.989     -9917.5632    
    157000   302.75347     -197.01996      28345.263      1.0302301     -12154.313     -9934.2849    
    158000   294.56966     -1508.658       28341.241      1.0303764     -12204.088     -10044.069    
    159000   306.31479      577.94154      28149.568      1.0373923     -12112.411     -9866.2677    
    160000   298.04999     -455.79686      28353.094      1.0299456     -12149.116     -9963.5772    
    161000   306.52199      1086.1823      27960.985      1.044389      -12111.722     -9864.0601    
    162000   305.97783      1347.2769      28270.934      1.0329388     -12146.631     -9902.959     
    163000   297.89753      895.04796      28071.191      1.0402887     -12190.856     -10006.435    
    164000   295.07499     -1028.7349      28069.847      1.0403386     -12147.525     -9983.8008    
    165000   298.93033     -285.5525       28356.19       1.0298331     -12131.354     -9939.3603    
    166000   300.73835      241.75841      28128.443      1.0381714     -12284.361     -10079.109    
    167000   293.49234      1820.1851      28093.294      1.0394703     -12155.795     -10003.676    
    168000   297.94392     -200.94317      28246.781      1.033822      -12139.744     -9954.983     
    169000   301.87339     -585.25491      28229.875      1.0344412     -12177.564     -9963.9892    
    170000   296.12427     -694.52934      28512.054      1.0242035     -12215.29      -10043.872    
    171000   302.6171       488.52806      28307.335      1.0316105     -12085.905     -9866.8767    
    172000   294.62096      142.31164      28298.637      1.0319276     -12117.677     -9957.2826    
    173000   295.74105      487.76482      28426.677      1.0272796     -12081.938     -9913.3306    
    174000   305.85374     -329.8381       28284.466      1.0324446     -12099.736     -9856.9742    
    175000   296.27202     -182.14843      28279.287      1.0326337     -12116.525     -9944.0235    
    176000   301.86403     -89.745235      28177.498      1.036364      -12166.381     -9952.8745    
    177000   310.70955     -1032.5745      28337.839      1.0305001     -12165.297     -9886.9283    
    178000   296.0439       395.49235      28277.561      1.0326967     -12072.379     -9901.55      
    179000   302.18703     -255.82644      28296.057      1.0320217     -12162.891     -9947.0166    
    180000   302.22941      586.37522      28320.538      1.0311296     -12124.448     -9908.2626    
    181000   306.28169      2079.2549      28158.928      1.0370474     -12138.774     -9892.8734    
    182000   295.15634     -500.26329      28205.678      1.0353286     -12123.455     -9959.1352    
    183000   298.51786      808.98043      28187.746      1.0359872     -12206.981     -10018.011    
    184000   300.56274     -35.512753      28287.611      1.0323298     -12181.232     -9977.2676    
    185000   299.27426     -1603.3699      28387.105      1.0287116     -12103.92      -9909.4039    
    186000   288.97102     -134.24621      28300.854      1.0318468     -12144.781     -10025.816    
    187000   302.84434     -504.53396      28316.82       1.031265      -12167.272     -9946.5768    
    188000   303.44577      51.618075      28519.436      1.0239384     -12140.118     -9915.0129    
    189000   292.1806      -1010.5057      28047.992      1.0411492     -12188.801     -10046.301    
    190000   305.1107      -1457.9238      28443.982      1.0266546     -12150.71      -9913.396     
    191000   301.75691     -1432.2162      28737.713      1.016161      -12085.184     -9872.4633    
    192000   297.6045      -1232.4681      28254.391      1.0335436     -12125.456     -9943.1837    
    193000   299.28354     -410.39321      28073.09       1.0402184     -12075.465     -9880.8804    
    194000   299.14181      67.189865      27898.916      1.0467125     -12165.861     -9972.3165    
    195000   301.28391     -392.18822      28222.28       1.0347195     -12123.809     -9914.5563    
    196000   290.2208      -596.11179      28372.262      1.0292498     -12115.043     -9986.9141    
    197000   305.29555      1016.8919      28305.428      1.03168       -12098.275     -9859.6055    
    198000   305.93722      565.74919      28050.832      1.0410438     -12187.401     -9944.0269    
    199000   302.00637     -500.06478      28071.458      1.0402788     -12153.081     -9938.5309    
    200000   312.85208     -524.95651      28175.978      1.0364199     -12143.5       -9849.4207    
Loop time of 12256.1 on 2 procs for 200000 steps with 3130 atoms

Performance: 1.410 ns/day, 17.022 hours/ns, 16.318 timesteps/s, 51.077 katom-step/s
97.4% CPU use with 2 MPI tasks x 1 OpenMP threads

MPI task timing breakdown:
Section |  min time  |  avg time  |  max time  |%varavg| %total
---------------------------------------------------------------
Pair    | 6902.5     | 6936.3     | 6970       |  40.6 | 56.59
Bond    | 398.49     | 403.58     | 408.67     |  25.3 |  3.29
Kspace  | 3006.7     | 3035.5     | 3064.2     |  52.2 | 24.77
Neigh   | 467.77     | 468.09     | 468.41     |   1.5 |  3.82
Comm    | 354.36     | 354.66     | 354.95     |   1.6 |  2.89
Output  | 22.33      | 25.884     | 29.438     |  69.9 |  0.21
Modify  | 899.56     | 907.47     | 915.38     |  26.3 |  7.40
Other   |            | 124.6      |            |       |  1.02

Nlocal:           1565 ave        1570 max        1560 min
Histogram: 1 0 0 0 0 0 0 0 0 1
Nghost:          11358 ave       11407 max       11309 min
Histogram: 1 0 0 0 0 0 0 0 0 1
Neighs:         628610 ave      647580 max      609641 min
Histogram: 1 0 0 0 0 0 0 0 0 1

Total # of neighbors = 1257221
Ave neighs/atom = 401.66805
Ave special neighs/atom = 7.1801917
Neighbor list builds = 7577
Dangerous builds = 0

write_data data.final.lmp
System init for write_data ...
PPPM initialization ...
  using 12-bit tables for long-range coulomb
  G vector (1/distance) = 0.29772694
  grid = 24 24 24
  stencil order = 5
  estimated absolute RMS force accuracy = 0.0022140062
  estimated relative force accuracy = 6.667414e-06
  using double precision FFTW3
  3d grid and FFT values/proc = 18259 6912
Generated 66 of 66 mixed pair_coeff terms from geometric mixing rule
print "RENEU >>> finished. trajectory = dump.lammpstrj, density log = density.dat"
RENEU >>> finished. trajectory = dump.lammpstrj, density log = density.dat
Total wall time: 5:14:37
