LAMMPS (10 Dec 2025)
OMP_NUM_THREADS environment is not set. Defaulting to 1 thread.
  using 1 OpenMP thread(s) per MPI task
# created by fftool

units real
boundary p p p

atom_style full
bond_style harmonic
angle_style harmonic
dihedral_style opls

special_bonds lj/coul 0.0 0.0 0.5

# remove hybrid if not necessary
pair_style hybrid lj/cut/coul/long 10.0 10.0
pair_modify mix geometric tail yes
read_data data.lmp
Reading data file ...
  orthogonal box = (0 0 0) to (31.95 31.95 31.95)
  1 by 1 by 2 MPI processor grid
  reading atoms ...
  2304 atoms
  scanning bonds ...
  1 = max bonds/atom
  scanning angles ...
  6 = max angles/atom
  scanning dihedrals ...
  9 = max dihedrals/atom
  orthogonal box = (0 0 0) to (31.95 31.95 31.95)
  1 by 1 by 2 MPI processor grid
  reading bonds ...
  2208 bonds
  reading angles ...
  4176 angles
  reading dihedrals ...
  5520 dihedrals
Finding 1-2 1-3 1-4 neighbors ...
  special bond factors lj:    0        0        0.5     
  special bond factors coul:  0        0        0.5     
     4 = max # of 1-2 neighbors
     6 = max # of 1-3 neighbors
    12 = max # of 1-4 neighbors
    16 = max # of special neighbors
  special bonds CPU = 0.009 seconds
  read_data CPU = 0.437 seconds
# read_restart restart1.lmp

kspace_style pppm 1.0e-5

# remove pair style if not using hybrid
pair_coeff    1    1 lj/cut/coul/long     0.170000     3.250000  # N1 N1
pair_coeff    2    2 lj/cut/coul/long     0.065999     3.500000  # C1N C1N
pair_coeff    3    3 lj/cut/coul/long     0.000000     0.000000  # HN HN
pair_coeff    4    4 lj/cut/coul/long     0.065999     3.500000  # CS CS
pair_coeff    5    5 lj/cut/coul/long     0.030000     2.500000  # H1N H1N
pair_coeff    6    6 lj/cut/coul/long     0.030000     2.500000  # HC HC
pair_coeff    7    7 lj/cut/coul/long     0.065999     3.500000  # CEN CEN
pair_coeff    8    8 lj/cut/coul/long     0.030000     2.500000  # HCN HCN
pair_coeff    9    9 lj/cut/coul/long     0.105000     3.750000  # CO2 CO2
pair_coeff   10   10 lj/cut/coul/long     0.065999     3.500000  # C2C C2C
pair_coeff   11   11 lj/cut/coul/long     0.210000     2.960000  # O2 O2
pair_coeff   12   12 lj/cut/coul/long     0.065999     3.500000  # CT CT

# minimize 1.0e-4 1.0e-6 100 1000
# reset_timestep 0

fix SHAKE all shake 0.0001 20 0 b 2 4
Finding SHAKE clusters ...
       0 = # of size 2 clusters
     528 = # of size 3 clusters
     144 = # of size 4 clusters
       0 = # of frozen angles
  find clusters CPU = 0.045 seconds

neighbor 2.0 bin
neigh_modify delay 0 every 1 check yes








#fix VAVG all ave/time 10 1000 50000 v_vinst

# ---------------------------------------------------------------------------
# RENEU 2026 simulation protocol (stage1 M3 hexylammonium octanoate)
# 1 minimise  2 NVT relaxation  3 NPT equilibration  4 NPT production
# ---------------------------------------------------------------------------
timestep 1.0

variable TK      equal 300.0
variable PBAR    equal 1.0
variable NVTRUN  equal 20000
variable EQRUN   equal 100000
variable PRODRUN equal 200000

variable dens equal density
variable vol  equal vol

thermo 1000
thermo_style custom step temp press vol v_dens pe etotal

# --- 1. energy minimisation ------------------------------------------------
print "RENEU >>> stage 1 of 4: energy minimisation"
RENEU >>> stage 1 of 4: energy minimisation
minimize 1.0e-4 1.0e-6 10000 100000
PPPM initialization ...
  using 12-bit tables for long-range coulomb
  G vector (1/distance) = 0.27102009
  grid = 18 18 18
  stencil order = 5
  estimated absolute RMS force accuracy = 0.0030430332
  estimated relative force accuracy = 9.1640042e-06
  using double precision FFTW3
  3d grid and FFT values/proc = 10000 2916
Generated 66 of 66 mixed pair_coeff terms from geometric mixing rule
WARNING: Using fix shake with minimization.
  Substituting constraints with harmonic restraint forces using kbond=1987206.7 (src/RIGID/fix_shake.cpp:397)
Neighbor list info ...
  update: every = 1 steps, delay = 0 steps, check = yes
  max neighbors/atom: 2000, page size: 100000
  master list distance cutoff = 12
  ghost atom cutoff = 12
  binsize = 6, bins = 6 6 6
  1 neighbor lists, perpetual/occasional/extra = 1 0 0
  (1) pair lj/cut/coul/long, perpetual
      attributes: half, newton on
      pair build: half/bin/newton
      stencil: half/bin/3d
      bin: standard
Per MPI rank memory allocation (min/avg/max) = 15.93 | 16.12 | 16.31 Mbytes
   Step          Temp          Press          Volume         v_dens         PotEng         TotEng    
         0   0             -16373425       32614.64       0.59974227     203682.44      203682.44    
         5   0             -27158.365      32614.64       0.59974227    -2221.5684     -2221.5684    
Loop time of 1.39071 on 2 procs for 5 steps with 2304 atoms

98.4% CPU use with 2 MPI tasks x 1 OpenMP threads

Minimization stats:
  Stopping criterion = energy tolerance
  Energy initial, next-to-last, final = 
      203682.440897306  -2221.49107154487  -2221.56842466059
  Force two-norm initial, final = 1585158.6 5360.4742
  Force max component initial, final = 82617.757 364.96939
  Final line search alpha, max atom move = 1.6885078e-05 0.0061625368
  Iterations, force evaluations = 5 24

MPI task timing breakdown:
Section |  min time  |  avg time  |  max time  |%varavg| %total
---------------------------------------------------------------
Pair    | 0.88481    | 0.93318    | 0.98155    |   5.0 | 67.10
Bond    | 0.064698   | 0.065267   | 0.065835   |   0.2 |  4.69
Kspace  | 0.30694    | 0.35428    | 0.40162    |   8.0 | 25.47
Neigh   | 0          | 0          | 0          |   0.0 |  0.00
Comm    | 0.015803   | 0.016708   | 0.017613   |   0.7 |  1.20
Output  | 0          | 0          | 0          |   0.0 |  0.00
Modify  | 0.010637   | 0.011287   | 0.011937   |   0.6 |  0.81
Other   |            | 0.009991   |            |       |  0.72

Nlocal:           1152 ave        1155 max        1149 min
Histogram: 1 0 0 0 0 0 0 0 0 1
Nghost:           7350 ave        7385 max        7315 min
Histogram: 1 0 0 0 0 0 0 0 0 1
Neighs:         310356 ave      328420 max      292292 min
Histogram: 1 0 0 0 0 0 0 0 0 1

Total # of neighbors = 620712
Ave neighs/atom = 269.40625
Ave special neighs/atom = 10.291667
Neighbor list builds = 0
Dangerous builds = 0
reset_timestep 0

# --- 2. NVT relaxation (lets the packed box relax before the barostat) ------
print "RENEU >>> stage 2 of 4: NVT relaxation"
RENEU >>> stage 2 of 4: NVT relaxation
velocity all create ${TK} 12345 mom yes rot yes dist gaussian
velocity all create 300 12345 mom yes rot yes dist gaussian
fix NVTRELAX all nvt temp ${TK} ${TK} 100
fix NVTRELAX all nvt temp 300 ${TK} 100
fix NVTRELAX all nvt temp 300 300 100
run ${NVTRUN}
run 20000
PPPM initialization ...
  using 12-bit tables for long-range coulomb
  G vector (1/distance) = 0.27102009
  grid = 18 18 18
  stencil order = 5
  estimated absolute RMS force accuracy = 0.0030430332
  estimated relative force accuracy = 9.1640042e-06
  using double precision FFTW3
  3d grid and FFT values/proc = 10000 2916
Generated 66 of 66 mixed pair_coeff terms from geometric mixing rule
Per MPI rank memory allocation (min/avg/max) = 14.8 | 14.99 | 15.18 Mbytes
   Step          Temp          Press          Volume         v_dens         PotEng         TotEng    
         0   300            4517.0084      32614.64       0.59974227    -2224.2592     -608.3621     
      1000   305.30006      478.09065      32614.64       0.59974227    -5106.6924     -3462.2474    
      2000   305.89367     -225.00772      32614.64       0.59974227    -5291.2301     -3643.5878    
      3000   291.03847     -594.96146      32614.64       0.59974227    -5447.2947     -3879.6673    
      4000   295.25725      765.11523      32614.64       0.59974227    -5513.9034     -3923.5523    
      5000   300.79165     -503.23812      32614.64       0.59974227    -5603.4794     -3983.3182    
      6000   302.59794      131.75394      32614.64       0.59974227    -5588.1436     -3958.2531    
      7000   303.11962     -633.50007      32614.64       0.59974227    -5647.3004     -4014.6       
      8000   305.27296     -944.41216      32614.64       0.59974227    -5731.1768     -4086.8778    
      9000   298.9087       54.918576      32614.64       0.59974227    -5674.594      -4064.575     
     10000   299.81459     -312.5258       32614.64       0.59974227    -5720.9552     -4106.0567    
     11000   288.89253     -900.50673      32614.64       0.59974227    -5710.8754     -4154.8067    
     12000   291.08738     -81.297012      32614.64       0.59974227    -5790.4758     -4222.5849    
     13000   302.49753      261.42567      32614.64       0.59974227    -5780.185      -4150.8353    
     14000   296.73863     -672.64038      32614.64       0.59974227    -5829.0374     -4230.7071    
     15000   300.71304     -639.62003      32614.64       0.59974227    -5869.3929     -4249.6551    
     16000   292.12277     -634.6211       32614.64       0.59974227    -5750.46       -4176.9922    
     17000   300.08588     -844.57577      32614.64       0.59974227    -5892.8468     -4276.4871    
     18000   296.33432      44.489403      32614.64       0.59974227    -5857.1185     -4260.9659    
     19000   305.54252     -1491.5734      32614.64       0.59974227    -5863.0601     -4217.3092    
     20000   298.01799     -1592.998       32614.64       0.59974227    -5961.2672     -4356.0459    
Loop time of 1129.54 on 2 procs for 20000 steps with 2304 atoms

Performance: 1.530 ns/day, 15.688 hours/ns, 17.706 timesteps/s, 40.795 katom-step/s
98.0% CPU use with 2 MPI tasks x 1 OpenMP threads

MPI task timing breakdown:
Section |  min time  |  avg time  |  max time  |%varavg| %total
---------------------------------------------------------------
Pair    | 525.18     | 532.27     | 539.36     |  30.7 | 47.12
Bond    | 61.168     | 61.455     | 61.743     |   3.7 |  5.44
Kspace  | 357.77     | 364.21     | 370.66     |  33.8 | 32.24
Neigh   | 43.097     | 43.157     | 43.217     |   0.9 |  3.82
Comm    | 74.273     | 75.06      | 75.846     |   9.1 |  6.65
Output  | 0.01088    | 0.013497   | 0.016113   |   2.3 |  0.00
Modify  | 44.508     | 44.753     | 44.998     |   3.7 |  3.96
Other   |            | 8.615      |            |       |  0.76

Nlocal:           1152 ave        1179 max        1125 min
Histogram: 1 0 0 0 0 0 0 0 0 1
Nghost:           7715 ave        7821 max        7609 min
Histogram: 1 0 0 0 0 0 0 0 0 1
Neighs:         312214 ave      314244 max      310184 min
Histogram: 1 0 0 0 0 0 0 0 0 1

Total # of neighbors = 624428
Ave neighs/atom = 271.0191
Ave special neighs/atom = 10.291667
Neighbor list builds = 682
Dangerous builds = 0
unfix NVTRELAX

# --- 3. NPT equilibration (this is where the density finds its own value) ---
# restart files are written every 25000 steps. If the run stops for any
# reason you can pick up from the last one instead of starting over:
#     read_restart rst_a.lmp      (or rst_b.lmp, whichever is newer)
print "RENEU >>> stage 3 of 4: NPT equilibration - watch the density column"
RENEU >>> stage 3 of 4: NPT equilibration - watch the density column
restart 25000 rst_a.lmp rst_b.lmp
fix NPTEQ all npt temp ${TK} ${TK} 100 iso ${PBAR} ${PBAR} 1000
fix NPTEQ all npt temp 300 ${TK} 100 iso ${PBAR} ${PBAR} 1000
fix NPTEQ all npt temp 300 300 100 iso ${PBAR} ${PBAR} 1000
fix NPTEQ all npt temp 300 300 100 iso 1 ${PBAR} 1000
fix NPTEQ all npt temp 300 300 100 iso 1 1 1000
run ${EQRUN}
run 100000
PPPM initialization ...
  using 12-bit tables for long-range coulomb
  G vector (1/distance) = 0.27102009
  grid = 18 18 18
  stencil order = 5
  estimated absolute RMS force accuracy = 0.0030430332
  estimated relative force accuracy = 9.1640042e-06
  using double precision FFTW3
  3d grid and FFT values/proc = 10000 2916
Generated 66 of 66 mixed pair_coeff terms from geometric mixing rule
Per MPI rank memory allocation (min/avg/max) = 15.19 | 15.19 | 15.19 Mbytes
   Step          Temp          Press          Volume         v_dens         PotEng         TotEng    
     20000   298.01799     -1592.9237      32614.64       0.59974227    -5961.2672     -4356.0459    
     21000   306.73534     -796.14651      29473.781      0.66365351    -5991.9705     -4339.7947    
     22000   298.36772      429.10206      27484.243      0.71169426    -5971.3383     -4364.2332    
     23000   291.01704      567.566        26670.377      0.73341213    -6005.3722     -4437.8602    
     24000   308.80322      61.848218      26556.975      0.7365439     -6001.4262     -4338.1121    
     25000   297.19493     -32.124379      26284.257      0.74418607    -6044.4608     -4443.6727    
     26000   292.37486      831.58712      25425.561      0.76931942    -6000.7602     -4425.9345    
     27000   299.74183      223.83329      25845.454      0.75682083    -6045.1931     -4430.6866    
     28000   294.9888      -1363.0485      25840.885      0.75695465    -6049.7018     -4460.7966    
     29000   295.18558     -646.83539      25760.604      0.75931364    -6056.4051     -4466.4401    
     30000   288.59574     -166.81537      25008.99       0.78213385    -6048.2052     -4493.7351    
     31000   306.37438     -576.84115      24918.21       0.78498326    -6097.1333     -4446.9017    
     32000   290.65395      31.121447      24427.115      0.80076498    -6124.2486     -4558.6923    
     33000   291.14886      932.31678      24641.942      0.79378395    -6057.1127     -4488.8906    
     34000   293.94241      77.746142      24444.929      0.80018144    -6109.9846     -4526.7156    
     35000   298.44464      354.33781      24271.028      0.80591468    -6071.2004     -4463.681     
     36000   300.87487      3.9592654      23879.42       0.81913119    -6196.1556     -4575.5461    
     37000   300.86887      37.939768      23838.562      0.82053513    -6159.1346     -4538.5574    
     38000   313.36249     -527.21817      23616.426      0.8282531     -6140.3558     -4452.4839    
     39000   301.06316      72.983613      23666.425      0.82650328    -6178.6179     -4556.9942    
     40000   313.72522     -482.21433      23192.411      0.84339564    -6102.8863     -4413.0607    
     41000   307.90405     -255.19806      23658.258      0.82678859    -6204.5494     -4546.0785    
     42000   296.31011      1046.7237      23438.688      0.83453383    -6076.3742     -4480.352     
     43000   300.86991     -169.33396      23609.278      0.82850388    -6145.4326     -4524.8498    
     44000   292.73843      459.4915       23360.127      0.8373404     -6129.8396     -4553.0557    
     45000   298.11537     -213.16252      23017.697      0.84979736    -6200.9968     -4595.2509    
     46000   299.52743     -1602.6617      23155.877      0.84472629    -6167.2064     -4553.8546    
     47000   300.53178      129.09541      22859.276      0.85568667    -6218.0993     -4599.3378    
     48000   294.64446      1493.3997      22724.561      0.86075935    -6206.9366     -4619.8861    
     49000   296.6137       296.81306      22964.249      0.85177521    -6145.9063     -4548.2489    
     50000   295.99705     -1012.3726      22898.849      0.8542079     -6209.0453     -4614.7094    
     51000   302.84067      769.11629      23233.872      0.84189059    -6161.8526     -4530.6547    
     52000   297.5848       446.09265      22523.049      0.86846047    -6223.253      -4620.3649    
     53000   303.57555     -498.72062      22801.369      0.85785981    -6224.6712     -4589.515     
     54000   303.68414     -13.205991      22402.148      0.87314742    -6220.6309     -4584.8898    
     55000   295.53853     -67.144634      22614.031      0.86496644    -6239.3935     -4647.5273    
     56000   302.93678      443.4897       22664.28       0.86304871    -6189.0752     -4557.3596    
     57000   290.84573     -1233.2127      22828.502      0.85684021    -6210.9768     -4644.3875    
     58000   300.36965      198.68672      22736.136      0.86032112    -6181.9266     -4564.0384    
     59000   302.38531      488.10621      22638.057      0.86404845    -6159.6203     -4530.8751    
     60000   295.03098     -333.50194      22797.453      0.85800715    -6215.0182     -4625.8859    
     61000   296.20184     -926.95017      22291.66       0.87747515    -6216.0979     -4620.6588    
     62000   307.3483       334.51634      22208.748      0.88075104    -6255.9132     -4600.4357    
     63000   302.14606     -407.19616      22561.159      0.8669935     -6243.0097     -4615.5532    
     64000   289.62751     -402.80543      22137.954      0.88356756    -6169.7202     -4609.6926    
     65000   290.99307      524.93457      22488.338      0.86980097    -6179.3589     -4611.976     
     66000   305.44116     -475.0126       22548.84       0.86746714    -6246.9685     -4601.7635    
     67000   294.722        476.84007      22360.518      0.87477304    -6213.6091     -4626.1409    
     68000   300.11651      327.53459      22816.936      0.85727454    -6256.7026     -4640.178     
     69000   295.02327     -961.46286      22375.464      0.87418872    -6242.0349     -4652.944     
     70000   291.3663      -222.69287      22254.191      0.87895256    -6229.304      -4659.9107    
     71000   292.90394     -1830.2586      22598.268      0.8655698     -6195.0936     -4617.4182    
     72000   296.2505      -247.91114      22607.254      0.86522574    -6247.6537     -4651.9526    
     73000   302.39734     -179.09276      22155.811      0.88285541    -6165.3823     -4536.5723    
     74000   305.66445     -1309.5501      22795.812      0.85806893    -6255.8356     -4609.4279    
     75000   296.12968     -253.56335      22014.796      0.88851051    -6220.8633     -4625.813     
     76000   299.13104     -1139.0199      22514.718      0.86878182    -6275.7309     -4664.5142    
     77000   309.32672     -558.91899      22391.728      0.87355376    -6165.6183     -4499.4845    
     78000   294.58588     -769.29101      22279.135      0.87796846    -6194.2147     -4607.4797    
     79000   305.2033       677.50067      21961.967      0.89064783    -6336.7638     -4692.84      
     80000   310.46028     -1045.2636      22667.422      0.86292908    -6221.4026     -4549.1631    
     81000   295.66113     -535.04736      22220.2        0.88029711    -6266.5581     -4674.0315    
     82000   308.2371       232.6771       22108.027      0.88476364    -6226.3228     -4566.058     
     83000   298.87201     -1324.9424      22357.811      0.87487894    -6268.6135     -4658.7921    
     84000   309.2806      -562.67056      22615.956      0.86489283    -6191.0053     -4525.1199    
     85000   293.56552     -493.0043       22555.318      0.86721801    -6226.8943     -4645.6554    
     86000   304.80835      1070.4253      22143.792      0.88333463    -6346.939      -4705.1426    
     87000   298.99136     -1505.017       21968.882      0.89036746    -6228.9895     -4618.5252    
     88000   302.69905     -192.29166      22327.085      0.87608294    -6222.5109     -4592.0758    
     89000   297.40302     -685.78679      22057.519      0.88678959    -6291.962      -4690.053     
     90000   301.45166      349.33876      22416.992      0.87256927    -6273.234      -4649.5177    
     91000   317.45011     -273.24         22307.593      0.87684844    -6207.9399     -4498.0508    
     92000   307.49568      1289.5744      22187.858      0.88158027    -6290.5421     -4634.2708    
     93000   293.44867      576.15723      22292.323      0.87744906    -6246.7977     -4666.1882    
     94000   306.98457      891.03597      22147.15       0.88320068    -6252.2671     -4598.7488    
     95000   295.57634      1717.7763      21902.607      0.89306164    -6268.0323     -4675.9624    
     96000   300.68461      1277.1354      22088.598      0.88554184    -6266.4655     -4646.8809    
     97000   295.8955      -52.745738      22044.908      0.88729688    -6235.7289     -4641.9399    
     98000   300.86239      194.24494      22241.503      0.87945396    -6227.3549     -4606.8127    
     99000   294.91443     -24.222672      22262.501      0.87862448    -6259.7274     -4671.2228    
    100000   297.54384     -22.639307      22264.013      0.87856478    -6220.1693     -4617.5019    
    101000   297.46196      1425.3766      22427.786      0.87214931    -6142.7774     -4540.551     
    102000   293.25006      810.82632      22061.784      0.88661813    -6242.389      -4662.8492    
    103000   309.05277     -1987.0451      22096.711      0.88521672    -6297.4381     -4632.7799    
    104000   299.84602     -1019.269       22372.607      0.87430033    -6180.8182     -4565.7504    
    105000   300.66383      901.59614      22142.721      0.88337734    -6294.3244     -4674.8516    
    106000   305.18452      673.47215      22168.375      0.88235507    -6259.3676     -4615.545     
    107000   304.76942      1028.035       22426.276      0.87220802    -6197.8931     -4556.3064    
    108000   302.31491     -1362.1831      22217.075      0.88042094    -6292.1417     -4663.7757    
    109000   302.26999     -280.08068      22362.779      0.8746846     -6244.0177     -4615.8936    
    110000   287.83353      2317.37        21894.941      0.8933743     -6237.0488     -4686.6842    
    111000   293.97901     -1550.8382      22207.173      0.88081352    -6204.1032     -4620.637     
    112000   304.09832      758.14775      21877.344      0.89409291    -6259.0959     -4621.1239    
    113000   293.00044      1072.4551      21822.539      0.89633834    -6288.9905     -4710.7953    
    114000   303.39783     -934.996        22129.102      0.88392101    -6251.239      -4617.0401    
    115000   292.87572      943.19815      22026.388      0.88804291    -6287.5697     -4710.0462    
    116000   296.12129      314.48033      21884.754      0.89379015    -6256.8777     -4661.8725    
    117000   299.50425     -864.70047      22114.502      0.88450456    -6177.5421     -4564.3152    
    118000   300.74414      647.532        22476.411      0.8702625     -6263.9325     -4644.0272    
    119000   314.92602      1349.5779      22065.704      0.88646062    -6232.6717     -4536.3782    
    120000   306.98945      18.853865      22267.737      0.87841788    -6303.292      -4649.7475    
Loop time of 5141.43 on 2 procs for 100000 steps with 2304 atoms

Performance: 1.680 ns/day, 14.282 hours/ns, 19.450 timesteps/s, 44.812 katom-step/s
98.1% CPU use with 2 MPI tasks x 1 OpenMP threads

MPI task timing breakdown:
Section |  min time  |  avg time  |  max time  |%varavg| %total
---------------------------------------------------------------
Pair    | 2871.6     | 2877.1     | 2882.6     |  10.3 | 55.96
Bond    | 258.52     | 260.93     | 263.34     |  14.9 |  5.08
Kspace  | 1190.2     | 1194.4     | 1198.5     |  12.0 | 23.23
Neigh   | 214.49     | 215.83     | 217.17     |   9.1 |  4.20
Comm    | 176.87     | 179.31     | 181.75     |  18.2 |  3.49
Output  | 0.088627   | 0.10034    | 0.11205    |   3.7 |  0.00
Modify  | 340.2      | 346.92     | 353.63     |  36.0 |  6.75
Other   |            | 66.84      |            |       |  1.30

Nlocal:           1152 ave        1163 max        1141 min
Histogram: 1 0 0 0 0 0 0 0 0 1
Nghost:         9619.5 ave        9685 max        9554 min
Histogram: 1 0 0 0 0 0 0 0 0 1
Neighs:         431160 ave      436089 max      426232 min
Histogram: 1 0 0 0 0 0 0 0 0 1

Total # of neighbors = 862321
Ave neighs/atom = 374.27127
Ave special neighs/atom = 10.291667
Neighbor list builds = 2995
Dangerous builds = 0
unfix NPTEQ
write_data data.after_equilibration.lmp
System init for write_data ...
PPPM initialization ...
  using 12-bit tables for long-range coulomb
  G vector (1/distance) = 0.28142241
  grid = 18 18 18
  stencil order = 5
  estimated absolute RMS force accuracy = 0.0020739447
  estimated relative force accuracy = 6.2456229e-06
  using double precision FFTW3
  3d grid and FFT values/proc = 10000 2916
Generated 66 of 66 mixed pair_coeff terms from geometric mixing rule

# --- 4. NPT production - this is the trajectory you analyse ----------------
print "RENEU >>> stage 4 of 4: NPT production"
RENEU >>> stage 4 of 4: NPT production
reset_timestep 0
fix NPTPROD all npt temp ${TK} ${TK} 100 iso ${PBAR} ${PBAR} 1000
fix NPTPROD all npt temp 300 ${TK} 100 iso ${PBAR} ${PBAR} 1000
fix NPTPROD all npt temp 300 300 100 iso ${PBAR} ${PBAR} 1000
fix NPTPROD all npt temp 300 300 100 iso 1 ${PBAR} 1000
fix NPTPROD all npt temp 300 300 100 iso 1 1 1000
fix DENSAVG all ave/time 10 100 1000 v_dens v_vol file density.dat

dump TRAJ all custom 500 dump.lammpstrj id mol type element q xu yu zu
dump_modify TRAJ element N C H C H H C H C C O C

run ${PRODRUN}
run 200000
PPPM initialization ...
  using 12-bit tables for long-range coulomb
  G vector (1/distance) = 0.28142241
  grid = 18 18 18
  stencil order = 5
  estimated absolute RMS force accuracy = 0.0020739447
  estimated relative force accuracy = 6.2456229e-06
  using double precision FFTW3
  3d grid and FFT values/proc = 10000 2916
Generated 66 of 66 mixed pair_coeff terms from geometric mixing rule
Per MPI rank memory allocation (min/avg/max) = 15.71 | 15.71 | 15.71 Mbytes
   Step          Temp          Press          Volume         v_dens         PotEng         TotEng    
         0   306.98945      34.786054      22267.737      0.87841788    -6303.2963     -4649.7518    
      1000   301.81542      754.33314      22399.105      0.87326605    -6187.4401     -4561.7645    
      2000   302.4112       1322.6743      22253.123      0.87899473    -6289.8072     -4660.9226    
      3000   292.63832      866.39763      22018.991      0.88834124    -6287.0555     -4710.8107    
      4000   300.45936     -2012.0152      22335.72       0.87574424    -6279.3706     -4660.9992    
      5000   296.48693     -750.81011      22234.18       0.87974364    -6280.4745     -4683.4998    
      6000   309.53136      879.79486      22081.081      0.88584331    -6237.6569     -4570.4207    
      7000   307.10068     -1237.9846      21681.79       0.90215697    -6371.1204     -4716.9767    
      8000   302.39494     -613.17356      22192.842      0.88138229    -6251.4904     -4622.6933    
      9000   290.3323      -156.26418      21996.705      0.88924128    -6205.7859     -4641.9621    
     10000   297.54125     -650.41129      21979.566      0.88993468    -6270.1846     -4667.5311    
     11000   310.23379     -466.38813      22069.51       0.88630776    -6343.2615     -4672.2418    
     12000   295.82717     -283.79729      21830.436      0.89601409    -6277.7822     -4684.3612    
     13000   296.7671       1375.1688      22199.459      0.88111956    -6241.1236     -4642.6399    
     14000   307.25015      730.79522      22180.227      0.88188357    -6237.4905     -4582.5416    
     15000   301.52742     -595.0614       21939.546      0.89155801    -6265.6075     -4641.4832    
     16000   299.94813     -219.80178      22056.128      0.88684551    -6322.5904     -4706.9727    
     17000   301.62889      1752.6271      22075.552      0.88606518    -6299.4691     -4674.7982    
     18000   301.97068     -363.96886      21982.875      0.88980073    -6295.2633     -4668.7514    
     19000   308.53449     -1186.6051      21799.108      0.89730178    -6249.0442     -4587.1776    
     20000   306.77726      309.57171      21668.981      0.90269026    -6337.8436     -4685.442     
     21000   297.11224     -421.19509      22373.479      0.87426628    -6289.8363     -4689.4936    
     22000   298.0869       1037.2506      22042.087      0.88741045    -6270.2093     -4664.6167    
     23000   295.87216      292.69766      21982.646      0.88980998    -6317.5228     -4723.8595    
     24000   304.1142       573.78068      21803.104      0.8971373     -6312.7772     -4674.7196    
     25000   295.46363     -652.48062      21960.383      0.89071208    -6252.9798     -4661.517     
     26000   301.7713      -242.29043      21642.687      0.90378695    -6330.5224     -4705.0844    
     27000   302.45248     -595.59792      21906.558      0.89290056    -6375.7342     -4746.6272    
     28000   304.00571     -741.28389      22049.738      0.88710253    -6323.3027     -4685.8295    
     29000   289.94913     -15.795066      21664.848      0.90286247    -6334.876      -4773.1161    
     30000   302.89388     -1068.2131      21812.123      0.89676634    -6353.6382     -4722.1536    
     31000   305.14695     -416.42486      21795.609      0.89744581    -6288.3639     -4644.7437    
     32000   296.10413     -1477.6635      21767.876      0.89858921    -6291.0018     -4696.089     
     33000   303.2536      -555.15101      21720.596      0.90054519    -6374.8276     -4741.4055    
     34000   298.74055      107.16846      21824.479      0.89625866    -6258.3146     -4649.2012    
     35000   295.66242      872.89912      21688.95       0.90185914    -6324.0122     -4731.4786    
     36000   302.00672     -902.90945      21962.176      0.89063934    -6299.923      -4673.2171    
     37000   297.37413     -509.32157      21926.851      0.89207421    -6325.1692     -4723.4159    
     38000   299.0394      -840.88366      22189.086      0.88153148    -6289.8347     -4679.1117    
     39000   299.16318      136.28         21785.145      0.89787687    -6330.082      -4718.6923    
     40000   297.06308     -893.0401       21647.738      0.90357607    -6303.9099     -4703.832     
     41000   301.48254     -1975.3255      22189.285      0.88152356    -6300.718      -4676.8354    
     42000   307.18002      404.40936      21928.299      0.89201528    -6349.4874     -4694.9164    
     43000   300.80899     -320.69654      22249.309      0.87914543    -6294.8154     -4674.5608    
     44000   294.16965     -534.13125      21851.626      0.89514521    -6239.8044     -4655.3115    
     45000   298.0392      -1211.3644      21944.037      0.89137555    -6327.719      -4722.3834    
     46000   305.23654      1390.1962      22009.184      0.88873707    -6273.4614     -4629.3586    
     47000   309.24357     -238.86001      21892.035      0.89349289    -6303.0008     -4637.3149    
     48000   296.2441       368.44504      21662.549      0.9029583     -6357.6052     -4761.9386    
     49000   301.68023     -948.09789      22132.103      0.88380113    -6304.5118     -4679.5644    
     50000   309.8194      -1914.1615      22104.543      0.88490307    -6305.0808     -4636.2932    
     51000   289.60735      266.21638      21813.077      0.89672715    -6194.8616     -4634.9427    
     52000   298.80593      230.40156      21704.59       0.90120927    -6314.5923     -4705.1268    
     53000   295.34065     -821.36687      21860.329      0.89478882    -6267.4001     -4676.5997    
     54000   294.50815     -176.45779      21951.99       0.89105263    -6242.5621     -4656.2459    
     55000   301.74344      720.68002      21576.711      0.9065505     -6363.0314     -4737.7435    
     56000   296.93507      843.19285      21758.687      0.89896869    -6287.8052     -4688.4168    
     57000   304.22658     -966.39287      21721.09       0.90052472    -6258.5557     -4619.8929    
     58000   296.67465     -540.97978      22202.024      0.88101777    -6287.5701     -4689.5844    
     59000   292.93686      121.86013      21717.497      0.90067369    -6327.0388     -4749.186     
     60000   308.10715      1508.6704      21780.548      0.89806637    -6278.994      -4619.4291    
     61000   306.27399     -1386.2802      21500.244      0.90977469    -6314.5544     -4664.8635    
     62000   307.21147      1067.6436      21637.393      0.90400809    -6326.8725     -4672.132     
     63000   299.27586      613.23103      21794.422      0.89749467    -6287.5616     -4675.565     
     64000   299.56708      684.4587       21579.865      0.90641802    -6325.3277     -4711.7625    
     65000   291.28846      163.34741      21572.975      0.90670749    -6353.4779     -4784.5039    
     66000   303.04445      63.873969      21454.215      0.91172657    -6310.4985     -4678.2029    
     67000   308.9732       1174.9388      21679.346      0.90225866    -6277.6058     -4613.3761    
     68000   298.06602      50.22533       21716.431      0.90071791    -6339.5603     -4734.0802    
     69000   288.5648       1270.5776      21600.788      0.90554001    -6324.7544     -4770.4509    
     70000   297.24957      500.33462      21757          0.89903837    -6307.1617     -4706.0792    
     71000   298.80226     -2036.2426      21963.201      0.89059777    -6292.0309     -4682.5851    
     72000   297.74858      799.68129      21857.817      0.89489166    -6307.5687     -4703.7985    
     73000   312.97224     -245.72678      21539.783      0.90810467    -6317.5044     -4631.7346    
     74000   304.21562     -68.01352       21858.155      0.89487781    -6329.878      -4691.2742    
     75000   307.56015     -509.09078      21405.099      0.9138186     -6353.2345     -4696.616     
     76000   299.5214      -906.06303      21308.67       0.91795397    -6348.3375     -4735.0183    
     77000   289.70562      612.68865      21649.966      0.90348308    -6258.3138     -4697.8655    
     78000   299.08181     -1603.2323      21630.27       0.90430577    -6296.946      -4685.9945    
     79000   299.20598      191.41802      21502.642      0.90967324    -6310.4556     -4698.8353    
     80000   284.2593      -46.557364      21504.34       0.90960142    -6297.9613     -4766.8487    
     81000   299.31652      1574.8706      21879.927      0.89398735    -6379.0714     -4766.8557    
     82000   296.44164     -455.63731      21817.509      0.89654499    -6305.8647     -4709.134     
     83000   303.61795     -373.27661      21430.4        0.91273974    -6266.773      -4631.3885    
     84000   294.65429     -541.29885      21483.923      0.91046583    -6360.408      -4773.3045    
     85000   309.23793     -40.388253      21512.158      0.90927084    -6317.3557     -4651.7001    
     86000   298.20335     -1727.7021      21470.887      0.91101862    -6318.5148     -4712.295     
     87000   293.82573      225.1001       21343.499      0.91645601    -6359.9495     -4777.309     
     88000   294.62728     -362.27745      21365.537      0.91551073    -6300.0247     -4713.0668    
     89000   301.33696      466.64387      21695.359      0.90159275    -6280.292      -4657.1936    
     90000   304.30316      309.53419      21579.639      0.9064275     -6347.9454     -4708.8701    
     91000   298.0113       1031.4461      21392.397      0.91436121    -6386.7919     -4781.6066    
     92000   298.41148      125.19499      21505.941      0.90953371    -6328.8618     -4721.521     
     93000   299.68289      4.6062223      21718.862      0.90061709    -6282.131      -4667.9419    
     94000   299.29054     -588.2077       21748.132      0.89940496    -6375.4043     -4763.3286    
     95000   297.45516      281.9597       21692.087      0.90172873    -6297.1602     -4694.9704    
     96000   301.93749      528.69791      21597.599      0.90567375    -6412.2943     -4785.9613    
     97000   296.5058       115.06617      21334.638      0.91683665    -6329.7643     -4732.6881    
     98000   303.20188     -391.83804      21907.841      0.89284829    -6373.3894     -4740.2459    
     99000   293.61816     -660.42761      21680.52       0.90220982    -6336.9098     -4755.3874    
    100000   298.60159      535.37562      21505.097      0.90956941    -6325.6845     -4717.3197    
    101000   291.73936      898.16307      21623.034      0.90460838    -6336.8489     -4765.4462    
    102000   305.15335      1005.0447      21946.299      0.89128366    -6346.9648     -4703.3101    
    103000   313.76001     -542.24681      21991.045      0.88947016    -6327.3506     -4637.3376    
    104000   294.46568      1657.4308      21685.4        0.90200678    -6337.0571     -4750.9696    
    105000   300.23102      482.57394      22054.453      0.88691286    -6305.5792     -4688.4377    
    106000   303.79238     -399.73261      21895.492      0.89335185    -6374.1713     -4737.8472    
    107000   304.95082     -1817.8152      22236.558      0.87964953    -6275.3034     -4632.7395    
    108000   305.817        1442.5484      21880.832      0.89395036    -6318.6714     -4671.442     
    109000   306.84455     -245.83293      21677.954      0.90231661    -6391.7945     -4739.0304    
    110000   291.1924      -250.72632      21624.617      0.90454217    -6348.5942     -4780.1377    
    111000   301.53976      733.37805      21691.305      0.90176124    -6290.4235     -4666.2327    
    112000   290.14445     -287.63101      21676.253      0.90238741    -6328.7194     -4765.9074    
    113000   306.97177     -1404.4276      21985.09       0.88971107    -6288.6063     -4635.157     
    114000   307.78038      472.03078      21520.942      0.9088997     -6314.6839     -4656.8792    
    115000   302.11453      377.5383       22080.397      0.88587074    -6270.8672     -4643.5805    
    116000   303.19358     -1313.3652      21825.909      0.89619994    -6303.939      -4670.8402    
    117000   294.07604     -2279.5869      21849.683      0.89522479    -6318.6482     -4734.6595    
    118000   298.03729      292.1          21834.161      0.8958612     -6327.4616     -4722.1363    
    119000   290.38595     -2720.5435      21994.409      0.88933411    -6311.4114     -4747.2986    
    120000   302.77781      888.68079      21488.358      0.91027793    -6377.3035     -4746.4442    
    121000   306.07682     -139.66199      21843.43       0.89548106    -6334.3695     -4685.7406    
    122000   297.45231      251.6601       21491.323      0.91015236    -6360.3169     -4758.1424    
    123000   304.90948     -653.72498      21771.776      0.89842824    -6336.3192     -4693.978     
    124000   297.67761      676.31455      21862.809      0.89468732    -6302.167      -4698.779     
    125000   304.4524      -463.14307      21875.952      0.89414979    -6383.2232     -4743.344     
    126000   305.44256      206.9642       21686.345      0.9019675     -6316.701      -4671.4884    
    127000   294.95993      1168.5585      21912.233      0.89266932    -6313.1172     -4724.3675    
    128000   294.01084      756.36931      21509.475      0.90938428    -6323.2719     -4739.6343    
    129000   299.6132      -422.46251      21736.889      0.89987016    -6284.2475     -4670.4338    
    130000   302.3154      -761.0743       21828.718      0.8960846     -6369.7275     -4741.3588    
    131000   304.12437     -203.21421      21611.014      0.90511153    -6308.0484     -4669.9361    
    132000   292.53949      2158.9342      21707.035      0.90110776    -6302.9728     -4727.2604    
    133000   296.44897      44.78172       21587.307      0.9061055     -6292.7758     -4696.0057    
    134000   302.73019     -368.57502      21894.057      0.8934104     -6304.5135     -4673.9107    
    135000   299.45132     -1112.642       22041.514      0.88743351    -6361.9528     -4749.011     
    136000   304.58274      1061.6529      21630.143      0.90431108    -6346.9951     -4706.4138    
    137000   299.36656     -2895.0736      21754.004      0.89916217    -6291.5479     -4679.0627    
    138000   308.53649      475.08994      21653.823      0.90332213    -6299.8418     -4637.9644    
    139000   300.39007      692.91699      21439.109      0.91236899    -6330.9874     -4712.9892    
    140000   296.8928       937.53817      21894.849      0.89337808    -6321.3007     -4722.1399    
    141000   298.18333      755.27004      21739.749      0.89975179    -6274.7583     -4668.6463    
    142000   310.03847     -115.38066      21885.93       0.89374215    -6329.9347     -4659.9671    
    143000   299.65237     -59.733777      21521.575      0.90887297    -6337.8164     -4723.7917    
    144000   300.22658     -626.83125      21637.635      0.90399797    -6291.5572     -4674.4396    
    145000   310.30638     -443.43563      21759.858      0.89892031    -6292.1874     -4620.7768    
    146000   303.22558      655.70414      21542.993      0.9079694     -6333.1632     -4699.8921    
    147000   287.15982     -989.33473      21682.115      0.90214343    -6361.3624     -4814.6267    
    148000   307.19621     -856.29748      21518.596      0.90899881    -6311.5873     -4656.9291    
    149000   293.83585      366.50731      22044.838      0.88729969    -6280.3406     -4697.6455    
    150000   303.51143     -145.89837      21986.286      0.88966267    -6322.5127     -4687.7019    
    151000   294.78281      914.26023      21665.243      0.90284602    -6251.5985     -4663.8028    
    152000   299.48454      1525.7252      21682.952      0.90210862    -6375.5745     -4762.4538    
    153000   298.64714      1152.7601      22034.409      0.88771966    -6308.1116     -4699.5014    
    154000   299.30212     -730.23788      22274.454      0.87815298    -6304.5698     -4692.4317    
    155000   306.10326      170.73563      21818.826      0.89649085    -6337.7055     -4688.9343    
    156000   300.15488     -643.08705      21704.607      0.90120856    -6286.5234     -4669.792     
    157000   296.27819     -1288.5919      21957.284      0.89083779    -6259.9796     -4664.1294    
    158000   294.95998      331.96899      21612.784      0.9050374     -6374.1755     -4785.4256    
    159000   297.36096      1955.4481      21578.672      0.90646809    -6285.9221     -4684.2397    
    160000   304.41224     -30.928618      21872.725      0.89428173    -6325.4272     -4685.7643    
    161000   296.11097      1897.5741      21259.876      0.92006075    -6343.5621     -4748.6126    
    162000   317.17025     -984.43559      21584.241      0.90623422    -6311.388      -4603.0064    
    163000   301.19856      1049.2076      21626.695      0.90445525    -6275.0396     -4652.6866    
    164000   300.24418      585.3709       21952.682      0.89102452    -6289.2375     -4672.0252    
    165000   296.63531      105.00171      21722.559      0.90046381    -6306.022      -4708.2482    
    166000   297.99505     -2560.4491      22048.044      0.88717066    -6295.7028     -4690.605     
    167000   301.07059     -1615.6689      22042.138      0.88740837    -6277.2305     -4655.5668    
    168000   301.37069      231.76539      21740.268      0.8997303     -6368.2669     -4744.9869    
    169000   305.76942      556.53702      21772.939      0.89838022    -6305.6197     -4658.6466    
    170000   289.70919      808.19726      22081.327      0.88583343    -6296.4886     -4736.0211    
    171000   300.31733      696.22377      21786.278      0.8978302     -6284.757      -4667.1506    
    172000   295.30724     -863.85557      21625.023      0.90452517    -6291.7327     -4701.1123    
    173000   304.50335      210.4335       21991.768      0.88944092    -6337.9746     -4697.821     
    174000   304.36762     -267.61664      22156.979      0.88280887    -6260.3451     -4620.9226    
    175000   301.53426     -1603.829       21725.539      0.90034029    -6309.7067     -4685.5456    
    176000   299.07743      1994.9754      22048.874      0.8871373     -6280.5277     -4669.5998    
    177000   304.28552      1515.7552      21832.996      0.89590902    -6249.8655     -4610.8852    
    178000   297.20361     -1562.5267      21854.425      0.89503057    -6356.4172     -4755.5823    
    179000   301.65512     -1092.4667      22145.594      0.88326272    -6256.0654     -4631.2533    
    180000   293.95817      837.60325      21872.513      0.89429037    -6208.8911     -4625.5372    
    181000   307.11722     -70.916151      21772.39       0.8984029     -6310.7725     -4656.5397    
    182000   300.46273      1473.7714      21581.782      0.90633748    -6252.3696     -4633.98      
    183000   302.55865      1454.7937      21511.054      0.9093175     -6300.6701     -4670.9913    
    184000   296.99594      1301.6046      21591.375      0.90593479    -6318.9061     -4719.1899    
    185000   303.87504      801.7558       21719.749      0.90058032    -6258.6245     -4621.8552    
    186000   301.47853     -573.202        21916.794      0.89248353    -6318.0087     -4694.1477    
    187000   297.2047      -115.2066       21796.655      0.89740276    -6278.7887     -4677.948     
    188000   285.82505      478.62579      21687.421      0.90192274    -6330.7794     -4791.2332    
    189000   303.08956     -1504.8582      21670.805      0.90261429    -6272.9146     -4640.3761    
    190000   292.20161     -82.717803      21797.931      0.89735023    -6309.0978     -4735.2053    
    191000   298.67549     -250.43888      21587.24       0.90610831    -6298.7241     -4689.9612    
    192000   307.62467      1562.0301      21490.164      0.91020145    -6267.3802     -4610.4141    
    193000   295.9123       966.59348      21528.08       0.90859837    -6323.1127     -4729.2333    
    194000   306.67134     -27.800444      21753.307      0.89919099    -6292.4841     -4640.653     
    195000   299.63856     -2353.01        22169.656      0.88230408    -6311.7232     -4697.7729    
    196000   305.48906      289.04531      21786.618      0.89781616    -6292.088      -4646.625     
    197000   302.34322     -1017.0094      21832.764      0.89591855    -6310.1609     -4681.6425    
    198000   292.27918     -589.76064      21735.302      0.89993588    -6309.7613     -4735.451     
    199000   305.05657     -725.77422      21859.728      0.89481343    -6312.1315     -4668.998     
    200000   293.31626     -861.94333      21552.443      0.90757126    -6263.2877     -4683.3914    
Loop time of 10651.8 on 2 procs for 200000 steps with 2304 atoms

Performance: 1.622 ns/day, 14.794 hours/ns, 18.776 timesteps/s, 43.260 katom-step/s
98.0% CPU use with 2 MPI tasks x 1 OpenMP threads

MPI task timing breakdown:
Section |  min time  |  avg time  |  max time  |%varavg| %total
---------------------------------------------------------------
Pair    | 6225.5     | 6230.4     | 6235.4     |   6.3 | 58.49
Bond    | 516.77     | 517.27     | 517.78     |   2.2 |  4.86
Kspace  | 2310.6     | 2314.3     | 2318       |   7.7 | 21.73
Neigh   | 436.32     | 436.42     | 436.52     |   0.5 |  4.10
Comm    | 344.34     | 345.39     | 346.44     |   5.7 |  3.24
Output  | 8.3611     | 10.21      | 12.06      |  57.9 |  0.10
Modify  | 674.1      | 674.41     | 674.73     |   1.2 |  6.33
Other   |            | 123.3      |            |       |  1.16

Nlocal:           1152 ave        1153 max        1151 min
Histogram: 1 0 0 0 0 0 0 0 0 1
Nghost:           9693 ave        9701 max        9685 min
Histogram: 1 0 0 0 0 0 0 0 0 1
Neighs:         445269 ave      449507 max      441031 min
Histogram: 1 0 0 0 0 0 0 0 0 1

Total # of neighbors = 890538
Ave neighs/atom = 386.51823
Ave special neighs/atom = 10.291667
Neighbor list builds = 5941
Dangerous builds = 0

write_data data.final.lmp
System init for write_data ...
PPPM initialization ...
  using 12-bit tables for long-range coulomb
  G vector (1/distance) = 0.27271208
  grid = 16 16 16
  stencil order = 5
  estimated absolute RMS force accuracy = 0.0034155295
  estimated relative force accuracy = 1.0285766e-05
  using double precision FFTW3
  3d grid and FFT values/proc = 7935 2048
Generated 66 of 66 mixed pair_coeff terms from geometric mixing rule
print "RENEU >>> finished. trajectory = dump.lammpstrj, density log = density.dat"
RENEU >>> finished. trajectory = dump.lammpstrj, density log = density.dat
Total wall time: 4:42:05
