LAMMPS (10 Dec 2025)
OMP_NUM_THREADS environment is not set. Defaulting to 1 thread.
  using 1 OpenMP thread(s) per MPI task
# created by fftool

units real
boundary p p p

atom_style full
bond_style harmonic
angle_style harmonic
dihedral_style opls

special_bonds lj/coul 0.0 0.0 0.5

# remove hybrid if not necessary
pair_style hybrid lj/cut/coul/long 10.0 10.0
pair_modify mix geometric tail yes
read_data data.lmp
Reading data file ...
  orthogonal box = (0 0 0) to (26.55 26.55 26.55)
  1 by 1 by 2 MPI processor grid
  reading atoms ...
  1576 atoms
  scanning bonds ...
  1 = max bonds/atom
  scanning angles ...
  6 = max angles/atom
  scanning dihedrals ...
  9 = max dihedrals/atom
  orthogonal box = (0 0 0) to (26.55 26.55 26.55)
  1 by 1 by 2 MPI processor grid
  reading bonds ...
  1072 bonds
  reading angles ...
  635 angles
  reading dihedrals ...
  183 dihedrals
Finding 1-2 1-3 1-4 neighbors ...
  special bond factors lj:    0        0        0.5     
  special bond factors coul:  0        0        0.5     
     4 = max # of 1-2 neighbors
     6 = max # of 1-3 neighbors
    12 = max # of 1-4 neighbors
    16 = max # of special neighbors
  special bonds CPU = 0.001 seconds
  read_data CPU = 0.076 seconds
# read_restart restart1.lmp

kspace_style pppm 1.0e-5

# remove pair style if not using hybrid
pair_coeff    1    1 lj/cut/coul/long     0.125643     2.995200  # Nd Nd
pair_coeff    2    2 lj/cut/coul/long     0.105000     3.750000  # CO2 CO2
pair_coeff    3    3 lj/cut/coul/long     0.065999     3.500000  # C2C C2C
pair_coeff    4    4 lj/cut/coul/long     0.210000     2.960000  # O2 O2
pair_coeff    5    5 lj/cut/coul/long     0.065999     3.500000  # CS CS
pair_coeff    6    6 lj/cut/coul/long     0.030000     2.500000  # HC HC
pair_coeff    7    7 lj/cut/coul/long     0.065999     3.500000  # CT CT
pair_coeff    8    8 lj/cut/coul/long     0.000000     1.000000  # Hw Hw
pair_coeff    9    9 lj/cut/coul/long     0.155425     3.165500  # Ow Ow

# minimize 1.0e-4 1.0e-6 100 1000
# reset_timestep 0

fix SHAKE all shake 0.0001 20 0 b 4 5
Finding SHAKE clusters ...
       0 = # of size 2 clusters
     518 = # of size 3 clusters
       3 = # of size 4 clusters
       0 = # of frozen angles
  find clusters CPU = 0.008 seconds

neighbor 2.0 bin
neigh_modify delay 0 every 1 check yes








#fix VAVG all ave/time 10 1000 50000 v_vinst

# ---------------------------------------------------------------------------
# RENEU 2026 simulation protocol (stage3a M1 butylammonium octanoate)
# 1 minimise  2 NVT relaxation  3 NPT equilibration  4 NPT production
# ---------------------------------------------------------------------------
timestep 1.0

variable TK      equal 300.0
variable PBAR    equal 1.0
variable NVTRUN  equal 20000
variable EQRUN   equal 100000
variable PRODRUN equal 200000

variable dens equal density
variable vol  equal vol

thermo 1000
thermo_style custom step temp press vol v_dens pe etotal

# --- 1. energy minimisation ------------------------------------------------
print "RENEU >>> stage 1 of 4: energy minimisation"
RENEU >>> stage 1 of 4: energy minimisation
minimize 1.0e-4 1.0e-6 10000 100000
PPPM initialization ...
  using 12-bit tables for long-range coulomb
  G vector (1/distance) = 0.30785307
  grid = 24 24 24
  stencil order = 5
  estimated absolute RMS force accuracy = 0.0023187422
  estimated relative force accuracy = 6.9828232e-06
  using double precision FFTW3
  3d grid and FFT values/proc = 18259 6912
Generated 36 of 36 mixed pair_coeff terms from geometric mixing rule
WARNING: Using fix shake with minimization.
  Substituting constraints with harmonic restraint forces using kbond=1987206.7 (src/RIGID/fix_shake.cpp:397)
Neighbor list info ...
  update: every = 1 steps, delay = 0 steps, check = yes
  max neighbors/atom: 2000, page size: 100000
  master list distance cutoff = 12
  ghost atom cutoff = 12
  binsize = 6, bins = 5 5 5
  1 neighbor lists, perpetual/occasional/extra = 1 0 0
  (1) pair lj/cut/coul/long, perpetual
      attributes: half, newton on
      pair build: half/bin/newton
      stencil: half/bin/3d
      bin: standard
Per MPI rank memory allocation (min/avg/max) = 16.48 | 16.49 | 16.49 Mbytes
   Step          Temp          Press          Volume         v_dens         PotEng         TotEng    
         0   0             -632041.14      18715.161      0.85012471     10607.518      10607.518    
         7   0              118798.65      18715.161      0.85012471     6966.6318      6966.6318    
Loop time of 1.12221 on 2 procs for 7 steps with 1576 atoms

96.7% CPU use with 2 MPI tasks x 1 OpenMP threads

Minimization stats:
  Stopping criterion = energy tolerance
  Energy initial, next-to-last, final = 
      10607.5178833083   6967.13883622247    6966.6318219154
  Force two-norm initial, final = 220346.81 4825.9056
  Force max component initial, final = 33087.694 708.70605
  Final line search alpha, max atom move = 1.5754287e-05 0.011165159
  Iterations, force evaluations = 7 32

MPI task timing breakdown:
Section |  min time  |  avg time  |  max time  |%varavg| %total
---------------------------------------------------------------
Pair    | 0.62516    | 0.66335    | 0.70155    |   4.7 | 59.11
Bond    | 0.0038007  | 0.0038536  | 0.0039065  |   0.1 |  0.34
Kspace  | 0.37647    | 0.40758    | 0.43869    |   4.9 | 36.32
Neigh   | 0          | 0          | 0          |   0.0 |  0.00
Comm    | 0.025624   | 0.029887   | 0.03415    |   2.5 |  2.66
Output  | 0          | 0          | 0          |   0.0 |  0.00
Modify  | 0.009076   | 0.0093415  | 0.009607   |   0.3 |  0.83
Other   |            | 0.0082     |            |       |  0.73

Nlocal:            788 ave         822 max         754 min
Histogram: 1 0 0 0 0 0 0 0 0 1
Nghost:         7335.5 ave        7503 max        7168 min
Histogram: 1 0 0 0 0 0 0 0 0 1
Neighs:         250006 ave      266422 max      233590 min
Histogram: 1 0 0 0 0 0 0 0 0 1

Total # of neighbors = 500012
Ave neighs/atom = 317.2665
Ave special neighs/atom = 2.3946701
Neighbor list builds = 0
Dangerous builds = 0
reset_timestep 0

# --- 2. NVT relaxation (lets the packed box relax before the barostat) ------
print "RENEU >>> stage 2 of 4: NVT relaxation"
RENEU >>> stage 2 of 4: NVT relaxation
velocity all create ${TK} 12345 mom yes rot yes dist gaussian
velocity all create 300 12345 mom yes rot yes dist gaussian
fix NVTRELAX all nvt temp ${TK} ${TK} 100
fix NVTRELAX all nvt temp 300 ${TK} 100
fix NVTRELAX all nvt temp 300 300 100
run ${NVTRUN}
run 20000
PPPM initialization ...
  using 12-bit tables for long-range coulomb
  G vector (1/distance) = 0.30785307
  grid = 24 24 24
  stencil order = 5
  estimated absolute RMS force accuracy = 0.0023187422
  estimated relative force accuracy = 6.9828232e-06
  using double precision FFTW3
  3d grid and FFT values/proc = 18259 6912
Generated 36 of 36 mixed pair_coeff terms from geometric mixing rule
Per MPI rank memory allocation (min/avg/max) = 15.36 | 15.36 | 15.36 Mbytes
   Step          Temp          Press          Volume         v_dens         PotEng         TotEng    
         0   300            122192.22      18715.161      0.85012471     6965.3259      8062.264     
      1000   311.51685     -2944.2181      18715.161      0.85012471    -6368.5566     -5229.5076    
      2000   296.53325     -3106.547       18715.161      0.85012471    -6439.4045     -5355.1425    
      3000   290.61989     -2202.0917      18715.161      0.85012471    -6475.722      -5413.0819    
      4000   295.14024     -2589.3754      18715.161      0.85012471    -6505.054      -5425.8854    
      5000   307.10248     -2240.3866      18715.161      0.85012471    -6527.2169     -5404.3088    
      6000   290.01643     -1604.8975      18715.161      0.85012471    -6470.7506     -5410.317     
      7000   312.83584     -2545.0014      18715.161      0.85012471    -6477.3261     -5333.4542    
      8000   294.28164     -1742.462       18715.161      0.85012471    -6448.2324     -5372.2032    
      9000   277.14391     -2924.8543      18715.161      0.85012471    -6518.7881     -5505.4224    
     10000   308.41583     -2180.8036      18715.161      0.85012471    -6523.7746     -5396.0644    
     11000   296.59457     -2618.3042      18715.161      0.85012471    -6550.7977     -5466.3114    
     12000   296.26354     -2135.922       18715.161      0.85012471    -6533.2681     -5449.9922    
     13000   299.15878     -2518.1789      18715.161      0.85012471    -6505.148      -5411.2858    
     14000   296.60349     -1561.4888      18715.161      0.85012471    -6511.801      -5427.2821    
     15000   310.10292     -1516.3824      18715.161      0.85012471    -6572.3199     -5438.4408    
     16000   291.5668      -1771.2451      18715.161      0.85012471    -6515.5871     -5449.4847    
     17000   287.89944     -2477.6226      18715.161      0.85012471    -6502.611      -5449.9181    
     18000   300.42864     -1583.4403      18715.161      0.85012471    -6480.9494     -5382.444     
     19000   290.45029     -2430.5526      18715.161      0.85012471    -6507.1398     -5445.1199    
     20000   301.85772     -1949.9118      18715.161      0.85012471    -6464.9668     -5361.236     
Loop time of 582.301 on 2 procs for 20000 steps with 1576 atoms

Performance: 2.968 ns/day, 8.088 hours/ns, 34.346 timesteps/s, 54.130 katom-step/s
97.4% CPU use with 2 MPI tasks x 1 OpenMP threads

MPI task timing breakdown:
Section |  min time  |  avg time  |  max time  |%varavg| %total
---------------------------------------------------------------
Pair    | 287.93     | 290.66     | 293.38     |  16.0 | 49.92
Bond    | 2.6298     | 2.9749     | 3.3199     |  20.0 |  0.51
Kspace  | 218.36     | 221.71     | 225.05     |  22.4 | 38.07
Neigh   | 27.792     | 27.794     | 27.795     |   0.0 |  4.77
Comm    | 21.133     | 21.375     | 21.618     |   5.2 |  3.67
Output  | 0.0021475  | 0.0042293  | 0.0063111  |   3.2 |  0.00
Modify  | 14.921     | 14.946     | 14.971     |   0.6 |  2.57
Other   |            | 2.845      |            |       |  0.49

Nlocal:            788 ave         816 max         760 min
Histogram: 1 0 0 0 0 0 0 0 0 1
Nghost:         7292.5 ave        7422 max        7163 min
Histogram: 1 0 0 0 0 0 0 0 0 1
Neighs:         241932 ave      243059 max      240805 min
Histogram: 1 0 0 0 0 0 0 0 0 1

Total # of neighbors = 483864
Ave neighs/atom = 307.0203
Ave special neighs/atom = 2.3946701
Neighbor list builds = 909
Dangerous builds = 0
unfix NVTRELAX

# --- 3. NPT equilibration (this is where the density finds its own value) ---
# restart files are written every 25000 steps. If the run stops for any
# reason you can pick up from the last one instead of starting over:
#     read_restart rst_a.lmp      (or rst_b.lmp, whichever is newer)
print "RENEU >>> stage 3 of 4: NPT equilibration - watch the density column"
RENEU >>> stage 3 of 4: NPT equilibration - watch the density column
restart 25000 rst_a.lmp rst_b.lmp
fix NPTEQ all npt temp ${TK} ${TK} 100 iso ${PBAR} ${PBAR} 1000
fix NPTEQ all npt temp 300 ${TK} 100 iso ${PBAR} ${PBAR} 1000
fix NPTEQ all npt temp 300 300 100 iso ${PBAR} ${PBAR} 1000
fix NPTEQ all npt temp 300 300 100 iso 1 ${PBAR} 1000
fix NPTEQ all npt temp 300 300 100 iso 1 1 1000
run ${EQRUN}
run 100000
PPPM initialization ...
  using 12-bit tables for long-range coulomb
  G vector (1/distance) = 0.30785307
  grid = 24 24 24
  stencil order = 5
  estimated absolute RMS force accuracy = 0.0023187422
  estimated relative force accuracy = 6.9828232e-06
  using double precision FFTW3
  3d grid and FFT values/proc = 18259 6912
Generated 36 of 36 mixed pair_coeff terms from geometric mixing rule
Per MPI rank memory allocation (min/avg/max) = 15.36 | 15.36 | 15.36 Mbytes
   Step          Temp          Press          Volume         v_dens         PotEng         TotEng    
     20000   301.85772     -1949.4909      18715.161      0.85012471    -6464.9668     -5361.236     
     21000   294.99724     -6.5504474      16598.922      0.95850929    -6621.9992     -5543.3535    
     22000   294.71555      121.45521      16047.596      0.99143957    -6695.4667     -5617.851     
     23000   286.57756     -273.1068       15719.748      1.0121168     -6703.501      -5655.6415    
     24000   293.93438      57.817686      15543.084      1.0236206     -6770.4206     -5695.6612    
     25000   294.23671     -1306.9215      15512.074      1.0256669     -6815.8108     -5739.946     
     26000   301.86266     -797.52357      15366.923      1.0353551     -6832.5132     -5728.7643    
     27000   289.41279      23.864082      15201.753      1.0466044     -6794.1932     -5735.9668    
     28000   304.50112      576.933        15154.853      1.0498433     -6843.4492     -5730.0529    
     29000   304.28138      658.26245      15266.053      1.0421961     -6800.0498     -5687.457     
     30000   299.18541     -152.28883      15585.748      1.0208186     -6781.1096     -5687.15      
     31000   308.5055       509.99912      15344.246      1.0368852     -6764.2753     -5636.2371    
     32000   308.33367      627.56331      14959.01       1.0635878     -6758.5519     -5631.1421    
     33000   293.71812     -1067.2274      15380.628      1.0344325     -6747.56       -5673.5913    
     34000   300.47754     -745.12738      15367.882      1.0352904     -6799.478      -5700.7939    
     35000   305.80003     -383.29238      15342.897      1.0369763     -6824.7292     -5706.5836    
     36000   285.08389     -299.28604      15308.34       1.0393172     -6837.0591     -5794.6611    
     37000   297.60663     -221.99957      14993.385      1.0611494     -6786.6503     -5698.4634    
     38000   292.11299      507.94242      15253.44       1.0430579     -6795.3328     -5727.2333    
     39000   292.22074     -1017.5188      15477.651      1.0279481     -6816.6907     -5748.1972    
     40000   302.53136     -1321.204       15393.653      1.0335573     -6791.4327     -5685.2387    
     41000   319.24686     -507.8348       15298.308      1.0399988     -6811.2328     -5643.9193    
     42000   305.70369     -14.209264      15051.323      1.0570646     -6799.7013     -5681.9079    
     43000   293.70772      832.85131      15109.6        1.0529876     -6829.127      -5755.1964    
     44000   300.44729      251.58722      15011.433      1.0598736     -6790.8684     -5692.2948    
     45000   308.27789      278.1933       15142.951      1.0506685     -6790.078      -5662.8722    
     46000   310.53486      469.00448      15086.931      1.0545698     -6762.7408     -5627.2824    
     47000   302.22241      1218.8666      15239.571      1.0440072     -6764.5958     -5659.5316    
     48000   299.40292     -291.29914      15132.799      1.0513733     -6803.8193     -5709.0644    
     49000   300.59973     -241.16746      14931.16       1.0655717     -6738.5663     -5639.4354    
     50000   303.1731       9.8912863      14860.103      1.0706669     -6831.7302     -5723.1898    
     51000   299.67502     -228.18192      15218.317      1.0454652     -6766.1509     -5670.4011    
     52000   298.57988     -582.5536       15152.608      1.0499989     -6800.3748     -5708.6293    
     53000   299.05216      388.4626       15090.55       1.0543169     -6858.3442     -5764.8719    
     54000   296.68704      465.48664      15240.665      1.0439322     -6765.3127     -5680.4883    
     55000   302.76266      546.15307      15051.332      1.057064      -6837.8331     -5730.7934    
     56000   309.17661     -203.41536      15207.164      1.046232      -6782.8264     -5652.3343    
     57000   294.69844     -392.46062      15059.02       1.0565244     -6750.6129     -5673.0597    
     58000   294.80058      887.63113      15470.028      1.0284546     -6766.7371     -5688.8104    
     59000   306.59834     -1356.7665      15512.553      1.0256352     -6821.0824     -5700.0177    
     60000   307.67524     -1250.5482      15500.748      1.0264163     -6785.4363     -5660.434     
     61000   300.20383      648.34046      15329.449      1.037886      -6746.4284     -5648.745     
     62000   307.58507      621.86326      15172.937      1.048592      -6753.7988     -5629.1262    
     63000   288.1134       484.91294      15176.502      1.0483458     -6820.5353     -5767.0601    
     64000   293.86132     -253.36274      15180.13       1.0480952     -6765.622      -5691.1297    
     65000   293.28131     -716.14838      15449.88       1.0297958     -6772.9161     -5700.5446    
     66000   296.43303      322.43565      15147.574      1.0503478     -6766.4143     -5682.5187    
     67000   295.34589      66.542334      15250.027      1.0432914     -6783.433      -5703.5124    
     68000   302.2187      -324.61722      15207.343      1.0462197     -6828.8493     -5723.7986    
     69000   299.22369     -653.5274       15598.207      1.0200032     -6740.2452     -5646.1456    
     70000   299.59767     -498.03626      15275.462      1.0415542     -6810.4904     -5715.0234    
     71000   308.05701     -316.52801      15438.223      1.0305734     -6788.1774     -5661.7792    
     72000   287.66541      1025.201       15182.447      1.0479353     -6775.5535     -5723.7163    
     73000   292.75757      268.44535      15301.657      1.0397712     -6818.7027     -5748.2463    
     74000   300.48593      1052.2952      15421.414      1.0316966     -6779.3564     -5680.6415    
     75000   306.16563     -345.58971      15286.916      1.0407738     -6734.7916     -5615.3091    
     76000   296.46853     -822.32891      15205.866      1.0463213     -6781.6403     -5697.6149    
     77000   307.14432     -1205.0343      15427.731      1.0312742     -6818.1302     -5695.0692    
     78000   303.41509      608.50727      15293.491      1.0403263     -6730.3206     -5620.8954    
     79000   304.6532      -35.711431      15496.864      1.0266736     -6752.7488     -5638.7964    
     80000   289.59772     -397.7641       15199.576      1.0467543     -6809.7228     -5750.8202    
     81000   305.58344      1035.2792      15252.103      1.0431493     -6762.1021     -5644.7484    
     82000   293.19738     -54.077016      15223.421      1.0451147     -6849.7273     -5777.6627    
     83000   286.83236     -688.40596      15178.306      1.0482211     -6782.8124     -5734.0212    
     84000   295.48508     -633.42865      15522.389      1.0249854     -6810.6566     -5730.2271    
     85000   306.16055      1021.1899      15308.259      1.0393227     -6795.3575     -5675.8936    
     86000   305.12695     -442.64854      15299.373      1.0399263     -6781.5609     -5665.8763    
     87000   299.99724      158.36347      15050.704      1.0571081     -6786.8584     -5689.9305    
     88000   304.51094      529.33331      15060.174      1.0564434     -6791.5831     -5678.151     
     89000   302.06723     -764.66077      15226.259      1.0449199     -6778.6172     -5674.1204    
     90000   292.18631      83.182234      15622.33       1.0184282     -6796.5585     -5728.1908    
     91000   307.40657     -659.16845      15219.991      1.0453502     -6734.4022     -5610.3823    
     92000   300.98622      293.38607      15125.231      1.0518994     -6840.8628     -5740.3187    
     93000   295.51539      467.92316      15121.956      1.0521272     -6786.6667     -5706.1264    
     94000   294.28349     -185.3648       15301.092      1.0398095     -6765.5611     -5689.5251    
     95000   301.16211     -399.90829      15045.331      1.0574856     -6774.8822     -5673.6948    
     96000   291.70374     -1010.0563      15412.066      1.0323224     -6784.687      -5718.0838    
     97000   304.29685     -179.9662       15077.72       1.055214      -6844.5626     -5731.9133    
     98000   297.72319      295.25634      14987.432      1.0615709     -6861.5548     -5772.9418    
     99000   298.43119      1000.4433      15008.376      1.0600895     -6804.3376     -5713.1358    
    100000   297.97927     -866.06209      15135.071      1.0512155     -6836.8508     -5747.3014    
    101000   294.28541      87.05045       15119.027      1.052331      -6793.4163     -5717.3734    
    102000   296.7916      -449.21965      15329.467      1.0378849     -6781.85       -5696.6433    
    103000   299.11879     -157.70572      15292.608      1.0403864     -6852.1268     -5758.4108    
    104000   300.5268       746.00096      15329.361      1.037892      -6771.962      -5673.0977    
    105000   298.66563      43.531468      15116.588      1.0525008     -6775.3277     -5683.2687    
    106000   304.09996      242.03945      15336.74       1.0373926     -6838.371      -5726.4415    
    107000   293.58826      59.03244       15440.3        1.0304347     -6770.8221     -5697.3283    
    108000   313.38621      680.21934      15136.38       1.0511246     -6776.0213     -5630.1371    
    109000   308.15868     -939.67124      15338.123      1.0372991     -6775.7856     -5649.0156    
    110000   297.72857     -709.35081      15203.559      1.04648       -6791.8308     -5703.1981    
    111000   301.93463      26.592447      15027.057      1.0587716     -6742.5344     -5638.5224    
    112000   307.03802      651.44847      15118.952      1.0523362     -6722.3134     -5599.641     
    113000   300.09617      181.64622      15222.194      1.045199      -6759.501      -5662.2113    
    114000   311.34949     -799.32204      15215.762      1.0456408     -6768.5417     -5630.1046    
    115000   305.57112     -366.62759      15264.214      1.0423217     -6780.7031     -5663.3944    
    116000   294.44731      1322.5539      15243.14       1.0437627     -6810.0023     -5733.3674    
    117000   305.51549     -310.47841      15268.8        1.0420086     -6759.702      -5642.5967    
    118000   295.42143      164.33855      15276.809      1.0414624     -6816.0904     -5735.8936    
    119000   300.2289       408.78401      15344.324      1.0368799     -6795.0911     -5697.316     
    120000   302.72984      457.80272      15104.347      1.0533538     -6805.7934     -5698.8737    
Loop time of 3938.39 on 2 procs for 100000 steps with 1576 atoms

Performance: 2.194 ns/day, 10.940 hours/ns, 25.391 timesteps/s, 40.016 katom-step/s
97.9% CPU use with 2 MPI tasks x 1 OpenMP threads

MPI task timing breakdown:
Section |  min time  |  avg time  |  max time  |%varavg| %total
---------------------------------------------------------------
Pair    | 1846.1     | 1850.4     | 1854.7     |  10.0 | 46.98
Bond    | 15.261     | 17.495     | 19.73      |  53.4 |  0.44
Kspace  | 1260       | 1267.2     | 1274.4     |  20.2 | 32.18
Neigh   | 152.08     | 152.11     | 152.15     |   0.3 |  3.86
Comm    | 126.04     | 126.8      | 127.57     |   6.8 |  3.22
Output  | 0.022161   | 0.03061    | 0.039059   |   4.8 |  0.00
Modify  | 460.41     | 463.4      | 466.4      |  13.9 | 11.77
Other   |            | 60.92      |            |       |  1.55

Nlocal:            788 ave         811 max         765 min
Histogram: 1 0 0 0 0 0 0 0 0 1
Nghost:         8278.5 ave        8341 max        8216 min
Histogram: 1 0 0 0 0 0 0 0 0 1
Neighs:         297292 ave      305865 max      288719 min
Histogram: 1 0 0 0 0 0 0 0 0 1

Total # of neighbors = 594584
Ave neighs/atom = 377.27411
Ave special neighs/atom = 2.3946701
Neighbor list builds = 4370
Dangerous builds = 0
unfix NPTEQ
write_data data.after_equilibration.lmp
System init for write_data ...
PPPM initialization ...
  using 12-bit tables for long-range coulomb
  G vector (1/distance) = 0.31300815
  grid = 24 24 24
  stencil order = 5
  estimated absolute RMS force accuracy = 0.0018739949
  estimated relative force accuracy = 5.6434798e-06
  using double precision FFTW3
  3d grid and FFT values/proc = 18259 6912
Generated 36 of 36 mixed pair_coeff terms from geometric mixing rule

# --- 4. NPT production - this is the trajectory you analyse ----------------
print "RENEU >>> stage 4 of 4: NPT production"
RENEU >>> stage 4 of 4: NPT production
reset_timestep 0
fix NPTPROD all npt temp ${TK} ${TK} 100 iso ${PBAR} ${PBAR} 1000
fix NPTPROD all npt temp 300 ${TK} 100 iso ${PBAR} ${PBAR} 1000
fix NPTPROD all npt temp 300 300 100 iso ${PBAR} ${PBAR} 1000
fix NPTPROD all npt temp 300 300 100 iso 1 ${PBAR} 1000
fix NPTPROD all npt temp 300 300 100 iso 1 1 1000
fix DENSAVG all ave/time 10 100 1000 v_dens v_vol file density.dat

dump TRAJ all custom 500 dump.lammpstrj id mol type element q xu yu zu
dump_modify TRAJ element N C C O C H C H O

run ${PRODRUN}
run 200000
PPPM initialization ...
  using 12-bit tables for long-range coulomb
  G vector (1/distance) = 0.31300815
  grid = 24 24 24
  stencil order = 5
  estimated absolute RMS force accuracy = 0.0018739949
  estimated relative force accuracy = 5.6434798e-06
  using double precision FFTW3
  3d grid and FFT values/proc = 18259 6912
Generated 36 of 36 mixed pair_coeff terms from geometric mixing rule
Per MPI rank memory allocation (min/avg/max) = 15.75 | 15.85 | 15.94 Mbytes
   Step          Temp          Press          Volume         v_dens         PotEng         TotEng    
         0   302.72984      471.76963      15104.347      1.0533538     -6805.7932     -5698.8736    
      1000   296.38375      182.76807      15106.684      1.0531909     -6812.32       -5728.6046    
      2000   296.1688      -546.65852      15208.001      1.0461744     -6829.8688     -5746.9393    
      3000   312.84516      551.12864      15356.499      1.0360579     -6739.0729     -5595.167     
      4000   288.63916     -146.3393       15199.016      1.0467928     -6790.7909     -5735.3932    
      5000   306.42771     -112.83451      15258.599      1.0427053     -6807.7304     -5687.2897    
      6000   301.59432     -559.04382      15236.129      1.044243      -6755.2079     -5652.4402    
      7000   301.09472      926.30928      15204.982      1.0463821     -6746.6755     -5645.7345    
      8000   300.37141      41.827905      15413.844      1.0322033     -6751.5255     -5653.2293    
      9000   309.46383     -716.11162      15445.132      1.0301123     -6767.8358     -5636.2936    
     10000   304.93373     -920.84577      15553.349      1.022945      -6764.1953     -5649.2172    
     11000   303.65791      4.1003653      15405.664      1.0327514     -6753.1713     -5642.8582    
     12000   300.85105     -829.28738      15471.559      1.0283528     -6777.438      -5677.3881    
     13000   314.8061       275.85219      15390.491      1.0337696     -6810.7595     -5659.6834    
     14000   301.25925     -562.62489      15616.946      1.0187793     -6789.1852     -5687.6427    
     15000   292.49584     -1498.2044      15439.32       1.0305001     -6841.4442     -5771.9447    
     16000   303.60353      749.56176      15206.016      1.046311      -6812.3224     -5702.2081    
     17000   303.58138      510.8973       15369.411      1.0351874     -6781.7008     -5671.6675    
     18000   297.97728     -533.12324      15404.159      1.0328523     -6773.3157     -5683.7736    
     19000   291.00452     -459.04962      15337.487      1.0373421     -6730.3542     -5666.3077    
     20000   299.05779     -96.396306      15340.445      1.0371421     -6805.7932     -5712.3002    
     21000   303.89151     -87.047615      15640.484      1.0172461     -6734.3558     -5623.1886    
     22000   293.40273      918.17085      15248.134      1.0434209     -6811.2201     -5738.4046    
     23000   307.55626      857.53065      15348.296      1.0366116     -6751.5087     -5626.9414    
     24000   305.43942     -684.87011      15362.647      1.0356433     -6879.0786     -5762.2515    
     25000   294.35882     -1002.0479      15175.852      1.0483906     -6804.485      -5728.1736    
     26000   304.29452      614.49163      15256.047      1.0428797     -6798.9718     -5686.331     
     27000   296.16455      629.23185      15117.536      1.0524348     -6843.9803     -5761.0663    
     28000   303.27028     -246.0099       15383.233      1.0342573     -6792.1518     -5683.2561    
     29000   307.79131     -89.66363       15226.273      1.0449189     -6776.6697     -5651.243     
     30000   298.92448      812.75007      14989.303      1.0614383     -6770.9136     -5677.9081    
     31000   297.91222      1350.6768      15062.297      1.0562945     -6745.4649     -5656.1607    
     32000   297.30384      1456.9196      14927.857      1.0658075     -6872.2319     -5785.1522    
     33000   300.16409      166.28844      15321.867      1.0383997     -6805.081      -5707.5429    
     34000   309.62224     -33.195572      15312.102      1.0390618     -6754.9593     -5622.8379    
     35000   303.84898     -774.239        15402.983      1.0329311     -6787.3798     -5676.368     
     36000   307.57246      88.801843      15516.325      1.0253859     -6889.8941     -5765.2676    
     37000   290.08409     -1292.1726      15503.897      1.0262079     -6864.9923     -5804.3113    
     38000   293.91422     -481.1457       15419.329      1.0318361     -6848.7245     -5774.0389    
     39000   295.63074      1198.3684      15194.842      1.0470804     -6823.5056     -5742.5435    
     40000   301.83737     -136.21183      15132.918      1.0513651     -6799.0935     -5695.4371    
     41000   289.36441     -936.05173      15393.987      1.0335348     -6767.8217     -5709.7722    
     42000   293.91948     -644.28202      15401.328      1.0330422     -6873.4528     -5798.7478    
     43000   292.70294     -257.59548      15501.834      1.0263444     -6830.7001     -5760.4434    
     44000   288.48836     -671.40364      15477.232      1.0279759     -6833.6573     -5778.8111    
     45000   294.72875     -281.87263      15252.672      1.0431104     -6763.7374     -5686.0734    
     46000   307.95138     -930.8679       15234.804      1.0443338     -6819.7845     -5693.7725    
     47000   298.60766      155.43259      15289.478      1.0405993     -6777.8264     -5685.9793    
     48000   302.63115     -466.51223      15359.635      1.0358463     -6776.269      -5669.7102    
     49000   303.92988      1208.0463      15126.616      1.0518031     -6784.0807     -5672.7731    
     50000   301.586       -66.348688      15155.225      1.0498175     -6811.8254     -5709.0881    
     51000   303.69724      378.57554      15264.448      1.0423057     -6870.8911     -5760.4342    
     52000   293.78579     -317.56992      15207.546      1.0462057     -6872.5086     -5798.2925    
     53000   302.37409      47.58076       15267.897      1.0420703     -6758.1493     -5652.5305    
     54000   294.55759     -801.2963       15455.041      1.0294519     -6696.8571     -5619.8189    
     55000   293.82325      378.33487      15211.294      1.0459479     -6812.9906     -5738.6376    
     56000   303.69436     -338.60019      15327.021      1.0380505     -6760.1005     -5649.6541    
     57000   286.78717     -151.74406      15435.347      1.0307654     -6768.9132     -5720.2873    
     58000   297.95814     -262.07787      15053.109      1.0569392     -6816.0841     -5726.612     
     59000   294.75956     -407.60682      15074.682      1.0554267     -6759.2735     -5681.4968    
     60000   300.09189      1031.5488      15065.297      1.0560842     -6836.974      -5739.6999    
     61000   297.76833      59.880175      14801.519      1.0749046     -6841.3368     -5752.5587    
     62000   299.2266       665.71195      15021.429      1.0591683     -6796.5241     -5702.4139    
     63000   302.81182      1249.8281      15164.293      1.0491898     -6776.2943     -5669.0749    
     64000   284.70881      13.289097      15538.573      1.0239178     -6831.0064     -5789.98      
     65000   289.72031     -735.99878      15503.162      1.0262566     -6772.7684     -5713.4175    
     66000   299.97245     -686.13567      15349.315      1.0365428     -6766.2121     -5669.3747    
     67000   300.69138      831.87919      15212.437      1.0458693     -6844.4572     -5744.9911    
     68000   288.77437      247.02296      15195.005      1.0470691     -6798.1671     -5742.2751    
     69000   294.26331      705.49491      15158.277      1.0496062     -6717.0497     -5641.0876    
     70000   301.928       -180.72504      15047.244      1.0573512     -6793.7085     -5689.7208    
     71000   293.8552       87.069648      15307.978      1.0393418     -6747.0105     -5672.5406    
     72000   291.82293      201.50017      15171.483      1.0486925     -6809.0344     -5741.9955    
     73000   306.92211     -378.16184      15293.699      1.0403122     -6710.7265     -5588.4779    
     74000   298.16598     -76.138228      15378.344      1.0345861     -6800.0217     -5709.7896    
     75000   302.81509      132.16331      15210.277      1.0460178     -6850.726      -5743.4947    
     76000   306.52403     -444.32843      15309.268      1.0392542     -6830.1134     -5709.3205    
     77000   294.75348     -607.85868      15342.697      1.0369899     -6798.195      -5720.4406    
     78000   299.45332     -1446.997       15462.425      1.0289603     -6756.3432     -5661.404     
     79000   283.02683     -99.033305      15364.035      1.0355497     -6752.5147     -5717.6383    
     80000   288.39133     -1079.27        15311.325      1.0391146     -6803.9113     -5749.4198    
     81000   294.57077     -769.84835      15223.624      1.0451008     -6705.0381     -5627.9518    
     82000   294.61147      169.99231      15286.064      1.0408318     -6805.8277     -5728.5925    
     83000   300.20851      1525.7572      15252.987      1.0430889     -6750.8051     -5653.1046    
     84000   300.45902      158.20342      15114.64       1.0526365     -6769.0253     -5670.4088    
     85000   296.93851      150.23968      15269.656      1.0419502     -6788.1935     -5702.4496    
     86000   290.57898     -136.51384      15291.778      1.0404429     -6707.7682     -5645.2777    
     87000   305.05435      39.291795      15268.385      1.0420369     -6761.7075     -5646.2884    
     88000   297.33119      472.75731      15161.813      1.0493614     -6773.6428     -5686.4631    
     89000   298.54245      920.09727      15229.142      1.0447221     -6783.2231     -5691.6145    
     90000   296.78598     -842.61515      15281.101      1.0411698     -6814.5736     -5729.3874    
     91000   298.17083     -34.823423      15299.829      1.0398953     -6697.0255     -5606.7757    
     92000   307.53555     -284.42176      15339.778      1.0371872     -6793.513      -5669.0214    
     93000   292.13587     -40.358898      15217.602      1.0455144     -6757.5513     -5689.3681    
     94000   299.15575     -480.5363       14978.08       1.0622337     -6747.9196     -5654.0685    
     95000   288.4101       179.48473      14698.038      1.0824725     -6819.3419     -5764.7818    
     96000   295.6397       972.93071      14906.395      1.067342      -6739.2348     -5658.2399    
     97000   286.25102     -18.342845      15154.672      1.0498559     -6769.9382     -5723.2726    
     98000   304.54896     -596.02616      15299.179      1.0399396     -6827.5177     -5713.9465    
     99000   299.05693     -184.015        15191.576      1.0473055     -6880.0563     -5786.5665    
    100000   303.37831     -590.04062      15471.661      1.028346      -6779.4268     -5670.1361    
    101000   319.54431     -247.70764      15385.553      1.0341013     -6797.614      -5629.2129    
    102000   294.19881      205.895        15279.573      1.041274      -6832.9501     -5757.2239    
    103000   295.24949     -96.453775      15321.778      1.0384057     -6774.4679     -5694.8999    
    104000   299.82145     -663.67758      15135.822      1.0511633     -6859.771      -5763.4857    
    105000   294.53814     -143.6901       15271.202      1.0418447     -6766.0585     -5689.0915    
    106000   298.91489      571.27697      15059.869      1.0564648     -6825.1165     -5732.146     
    107000   298.65754     -99.798057      15230.177      1.0446511     -6782.0638     -5690.0344    
    108000   304.95119     -227.55944      15116.02       1.0525404     -6801.5335     -5686.4916    
    109000   289.20195     -531.61247      15303.276      1.0396612     -6839.7421     -5782.2867    
    110000   296.22122     -458.83195      15037.782      1.0580165     -6788.6367     -5705.5156    
    111000   310.68726     -353.93022      15203.307      1.0464974     -6815.6973     -5679.6816    
    112000   305.16379      1219.6046      15308.392      1.0393137     -6848.8306     -5733.0113    
    113000   302.74529      295.86185      15196.135      1.0469913     -6819.7891     -5712.8129    
    114000   303.01091      968.96304      15085.108      1.0546972     -6770.3694     -5662.422     
    115000   300.79647      781.3462       15260.251      1.0425924     -6796.0398     -5696.1894    
    116000   306.52726      978.01564      15322.273      1.0383721     -6784.4337     -5663.629     
    117000   303.85651     -26.117161      15488.99       1.0271955     -6726.0341     -5614.9948    
    118000   301.63274     -995.90382      15394.476      1.033502      -6779.6141     -5676.706     
    119000   299.93046     -6.9356521      15238.994      1.0440467     -6810.8338     -5714.15      
    120000   305.93343     -379.99194      15483.31       1.0275724     -6765.8333     -5647.1998    
    121000   314.41531     -1398.3523      15359.656      1.0358449     -6815.6175     -5665.9704    
    122000   299.93669     -364.40708      15033.581      1.0583121     -6794.7407     -5698.0341    
    123000   315.59732      561.13741      14920.902      1.0663043     -6716.0367     -5562.0676    
    124000   289.91273      1022.1935      14980.396      1.0620695     -6787.3662     -5727.3118    
    125000   306.20262      981.37233      14997.398      1.0608654     -6813.2224     -5693.6046    
    126000   293.39037      177.63856      15173.169      1.048576      -6802.4544     -5729.6841    
    127000   306.74635     -383.43749      15246.423      1.0435379     -6849.6524     -5728.0465    
    128000   299.55124      298.83044      15350.55       1.0364594     -6702.263      -5606.9657    
    129000   292.76427      48.144086      15492.138      1.0269868     -6777.0554     -5706.5745    
    130000   298.70431      447.46448      15185.947      1.0476937     -6862.1408     -5769.9404    
    131000   305.97291     -267.43889      15053.627      1.0569028     -6764.134      -5645.3562    
    132000   295.98876     -618.81694      15228.032      1.0447983     -6819.7452     -5737.474     
    133000   302.32588      592.24689      15219.64       1.0453743     -6748.2157     -5642.7731    
    134000   301.16929      328.96282      15276.236      1.0415014     -6791.2599     -5690.0463    
    135000   300.6071      -796.89706      15432.776      1.0309371     -6761.1151     -5661.9571    
    136000   309.64323     -1692.941       15240.491      1.0439441     -6859.7037     -5727.5055    
    137000   298.44271     -409.79325      15262.754      1.0424214     -6823.5845     -5732.3405    
    138000   296.9296      -148.20504      15211.818      1.0459119     -6763.4296     -5677.7183    
    139000   296.0554       345.26514      15140.239      1.0508566     -6795.8968     -5713.3819    
    140000   297.51466     -121.23773      15161.708      1.0493687     -6779.6463     -5691.7957    
    141000   298.11535      1202.6334      15016.169      1.0595393     -6805.1197     -5715.0728    
    142000   302.24155      1054.733       15481.631      1.0276838     -6760.5474     -5655.4132    
    143000   307.06692     -355.68473      15408.339      1.0325721     -6782.5738     -5659.7958    
    144000   309.37996     -148.62493      15357.477      1.0359919     -6783.0241     -5651.7886    
    145000   299.20439     -1124.8816      15348.578      1.0365925     -6814.4907     -5720.4617    
    146000   297.69303     -1219.1884      15363.321      1.0355978     -6812.0669     -5723.5641    
    147000   300.94436      888.07352      15192.529      1.0472398     -6813.3926     -5713.0015    
    148000   300.62939      172.25532      15302.017      1.0397467     -6767.0246     -5667.7852    
    149000   292.58456     -309.29823      15300.711      1.0398354     -6780.0761     -5710.2523    
    150000   289.67798      325.80942      15201.395      1.046629      -6778.7644     -5719.5683    
    151000   297.77102      380.41674      15231.374      1.044569      -6819.9089     -5731.121     
    152000   293.04216     -173.17252      15186.784      1.0476359     -6777.4143     -5705.9173    
    153000   302.31189     -695.06816      15136.256      1.0511332     -6813.9076     -5708.5162    
    154000   292.85916      1223.6804      15270.778      1.0418737     -6782.307      -5711.4791    
    155000   285.09509     -242.72009      15153.408      1.0499434     -6795.8643     -5753.4254    
    156000   295.55946      1671.8252      15203.263      1.0465004     -6780.1294     -5699.4279    
    157000   310.71463      974.02497      15179.783      1.0481192     -6766.8261     -5630.7104    
    158000   294.20291     -611.466        15430.214      1.0311083     -6736.779      -5661.0377    
    159000   297.1793       215.06089      15393.904      1.0335403     -6795.7084     -5709.084     
    160000   301.24868      848.71775      15215.709      1.0456444     -6778.0185     -5676.5147    
    161000   306.94736      126.60347      15153.785      1.0499173     -6879.9972     -5757.6564    
    162000   294.51196      684.79793      15357.988      1.0359574     -6788.6813     -5711.81      
    163000   300.22592      2091.803       15064.645      1.0561298     -6789.918      -5692.1538    
    164000   290.5929      -1004.5563      15052.453      1.0569853     -6794.6032     -5732.0618    
    165000   303.8167      -353.50105      15203.006      1.0465181     -6798.6326     -5687.7389    
    166000   296.86243      1298.5992      15241.264      1.0438912     -6819.7808     -5734.3151    
    167000   310.23083      1385.6216      15250.156      1.0432825     -6720.2236     -5585.8769    
    168000   300.03489     -237.60285      15142.75       1.0506824     -6825.7765     -5728.7108    
    169000   300.2889      -535.73398      15207.609      1.0462013     -6780.3231     -5682.3286    
    170000   293.7454      -1233.6562      15173.103      1.0485806     -6830.5055     -5756.4372    
    171000   305.15363      95.343042      15252.188      1.0431435     -6775.8769     -5660.0947    
    172000   294.6183       29.850853      15249.726      1.0433119     -6761.078      -5683.8179    
    173000   306.81624      451.55286      15151.409      1.050082      -6788.6296     -5666.7682    
    174000   299.38007     -991.64797      15146.929      1.0503925     -6818.8897     -5724.2183    
    175000   300.71606     -22.135034      15232.525      1.0444901     -6802.5419     -5702.9855    
    176000   326.76254     -238.74608      15359.095      1.0358827     -6834.0163     -5639.2221    
    177000   302.74794      105.68746      15299.385      1.0399255     -6748.6887     -5641.7029    
    178000   305.21119      556.01813      15351.114      1.0364213     -6755.5619     -5639.5693    
    179000   291.57655     -352.63899      15509.134      1.0258614     -6843.1934     -5777.0553    
    180000   299.76612     -579.44877      15484.395      1.0275003     -6823.2982     -5727.2153    
    181000   300.62342      202.30233      15417.199      1.0319787     -6811.6605     -5712.4429    
    182000   300.04448      288.16239      15438.695      1.0305418     -6787.3123     -5690.2116    
    183000   300.7764      -92.700797      15154.495      1.0498681     -6769.8786     -5670.1016    
    184000   299.61933      618.18773      15093.135      1.0541363     -6772.602      -5677.0558    
    185000   310.80567     -433.56056      15057.755      1.0566131     -6748.8298     -5612.3812    
    186000   300.13499      589.85053      15393.403      1.033574      -6782.5502     -5685.1185    
    187000   296.63524     -84.307165      15205.729      1.0463307     -6789.377      -5704.742     
    188000   289.50654      179.66945      15418.207      1.0319112     -6763.697      -5705.1279    
    189000   298.66321     -747.49765      15088.217      1.0544799     -6777.3781     -5685.3279    
    190000   292.6247      -30.06174       15191.205      1.0473311     -6848.5523     -5778.5817    
    191000   301.25607      149.62332      15209.915      1.0460427     -6822.0344     -5720.5035    
    192000   293.9597      -313.91958      15222.461      1.0451806     -6841.9293     -5767.0773    
    193000   300.91651      751.0615       15085.244      1.0546877     -6776.6349     -5676.3456    
    194000   306.60978      609.49214      15327.581      1.0380125     -6735.649      -5614.5425    
    195000   296.68028     -263.3871       15430.515      1.0310881     -6734.8276     -5650.028     
    196000   300.79582     -21.042407      15322.052      1.0383871     -6753.6203     -5653.7724    
    197000   310.91399      989.81682      14997.113      1.0608856     -6739.9097     -5603.065     
    198000   303.56715      380.14945      15213.956      1.0457649     -6826.544      -5716.5627    
    199000   301.49269      571.80509      15262.207      1.0424587     -6742.353      -5639.9569    
    200000   296.28741     -1233.8366      15519.422      1.0251813     -6728.8613     -5645.4981    
Loop time of 8822.9 on 2 procs for 200000 steps with 1576 atoms

Performance: 1.959 ns/day, 12.254 hours/ns, 22.668 timesteps/s, 35.725 katom-step/s
97.8% CPU use with 2 MPI tasks x 1 OpenMP threads

MPI task timing breakdown:
Section |  min time  |  avg time  |  max time  |%varavg| %total
---------------------------------------------------------------
Pair    | 4136.6     | 4154.5     | 4172.3     |  27.7 | 47.09
Bond    | 32.81      | 38.203     | 43.595     |  87.2 |  0.43
Kspace  | 2827.1     | 2839.7     | 2852.2     |  23.6 | 32.19
Neigh   | 323.96     | 323.97     | 323.98     |   0.1 |  3.67
Comm    | 296.19     | 296.52     | 296.84     |   1.9 |  3.36
Output  | 23.053     | 26.342     | 29.631     |  64.1 |  0.30
Modify  | 1004.2     | 1004.6     | 1004.9     |   1.1 | 11.39
Other   |            | 139.2      |            |       |  1.58

Nlocal:            788 ave         793 max         783 min
Histogram: 1 0 0 0 0 0 0 0 0 1
Nghost:         8079.5 ave        8087 max        8072 min
Histogram: 1 0 0 0 0 0 0 0 0 1
Neighs:         289069 ave      290093 max      288045 min
Histogram: 1 0 0 0 0 0 0 0 0 1

Total # of neighbors = 578138
Ave neighs/atom = 366.83883
Ave special neighs/atom = 2.3946701
Neighbor list builds = 8718
Dangerous builds = 0

write_data data.final.lmp
System init for write_data ...
PPPM initialization ...
  using 12-bit tables for long-range coulomb
  G vector (1/distance) = 0.31236184
  grid = 24 24 24
  stencil order = 5
  estimated absolute RMS force accuracy = 0.0019250548
  estimated relative force accuracy = 5.7972454e-06
  using double precision FFTW3
  3d grid and FFT values/proc = 18259 6912
Generated 36 of 36 mixed pair_coeff terms from geometric mixing rule
print "RENEU >>> finished. trajectory = dump.lammpstrj, density log = density.dat"
RENEU >>> finished. trajectory = dump.lammpstrj, density log = density.dat
Total wall time: 3:42:25
