LAMMPS data file via write_data, version 10 Dec 2025, timestep = 200000, units = real

2970 atoms
14 atom types
2640 bonds
7 bond types
4345 angles
12 angle types
5335 dihedrals
12 dihedral types

2.501699698707588 32.81830030129303 xlo xhi
2.501699698707588 32.81830030129303 ylo yhi
2.501699698707588 32.81830030129303 zlo zhi

Masses

1 14.007
2 12.011
3 1.008
4 12.011
5 1.008
6 1.008
7 12.011
8 1.008
9 12.011
10 12.011
11 15.999
12 12.011
13 1.008
14 15.999

Bond Coeffs # harmonic

1 382.003 1.448
2 434.034 1.01
3 267.925 1.529
4 339.986 1.09
5 317.041 1.522
6 655.951 1.25
7 517.63 1

Angle Coeffs # harmonic

1 35.0024 109.5
2 35.0024 109.5
3 56.2022 109.5
4 35.0024 109.5
5 37.5 110.7
6 32.9947 107.8
7 58.3533 112.7
8 70.0048 117
9 79.9952 126
10 63.0019 111.1
11 35.0024 109.5
12 37.9505 109.47

Dihedral Coeffs # opls

1 -0.19001 -0.416993 0.417997 0
2 0 0 0.4 0
3 2.39199 -0.673996 0.55 0
4 0 0 0.3 0
5 -1.013 -0.709011 0.472992 0
6 0 0 0.3 0
7 1.3 -0.05 0.2 0
8 0 0.820005 0 0
9 0 0 0 0
10 -3.18499 -0.825 0.492997 0
11 0 0 -0.225 0
12 0 21 0 0

Atoms # full

952 56 4 -0.12 4.395684218738275 3.7160026394524595 7.427156575432295 1 0 0
955 56 12 -0.18 4.94729448180039 4.351510068313292 6.114470276647479 1 0 0
960 56 6 0.06 4.168684070469892 4.3794995106080545 5.352158691630237 1 0 0
949 56 4 -0.12 3.623709240843776 4.86016513608172 8.189261267670833 1 0 0
959 56 6 0.06 5.783597381891214 3.735475782470204 5.783961947875415 1 0 0
953 56 6 0.06 4.395936659797735 5.575997342668051 8.4710157283311 1 0 0
956 56 6 0.06 3.7497097465621154 2.8542337715156085 7.259204364527193 1 0 0
958 56 6 0.06 5.386418767472286 5.317313698158092 6.364529638826871 1 0 0
954 56 6 0.06 2.8562825859457446 5.384194927104588 7.619537100022308 1 0 0
957 56 6 0.06 5.2052752229329045 3.3758217222380162 8.072893276050978 1 0 0
946 56 4 -0.12 3.0293262599780233 4.144001175325673 9.37182615279865 1 0 0
951 56 6 0.06 3.744345778090228 3.569167192383553 9.960425784591179 1 0 0
983 57 6 0.06 3.132367513734653 7.899356983979307 4.7152545219852415 1 0 1
2081 101 6 0.06 2.7010000793667133 8.387437432420047 8.608990228921185 0 0 0
1928 95 6 0.06 6.96601837381803 7.037563225433946 3.4959949116995266 0 0 1
1528 79 6 0.06 8.53183005534858 4.410259823429411 6.206528905531218 0 1 0
984 57 6 0.06 2.7362697069832262 6.451932899982593 5.860220248377983 1 0 1
980 57 12 -0.18 2.6768657857654583 6.9226914453935136 4.8788976250837575 1 0 1
985 57 6 0.06 3.4331488386185507 6.378038123658051 4.313631983344688 1 0 1
1480 77 12 -0.18 2.8696135156654146 2.6786524512244236 2.8786829622823804 1 1 0
1483 77 6 0.06 3.2349216207314626 3.704564895289267 2.831883667081569 1 1 0
1924 95 4 -0.12 7.4468219391604995 7.008480289333375 2.5181817659973893 0 0 1
1534 79 6 0.06 8.797418345013451 7.0264261160310895 5.787339684772582 0 1 0
1907 94 6 0.06 9.021239864756888 7.697212863138288 9.16174967928653 1 0 0
1931 95 6 0.06 8.882512579764793 5.576902434681232 3.3875674322366747 0 0 1
1927 95 4 -0.12 8.813437907733782 6.410991631574339 2.689240542558894 0 0 1
1932 95 6 0.06 9.36996067760887 7.174394075850569 3.2329643185746924 0 0 1
1532 79 6 0.06 9.179613983727545 5.901949180085671 7.936127056483496 0 1 0
1533 79 6 0.06 10.53150253928416 6.77372825966891 5.400139155928004 0 1 0
1530 79 12 -0.18 9.80803413906441 6.96909046699546 6.191696832866818 0 1 0
1535 79 6 0.06 10.027894101031771 7.947953397867908 6.617872152139514 0 1 0
1527 79 4 -0.12 9.930245731238768 5.856073325661507 7.147087182470117 0 1 0
1524 79 4 -0.12 9.572977456806047 4.44876942653257 6.526943475296376 0 1 0
1531 79 6 0.06 10.944751709147177 5.884751293009511 7.544694684696784 0 1 0
1529 79 6 0.06 10.05575445825979 4.3159419229552745 5.558739123435969 0 1 0
1276 69 6 0.06 13.727242152278391 5.926773869563254 4.5722332560959895 0 0 0
1277 69 4 -0.12 13.476111910227852 3.694784423143259 6.395786967744204 0 0 0
1282 69 6 0.06 12.437425385975992 3.8109220102101964 6.086305357586465 0 0 0
1281 69 6 0.06 13.929555482336092 3.1352419530446016 5.5775952778885305 0 0 0
1507 78 6 0.06 12.198759137846867 4.891741524027153 10.059043559869279 0 0 0
1278 69 6 0.06 13.401659675675743 5.855811901677711 7.016668682509727 0 0 0
1271 69 4 -0.12 14.596083131154149 5.702719612655903 5.191144862768302 0 0 0
1274 69 4 -0.12 14.085603440367255 5.153770346344292 6.53970442013914 0 0 0
1280 69 12 -0.18 13.634836447508464 2.9061882005845625 7.690603779393171 0 0 0
1283 69 6 0.06 13.228739572663349 3.4826727577733365 8.521800099804729 0 0 0
1525 79 6 0.06 11.090012248604308 3.309905584974438 7.666215179422187 0 1 0
1526 79 6 0.06 9.61032701864926 3.496412327721385 8.492446251507591 0 1 0
1521 79 4 -0.12 10.01353378873602 3.319912207509261 7.4952459078767175 0 1 0
1902 94 4 -0.12 8.57341530110699 8.339555001871602 9.920028092505628 1 0 0
1273 69 6 0.06 14.804278511353623 7.810748019638228 5.867415317396455 0 0 0
1279 69 6 0.06 14.947925203086111 5.058709821872399 7.199629414575148 0 0 0
1275 69 6 0.06 15.299126233391474 5.0206310606646305 4.713000416180862 0 0 0
1272 69 6 0.06 15.264885993980533 7.405312635575645 4.140206387027305 0 0 0
1268 69 4 -0.12 15.263498014040872 7.095310778248616 5.185210404873989 0 0 0
1270 69 6 0.06 17.224865530501447 6.433409495053418 4.972550714308878 0 0 0
1269 69 6 0.06 16.842431493260925 6.744021399234601 6.592231977523134 0 0 0
1265 69 4 -0.12 16.673960135665098 7.1416755262020875 5.591419753765341 0 0 0
1651 84 6 0.06 18.797304650652137 3.345443005782583 7.4913799706812565 0 0 0
1646 84 4 -0.12 19.311121415660132 3.2543393476180773 6.534390436179566 0 0 0
1650 84 6 0.06 18.848997691392555 4.1203302296427085 6.060430562097348 0 0 0
1656 84 6 0.06 17.265037375284283 3.1660878698553794 5.210919742256024 0 0 0
1644 84 6 0.06 20.468750727741458 5.534687165034331 7.194493772732583 0 0 0
233 14 7 -0.32 20.345303220035127 6.668669626545849 4.742776779973727 0 0 1
66 4 8 0.13 17.029280535453026 7.40305445467593 9.867906728036187 0 0 0
1800 90 6 0.06 20.52037435798232 7.643574644246094 9.688877800569625 0 0 0
236 14 8 0.13 19.57011069736147 6.023341780660681 5.156014055332764 0 0 1
238 14 8 0.13 19.79678073873665 7.530646550410085 4.36296710801249 0 0 1
231 14 6 0.06 20.25101158267487 4.097317468063686 3.781257502192589 0 0 1
1267 69 6 0.06 18.26025334105966 8.380191073708009 6.2082373252239815 0 0 0
1262 69 10 -0.22 17.304130449865667 8.472155188434236 5.692962575693451 0 0 0
1263 69 11 -0.8 17.238223490682266 8.557898522564827 3.3580653257032833 0 0 0
1285 69 6 0.06 14.688036037989933 2.7017712835627203 7.883271153109048 0 0 0
255 15 8 0.13 18.705696933065532 3.7423344473850912 9.95268142125283 0 0 0
227 14 4 -0.12 20.54860184390664 4.774334606513971 2.9804926704412877 0 0 1
727 43 6 0.06 15.179411014687465 4.264493535649583 2.6580380432489434 0 0 0
237 14 8 0.13 20.95257378686575 7.10129609294185 5.537882600149137 0 0 1
1643 84 4 -0.12 20.853582880644694 3.3941223543287973 6.6915642562443525 0 0 0
1647 84 6 0.06 21.220744559692562 2.514758560867875 7.220759993960491 0 0 0
1640 84 4 -0.12 21.143208950156094 4.723535857832049 7.468858628865757 0 0 0
1645 84 6 0.06 20.921431778857894 4.515059297698023 8.51551468166284 0 0 0
1648 84 6 0.06 21.35586767704907 3.4003070503064414 5.72419241451064 0 0 0
1641 84 6 0.06 22.748071912461732 5.417940996650238 6.208143362918957 0 0 0
1642 84 6 0.06 22.570755492558717 6.065366653846411 7.8415201295664625 0 0 0
1637 84 10 -0.22 22.56755986899671 5.150297598265965 7.249257600619957 0 0 0
2305 110 12 -0.18 25.34446671125123 7.686401384088202 6.85738693272263 0 0 0
2399 140 14 -0.8476 24.259430905936867 4.08798431547234 4.311118117420198 0 0 0
1636 84 9 0.7 23.660569708887465 4.1814760468245336 7.662014166161895 0 0 0
2398 140 13 0.4238 24.573636675571322 3.9892007049355565 5.255337000469714 0 0 0
1638 84 11 -0.8 23.415812041877132 3.369306617153198 8.593021897275047 0 0 0
1639 84 11 -0.8 24.68748749479552 4.036270145623603 6.961019086723046 0 0 0
2310 110 6 0.06 24.256491023360454 7.732992463560293 6.905080966111182 0 0 0
230 14 4 -0.12 21.146265439773245 6.035410703138176 3.65828117958017 0 0 1
20 2 3 0.35 25.164678612220655 2.6311162599022704 8.78932867022478 0 0 0
2400 140 13 0.4238 24.437081925796583 5.0310014199033635 4.029710915620564 0 0 0
235 14 6 0.06 22.163134006661814 5.967585772649716 4.0449523310453 0 0 1
2309 110 6 0.06 25.790487918016098 6.6918433677935 6.864866939072617 0 0 0
2306 110 6 0.06 25.92499412273407 7.953247985913307 8.809612790960594 0 0 0
225 14 3 0.35 23.122469068334475 3.2311583852232175 3.0455023815960427 0 0 1
2308 110 6 0.06 25.724553043220325 8.108816843237868 5.927206282231766 0 0 0
2789 270 14 -0.8476 24.848319291163435 6.357216380402304 2.805349216078077 -1 0 1
527 31 8 0.13 23.35236792323017 8.029967230593947 4.224836944600412 0 0 0
969 57 6 0.06 26.599674576611292 8.387098354707163 3.2502637882019707 0 0 1
241 15 3 0.35 22.501002501505745 2.6070007431104787 9.621795235101047 0 0 0
16 1 8 0.13 24.716727662302787 5.848617350331378 10.021545819287947 0 0 0
1796 90 4 -0.12 21.2675554409374 8.38026165474951 9.984088166678962 0 0 0
1801 90 6 0.06 22.24852949421416 7.965932263427913 9.75137029848783 0 0 0
234 14 6 0.06 21.217328525530718 6.77924881230646 2.8646871728131105 0 0 1
2788 270 13 0.4238 25.68052029535245 6.909842736688001 2.7597829021195066 -1 0 1
950 56 6 0.06 32.69134255280452 3.336668708032541 9.043390138185872 0 0 0
27 2 6 0.06 26.850421645577114 4.200129888931718 7.928846772013307 0 0 0
977 57 4 -0.12 31.689086098199944 6.815755968381889 4.088775666656242 0 0 1
982 57 6 0.06 31.2258158881151 5.842877318612345 4.253166525608594 0 0 1
978 57 6 0.06 30.381488303708288 7.7923744359716 5.3650684681907626 0 0 1
23 2 4 -0.12 27.615820816379106 3.4298266093066005 8.023364016504347 0 0 0
33 2 8 0.13 29.309286197271284 5.216006442835145 6.358522299773922 0 0 0
32 2 8 0.13 30.16337397945113 5.782917852858058 7.844092697951076 0 0 0
34 2 8 0.13 28.381362557534096 5.85815948871883 7.718654608174594 0 0 0
29 2 7 -0.32 29.27386750220188 5.295378975604336 7.445068191345688 0 0 0
26 2 4 -0.12 29.035488177262266 4.008878688873228 8.184303680044835 0 0 0
30 2 6 0.06 29.760303009425982 3.3630222735810777 7.688673282657941 0 0 0
974 57 4 -0.12 30.735012333877094 7.987401539374491 4.352585561693308 0 0 1
28 2 6 0.06 27.464887063558628 2.885676483888695 7.091024936750136 0 0 0
971 57 4 -0.12 29.534118779213856 7.9243887186669 3.396740826065494 0 0 1
31 2 6 0.06 29.432750436823845 4.135781090745407 9.191386092219142 0 0 0
816 48 8 0.13 27.629668725725693 4.84125674317557 2.936420109013718 0 1 1
811 48 7 -0.32 28.297452195203313 4.067948478250694 3.3161515996431965 0 1 1
947 56 6 0.06 31.937744608717217 5.786358042702972 9.672089515572718 0 0 0
611 36 8 0.13 30.830284986640713 8.064311933553576 9.923710470949153 0 0 0
814 48 8 0.13 28.573785066117225 4.580173641997669 4.237781658861031 0 1 1
976 57 6 0.06 28.999786830443604 6.980023219054709 3.500662168654211 0 0 1
1481 77 6 0.06 32.71459572742326 3.010663371262295 4.7912620805952395 0 1 0
1477 77 4 -0.12 32.139029313387226 2.722759470917248 3.911505769852002 0 1 0
1482 77 6 0.06 31.4261700607179 3.519176021860456 3.6977561628840574 0 1 0
813 48 6 0.06 26.80665304784648 2.724510725429085 4.171714820368178 0 1 1
808 48 4 -0.12 27.689104579687843 2.639095847701721 3.5375853885320905 0 1 1
981 57 6 0.06 31.932655393172176 6.802197477421556 3.026407222733073 0 0 1
610 36 8 0.13 29.318330163190787 8.359058000957775 9.420492050697547 0 0 0
815 48 8 0.13 29.164961409260407 4.029690175939668 2.65728847853721 0 1 1
2085 101 6 0.06 3.3772038312839627 9.047621153657113 6.476650536502271 0 0 0
1628 83 6 0.06 7.050889956811052 12.018127721281749 3.702109073962939 0 0 0
1634 83 6 0.06 7.4337137807272615 8.98045755143541 6.738401722655677 0 0 0
2783 268 14 -0.8476 6.322847429063407 13.53656254595384 8.481787992436065 0 0 1
2784 268 13 0.4238 6.0534954976505295 13.11338608636738 9.346890318145661 0 0 1
2782 268 13 0.4238 7.238505217467674 13.911944798186795 8.625632813577145 0 0 1
1629 83 6 0.06 6.561919078653818 12.40063735367456 5.343694972758975 0 0 0
1627 83 4 -0.12 7.4591780009986834 10.375798382503925 5.092852399764192 0 0 0
355 21 8 0.13 3.9103269182676565 10.227947155761193 4.396834893795612 1 0 1
1624 83 4 -0.12 7.304113751904949 11.865553774695126 4.751268458256654 0 0 0
1632 83 6 0.06 6.59428002629061 9.808160001400331 4.74952364796678 0 0 0
650 39 3 0.35 5.313364691214748 14.05091753517635 6.922062396201144 0 0 0
352 21 7 -0.32 3.1425021036068395 10.668151545014235 3.760594636901663 1 0 1
356 21 8 0.13 3.3577282862596167 11.730369868743452 3.8768117048179924 1 0 1
2082 101 6 0.06 4.185609566627755 9.224116685200627 8.754106634471437 0 0 0
2071 101 4 -0.12 3.4708317831783173 11.877358492528199 9.384353326462811 0 0 0
2065 101 4 -0.12 3.271261254750628 14.291262724540799 9.916475821738157 0 0 0
1630 83 12 -0.18 7.448806082313464 10.064930893839055 6.629652865992586 0 0 0
1633 83 6 0.06 6.483124741793645 10.364589463297417 7.036839348830454 0 0 0
1623 83 6 0.06 7.821721849730668 14.602746990716868 5.074247095529659 0 0 0
2084 101 6 0.06 3.3022542790438694 10.806674520128123 6.896950532915516 0 0 0
2077 101 4 -0.12 3.123455176165324 9.391703583060266 8.575559329202719 0 0 0
1635 83 6 0.06 8.313711280716465 10.409918240050594 7.1962737050878545 0 0 0
2070 101 6 0.06 3.481893406078669 14.491094182633185 8.865838909237262 0 0 0
1631 83 6 0.06 8.321606994201282 9.8739515184748 4.654101401751001 0 0 0
2076 101 6 0.06 3.7367486996313404 12.146096939800879 8.36200099269795 0 0 0
2080 101 12 -0.18 2.932786913965735 9.806009313143583 7.121226011530616 0 0 0
2074 101 4 -0.12 2.688197832084174 10.543709846851856 9.54468422028597 0 0 0
2068 101 4 -0.12 2.6003108916527435 12.944343262902285 10.014891643299952 0 0 0
1622 83 6 0.06 8.285972636178478 14.088082680918104 3.4317918202849254 0 0 0
651 39 3 0.35 3.8064430065428208 14.271017969137539 6.389202427857493 0 0 0
2919 313 13 0.4238 5.220294533573576 14.01676295997495 2.7775421992393707 0 0 1
649 39 3 0.35 5.072250685484779 14.599492367115765 5.369445709614224 0 0 0
2918 313 14 -0.8476 5.218888870473682 14.618455116007947 3.576288259279255 0 0 1
1906 94 6 0.06 7.65521715128397 8.634344473462164 9.411945555608206 1 0 0
2075 101 6 0.06 4.448804801213955 11.78635963397248 9.857031353998536 0 0 0
1233 67 6 0.06 12.79071701981647 8.758426049942237 7.041660556500278 0 0 1
2188 106 11 -0.8 8.601813277980446 14.577794878719086 9.481278275746586 0 0 0
1234 67 6 0.06 13.978058818934677 9.760946953259449 7.796529030328255 0 0 1
1235 67 6 0.06 12.509922417244738 9.722893741799915 8.607377656327506 0 0 1
1230 67 12 -0.18 12.909379386360994 9.690792349813897 7.5937011731219854 0 0 1
1215 67 4 -0.12 14.05453062104509 13.397436082184118 2.6161009037623186 0 0 1
1618 83 4 -0.12 8.566401390973954 14.067692505258837 4.4849207025449545 0 0 0
1621 83 4 -0.12 8.591261349720924 12.611082086024654 5.017056416124669 0 0 0
1626 83 6 0.06 9.435460607050148 12.108331970085699 4.545138543482266 0 0 0
2186 106 9 0.7 9.555352936560116 13.88579944071616 9.854911368005457 0 0 0
1625 83 6 0.06 8.760718637223786 12.590121851738422 6.093616366619182 0 0 0
1225 67 6 0.06 12.222869646031317 12.199755381797873 4.33376152130789 0 0 1
1227 67 4 -0.12 12.463705229160894 10.868734051806266 6.733069617446061 0 0 1
1224 67 4 -0.12 13.479769699949314 11.00246488756794 5.545743911559599 0 0 1
1231 67 6 0.06 11.445701597902987 10.823172287528577 6.346120978918312 0 0 1
1232 67 6 0.06 12.587568774296724 11.811677892993329 7.265658830200333 0 0 1
1221 67 4 -0.12 13.276319051194529 12.156501706834506 4.6103658994669185 0 0 1
1229 67 6 0.06 13.44627173058688 10.126546535851563 4.897838459759642 0 0 1
1228 67 6 0.06 14.508231086471467 10.930656030761044 5.89964667223922 0 0 1
1226 67 6 0.06 13.45068414485633 13.148358496669431 5.027443179028756 0 0 1
2192 106 6 0.06 10.76289446884064 12.52164929944804 8.88368277216516 0 0 0
2187 106 10 -0.22 10.61443881523596 13.600734082362898 8.84277531323503 0 0 0
1218 67 4 -0.12 14.11091959164103 12.020335985220258 3.307085537608903 0 0 1
2190 106 4 -0.12 11.977387525141417 14.26746382897419 9.054997217145598 0 0 0
2194 106 6 0.06 12.662242977262228 13.480683135698383 8.738634007604784 0 0 0
2191 106 6 0.06 10.161935090029694 13.719865668404456 7.858303600856778 0 0 0
1910 94 6 0.06 9.768108863417709 9.780288972188371 8.880890533639834 1 0 0
1220 67 6 0.06 14.53591871455653 14.081634700593893 3.3148671454142264 0 0 1
1620 83 6 0.06 10.687863008014283 14.608147235003313 4.103479498283367 0 0 0
595 35 8 0.13 11.698250588409719 10.368621305130254 2.531148409748689 0 0 1
1905 94 12 -0.18 9.492539832574781 9.544845295290065 9.908881044180745 1 0 0
1223 67 6 0.06 13.695629100577673 11.299421577070785 2.602846484481587 0 0 1
593 35 8 0.13 9.97539273604415 10.686046202321473 2.6174330503126058 0 0 1
64 4 6 0.06 15.264070188225046 9.39048918361405 9.572004518855056 0 0 0
1222 67 6 0.06 15.193211569720404 11.965235037521921 3.424322300191898 0 0 1
1261 69 9 0.7 17.441421652482724 9.263555195219435 4.379963792394491 0 0 0
1266 69 6 0.06 16.670490895109292 9.029475693203384 6.3829127981866165 0 0 0
71 5 3 0.35 17.932287462352342 12.010795355236231 4.819167275108228 0 0 0
69 5 1 -0.48 17.83221292171973 13.005199547872865 4.9650355803983945 0 0 0
70 5 2 0.2 16.81140052051161 13.28450731925145 6.004793163436141 0 0 0
75 5 5 0.08 15.89523572588094 12.81334483478341 5.648725295202103 0 0 0
79 5 6 0.06 17.750433602011796 11.729056988392804 7.140190737649221 0 0 0
72 5 3 0.35 17.49574330759736 13.382702799656302 4.090729481504456 0 0 0
74 5 4 -0.12 17.3362241642672 12.719805775225977 7.327230550668591 0 0 0
77 5 4 -0.12 16.197473149660397 12.538649897093224 8.417616571866496 0 0 0
78 5 6 0.06 18.210238109502768 13.240280748585771 7.718819497435239 0 0 0
1264 69 11 -0.8 17.852968160052708 10.441004475487013 4.321052141180565 0 0 0
73 5 3 0.35 18.70141128887451 13.431457335747108 5.253011672463675 0 0 0
81 5 6 0.06 15.652166523410276 11.6077250222204 8.26219442996896 0 0 0
82 5 6 0.06 15.441091824921577 13.322790734947011 8.383751625004177 0 0 0
1738 88 11 -0.8 20.034912952477555 14.104371161960664 6.012421866773167 0 0 0
1742 88 6 0.06 20.437822319197792 13.24729581709932 8.500289850222746 0 0 0
1806 90 6 0.06 20.359690569168684 8.646136934146547 7.418710510835201 0 0 0
1810 90 6 0.06 19.771347573756692 10.978817493666394 7.353041394967756 0 0 0
518 31 5 0.08 20.538044557200244 11.907549783548637 4.068676558487347 0 0 0
76 5 5 0.08 16.654422745400126 14.360984567112782 6.073285795006309 0 0 0
80 5 7 -0.32 16.871281576584202 12.811801522164608 9.757307768268667 0 0 0
84 5 8 0.13 17.316745132054173 13.80640399476252 9.778863532917939 0 0 0
1804 90 6 0.06 20.254198036104256 10.212604659697313 9.559405576365968 0 0 0
1213 67 11 -0.8 16.995550850245756 14.084804326674995 2.5849380254829306 0 0 1
83 5 8 0.13 17.644043397160466 12.049351322480337 9.855518566571796 0 0 0
1807 90 6 0.06 22.04475750287267 8.859205554344319 7.388599709687883 0 0 0
515 31 3 0.35 20.997117200560496 14.18042209290455 3.0466773532202702 0 0 0
1809 90 6 0.06 20.80063500462567 10.533129080027239 5.871170607434932 0 0 0
1805 90 12 -0.18 20.725907957902137 10.636015520959369 6.9537447577880656 0 0 0
1802 90 4 -0.12 21.129721321733832 9.36702465726142 7.693501481389801 0 0 0
2302 110 4 -0.12 25.95834503412604 8.587456156946311 7.923721070048393 0 0 0
1808 90 6 0.06 21.424190716229667 11.43805835384801 7.193045830145067 0 0 0
1799 90 4 -0.12 21.130807871490703 9.674962339019135 9.197974491603414 0 0 0
514 31 3 0.35 22.513275947372243 13.824819796219451 2.9592683179784314 0 0 0
526 31 8 0.13 23.71124327250086 9.268228715637985 5.373236133599486 0 0 0
512 31 2 0.2 21.385081822745143 12.146295964213522 3.425508907887185 0 0 0
522 31 7 -0.32 23.60736334177046 9.086817907862763 4.303453165780786 0 0 0
516 31 4 -0.12 22.666861768354195 11.39202678124006 3.7695130250877518 0 0 0
2297 110 6 0.06 24.83897310200941 12.643928081473263 8.476983486579794 0 0 0
2336 119 14 -0.8476 24.70344836697545 13.45047214108699 6.0087732008620085 0 0 0
520 31 6 0.06 22.987115303204966 11.773107095964232 4.739230505215723 0 0 0
2299 110 4 -0.12 25.10643662164926 9.852203958245019 8.234855844968946 0 0 0
2303 110 6 0.06 24.978519022707694 10.398631584190031 7.300409246846409 0 0 0
1741 88 6 0.06 22.14440953700459 13.677605891263855 8.373968084215079 0 0 0
2794 272 13 0.4238 25.474343789384072 12.952132922230197 4.301173224473853 -1 0 0
2337 119 13 0.4238 23.73596343646051 13.702994332058578 5.993334792116835 0 0 0
2304 110 6 0.06 24.170047980225092 9.53582996215681 8.69444298626908 0 0 0
2293 110 4 -0.12 25.04540308161544 12.000977399667834 9.332633798756671 0 0 0
519 31 4 -0.12 22.61898051086648 9.934687275796811 3.4453212459660536 0 0 0
524 31 6 0.06 21.632629227838038 9.495807290708921 3.5957607687781237 0 0 0
2296 110 4 -0.12 25.867823414417558 10.79276361674965 9.12760131157486 0 0 0
511 31 1 -0.48 21.673645398745343 13.545904742744552 3.4464632235283923 0 0 0
513 31 3 0.35 21.762938846710888 13.901506627016484 4.387582489046393 0 0 0
2795 272 14 -0.8476 25.796761988403937 12.963736135909132 3.3546304819121775 -1 0 0
521 31 6 0.06 23.347574266488714 11.836670148234274 3.0435245771425383 0 0 0
2796 272 13 0.4238 25.044191675234124 13.427783960393063 2.8873719566233946 -1 0 0
2298 110 6 0.06 24.054410501689574 11.680215859844266 9.653853787875324 0 0 0
2335 119 13 0.4238 25.104231179871398 13.605478160094153 6.911755516432248 0 0 0
2300 110 6 0.06 26.09667590989583 10.30338769006859 10.074318921805638 0 0 0
1737 88 10 -0.22 21.13035485301652 14.021755340424866 8.170520908530083 0 0 0
1803 90 6 0.06 21.9439824107073 10.381473629537037 9.364484254022017 0 0 0
1736 88 9 0.7 21.109251237561566 14.167529859734392 6.658347826347387 0 0 0
1739 88 11 -0.8 22.195375950828996 14.329844218855039 6.044611586441213 0 0 0
525 31 8 0.13 24.599002841958246 8.988686844803087 3.861686441473578 0 0 0
2083 101 6 0.06 32.203678358885476 9.84504219923932 6.816094422462061 -1 0 0
979 57 6 0.06 31.259933403138604 8.941746256728507 4.3099187547716085 0 0 1
2301 110 6 0.06 26.764212022110947 11.049240491028046 8.56293895223486 0 0 0
2575 199 13 0.4238 31.354737557525354 14.266873864536123 3.4939982960657585 -1 0 1
970 57 6 0.06 26.76824080395911 10.089536630184497 2.9372917144319755 0 0 1
2307 110 6 0.06 27.036730139598966 8.707442254743258 7.819675672976807 0 0 0
357 21 8 0.13 32.54574004161165 10.437407051522401 4.308921247715605 0 0 1
968 57 4 -0.12 28.55965725498315 9.100591079678448 3.741492337679586 0 0 1
972 57 6 0.06 28.38564474079169 9.14480075335735 4.8166209718279065 0 0 1
508 30 8 0.13 29.150310937340954 10.910215615578457 7.075388287453326 0 0 0
2078 101 6 0.06 31.938895280848392 10.718088951568118 9.397786722732544 -1 0 0
2072 101 6 0.06 31.949770889411262 13.05200893983988 9.523787122878442 -1 0 0
509 30 8 0.13 29.837383514628797 10.8516553806362 5.493469851695611 0 0 0
510 30 8 0.13 30.69169795814286 11.738318443961175 6.60891170673297 0 0 0
503 30 6 0.06 28.274166439149255 13.258826283429771 8.190203218180358 0 0 0
505 30 7 -0.32 29.659262012515946 11.524345884031487 6.332455344424207 0 0 0
502 30 4 -0.12 29.02661849768974 12.88322931900054 6.295665440780133 0 0 0
507 30 6 0.06 27.97475540824378 12.905491361551409 6.01066547137774 0 0 0
506 30 6 0.06 29.550026242457882 13.445179444604806 5.5221068381183445 0 0 0
504 30 6 0.06 30.016068422273634 13.540020924426203 8.083204002408158 0 0 0
499 30 4 -0.12 29.06548505237236 13.676105188858337 7.567443546191252 0 0 0
2922 314 13 0.4238 27.79313978025567 13.949013290647894 3.191153343496952 -1 1 0
2921 314 14 -0.8476 28.720224612946893 14.303304966263068 3.068590091081314 -1 1 0
965 57 4 -0.12 27.282493089120877 9.133041698395555 2.843491190628339 0 0 1
2711 244 14 -0.8476 32.367649949023786 14.139467706616736 6.324441377544845 -1 0 0
2710 244 13 0.4238 31.916116004558397 14.567365091169675 5.541464805900182 -1 0 0
2712 244 13 0.4238 31.895697459145048 14.536596341935962 7.11157641286391 -1 0 0
973 57 6 0.06 29.090788188481838 10.048817288372598 3.6584051968398663 0 0 1
2576 199 14 -0.8476 31.662936162279678 13.971914466498955 2.5895405415706936 -1 0 1
1670 85 6 0.06 6.852319840124415 19.92467797537308 3.124585734393725 0 0 0
2917 313 13 0.4238 5.659984396141495 15.407195688028711 3.148089272230683 0 0 1
647 39 1 -0.48 4.7462181492053865 14.635429632196567 6.324716816388614 0 0 0
654 39 5 0.08 4.1754959029589145 16.574155249730385 6.083973406777854 0 0 0
653 39 5 0.08 4.239960622625859 16.069451684970495 7.80397262712058 0 0 0
648 39 2 0.2 4.699795051829138 15.966000378988577 6.821126430878837 0 0 0
1661 85 9 0.7 3.9330143674229823 18.926898593407934 4.502248050996629 0 0 0
1663 85 11 -0.8 3.297797259893938 18.53937475939459 3.509020801193614 0 0 0
1666 85 6 0.06 5.972546688475903 18.30429634681007 4.432984864386183 0 0 0
652 39 4 -0.12 6.155663816874856 16.456676289432643 7.008947324885565 0 0 0
657 39 6 0.06 6.870416201241799 15.842183457264023 7.5563631164338805 0 0 0
656 39 6 0.06 6.522367396136941 16.380202127874234 5.9853181287645345 0 0 0
659 39 6 0.06 6.299892941010725 17.89937840074907 8.551813762254351 0 0 0
1662 85 10 -0.22 5.39429348768525 19.22205650670633 4.325858485576515 0 0 0
1664 85 11 -0.8 3.4733365287116995 19.108607853790815 5.655530189679588 0 0 0
839 50 4 -0.12 3.4195643731593384 18.993170751324648 9.167076458354263 0 0 0
843 50 6 0.06 3.9493156311793713 19.662324146640046 8.489039736813309 0 0 0
660 39 6 0.06 5.500331621800456 18.596880842063122 7.211785727968315 0 0 0
655 39 4 -0.12 6.3304784357786 17.936613353934135 7.462862625770112 0 0 0
844 50 6 0.06 3.728329924788249 17.970001517819306 8.95277534612531 0 0 0
1667 85 6 0.06 5.661835655455694 19.879776838203078 5.152878210016736 0 0 0
658 39 7 -0.32 7.619357618757026 18.694138745488587 7.054387656985122 0 0 0
661 39 8 0.13 7.570919867291027 19.729519573732112 7.391695767680304 0 0 0
663 39 8 0.13 7.572676747211833 18.661692640949425 5.965854386883372 0 0 0
1665 85 4 -0.12 5.772310741170978 19.833595032739794 3.0087385862354123 0 0 0
662 39 8 0.13 8.538804598354556 18.227353187934597 7.407750129651632 0 0 0
2839 287 13 0.4238 7.381006172206833 16.793135623983403 9.671904436794206 0 0 0
2200 106 6 0.06 13.584558438007795 15.094294985101177 7.003557734830842 0 0 0
2201 106 6 0.06 14.438179338707108 15.430604585396557 8.495931319640437 0 0 0
1619 83 6 0.06 10.214482924007772 14.662519883905762 5.762077610934963 0 0 0
1615 83 4 -0.12 9.858628162326397 14.882560327473152 4.755555809371975 0 0 0
2198 106 6 0.06 11.60402808919983 15.906048224476844 7.582701906952899 0 0 0
1613 83 11 -0.8 9.623719516111134 18.425069359665834 3.6377788892693816 0 0 0
362 22 3 0.35 9.46689824543207 20.041240198504397 3.715488141802914 0 0 0
2193 106 4 -0.12 12.196894679430118 15.687896648131437 8.470989893206575 0 0 0
2197 106 6 0.06 12.08647319845046 16.47621527113954 9.215635706238999 0 0 0
1611 83 9 0.7 9.38390429615248 17.18472097211754 3.6393445219255662 0 0 0
1616 83 6 0.06 9.096284036965722 16.69615692136341 5.6697143766416245 0 0 0
2203 106 6 0.06 14.156485703692644 17.814458144065462 8.436632000847208 0 0 0
2196 106 4 -0.12 13.625457818302516 15.773144576025917 7.855395122871851 0 0 0
1612 83 10 -0.22 9.777941387320183 16.403617626892476 4.8710276095779115 0 0 0
1617 83 6 0.06 10.758978235833512 16.814305832141454 5.109854759057772 0 0 0
367 22 6 0.06 10.816966892823476 19.872978008816098 5.51009084606576 0 0 0
2199 106 4 -0.12 14.062083609275945 17.1998471603727 7.541378897056987 0 0 0
369 22 7 -0.32 12.523164419348848 20.572955837968564 7.3552104286491975 0 0 0
372 22 8 0.13 12.662591590633925 19.49297998797556 7.306747063712445 0 0 0
544 32 8 0.13 13.02128535703543 17.63913563728976 3.8406813596124696 0 0 1
2204 106 6 0.06 13.356073489888502 17.65641840295838 6.847672261220723 0 0 0
543 32 8 0.13 14.059506624555631 16.218226152760963 3.7318582964242264 0 0 1
538 32 6 0.06 13.554010171177755 19.662694747324004 2.746310752964705 0 0 1
539 32 7 -0.32 13.53298280959296 16.972243915307008 3.146737823928665 0 0 1
1614 83 11 -0.8 8.87247234413243 16.588998876241345 2.6840335452607618 0 0 0
2614 212 13 0.4238 17.315044664938526 15.597527101982442 3.228761046452223 0 0 0
2207 106 6 0.06 16.187615275621923 16.91504569112015 7.693379764008525 0 0 0
2210 106 6 0.06 16.056991084354497 19.29189758326264 6.741695981031081 0 0 0
2202 106 4 -0.12 15.475746343700802 17.18791539670926 6.914328241913754 0 0 0
2209 106 6 0.06 15.214743554548612 18.677775654010965 5.350995109359868 0 0 0
1747 88 6 0.06 18.746671556390574 15.297776534214888 9.531823335673142 0 0 0
2206 106 6 0.06 15.483266222051538 16.38044262770997 6.182161792363131 0 0 0
2208 106 6 0.06 16.88250449220269 18.077802081222337 5.5959985573343545 0 0 0
2586 202 13 0.4238 19.609851492409057 15.566554289510632 5.707888833691155 0 0 0
2205 106 12 -0.18 15.97394216775655 18.422004420043343 6.090139943526069 0 0 0
1754 88 6 0.06 18.048798389848834 18.06770252273669 8.761917841107913 0 0 0
2585 202 14 -0.8476 19.460821552426964 16.533595097023024 5.501362968016984 0 0 0
1743 88 4 -0.12 19.526812987447258 15.914511534763614 9.085556789507816 0 0 0
2616 212 13 0.4238 18.16050590679697 16.660261107738336 4.1034902808822515 0 0 0
1019 59 6 0.06 19.197584800711965 19.59154415661785 7.307385829855246 0 0 0
1020 59 6 0.06 20.02968623930488 19.762429894725997 5.773463954147941 0 0 0
1746 88 4 -0.12 19.538225433610492 17.2460156314356 9.930573569690775 0 0 0
2584 202 13 0.4238 20.13770683406782 17.139059450797937 5.920015546414197 0 0 0
1749 88 4 -0.12 18.22249777245534 17.876961484901656 9.820965958364019 0 0 0
1748 88 6 0.06 19.25769029289164 16.14484327966186 8.054704335336131 0 0 0
2615 212 14 -0.8476 17.49904229422916 16.57184106380074 3.35872243611347 0 0 0
1750 88 6 0.06 20.34730012377065 17.857817648818866 9.53153389493476 0 0 0
1015 59 4 -0.12 19.889390581332222 20.2239323509828 6.750944957107086 0 0 0
1758 88 6 0.06 16.67353143643812 20.021398144563364 9.092088758616972 0 0 0
1756 88 6 0.06 19.111554595073237 19.893159870520904 9.88150535609499 0 0 0
633 38 3 0.35 20.387871407369786 17.412695802921434 3.5472149073672705 0 0 1
540 32 6 0.06 15.373757160777165 17.94613806463298 3.139656922858583 0 0 1
636 38 5 0.08 20.723444463083055 19.993075125504618 3.555802137498063 0 0 1
405 24 6 0.06 26.205468386603826 17.292773693505406 3.5624053342401334 0 0 0
630 38 1 -0.48 21.22049269033625 17.949215485447105 3.7447492168722674 0 0 1
1013 59 11 -0.8 21.55777851623523 18.031357744531842 6.3520357109217365 0 0 0
632 38 3 0.35 21.444128923208766 18.003093999410826 4.7282206197561205 0 0 1
1740 88 4 -0.12 20.904473192270224 15.279431302200782 9.1058069372152 0 0 0
2289 110 11 -0.8 25.534055750522015 15.231254851494864 8.593018267014703 0 0 0
1744 88 6 0.06 21.690280928169436 15.979106383700717 8.821030685674351 0 0 0
2286 110 9 0.7 25.402261497561582 15.441646713982557 9.79187108451135 0 0 0
1011 59 9 0.7 21.945994645719978 18.776997585522693 7.278942008825899 0 0 0
1014 59 11 -0.8 23.052420183561026 18.608290662389464 7.890607004777044 0 0 0
395 24 3 0.35 23.09205504441666 15.724029097492432 6.629292833629863 0 0 0
392 24 1 -0.48 23.881732143682015 16.308630543513154 6.86334994803388 0 0 0
393 24 2 0.2 24.562835885350204 16.62278077058456 5.61016644130058 0 0 0
394 24 3 0.35 23.516879422413673 17.185641734788916 7.206665802141763 0 0 0
396 24 3 0.35 24.530236760965593 15.835646796147161 7.476424068340843 0 0 0
398 24 5 0.08 23.828572409648267 17.167311206892023 5.016465929210904 0 0 0
399 24 5 0.08 24.69484301892573 15.717735363529597 5.017204858453216 0 0 0
402 24 6 0.06 25.723013362938687 18.18630090640442 6.444887868709133 0 0 0
397 24 4 -0.12 25.84314420693618 17.41629299494403 5.682790174491563 0 0 0
2520 180 13 0.4238 23.519017325012626 19.91047529448997 8.882043644525051 0 0 0
401 24 6 0.06 26.685992416527625 16.866950156808343 6.102272745802104 0 0 0
400 24 4 -0.12 26.248858137628332 18.082133318386056 4.312848586881782 0 0 0
404 24 6 0.06 25.46795351378983 18.760701272554563 3.969526566815414 0 0 0
2388 136 13 0.4238 26.269252857244375 17.881251362076952 8.943123611976098 0 0 0
2519 180 14 -0.8476 23.924647512717968 20.498423245623187 9.581910227760481 0 0 0
640 38 6 0.06 23.104483417005582 19.690126093362515 4.083905605114775 0 0 1
1012 59 10 -0.22 21.24424092382896 20.054295426875093 7.531565834026794 0 0 0
2904 308 13 0.4238 24.462436797624065 19.694823158883935 7.049532913819499 0 0 0
634 38 3 0.35 21.94102230703323 17.328086195111442 3.405386032142371 0 0 1
1017 59 6 0.06 21.122695246513317 20.370663092695843 8.567555487453404 0 0 0
2903 308 14 -0.8476 24.69053050981404 20.52405445655213 6.539258873681559 0 0 0
635 38 4 -0.12 22.816843927087405 19.602803146969705 3.036158162843944 0 0 1
631 38 2 0.2 21.32203986206231 19.23494295272164 3.0507717519065665 0 0 1
639 38 6 0.06 23.3710880352617 18.745479759808894 2.654128549598229 0 0 1
2386 136 13 0.4238 26.86884914824399 19.143752667667336 9.397417610953323 0 0 0
2387 136 14 -0.8476 26.98432185213794 18.508256465184132 8.633977079367279 0 0 0
407 24 8 0.13 27.782239054292468 19.411706442922124 3.543679363976179 0 0 0
495 30 2 0.2 28.700085865012305 15.194786729533343 7.338050368274788 0 0 0
501 30 5 0.08 28.081911946874456 15.392821659602898 6.46239079681645 0 0 0
408 24 8 0.13 27.659748920323345 19.296578225083607 5.3883228453317695 0 0 0
837 50 3 0.35 32.63038614486465 18.710160137193355 6.786043885701251 -1 0 0
500 30 5 0.08 29.517106040194143 15.82347870755491 6.9839869290308245 0 0 0
403 24 7 -0.32 27.53521529869837 18.812155489560702 4.419838286435168 0 0 0
497 30 3 0.35 28.64831750374089 15.559650403076478 9.324727178003343 0 0 0
496 30 3 0.35 27.155118729998172 15.531590867954145 8.547332445887253 0 0 0
494 30 1 -0.48 28.121502149937918 15.8220190404853 8.503898594043536 0 0 0
2064 101 11 -0.8 31.652859297206795 15.88190376226925 8.33668664683934 -1 0 0
2061 101 9 0.7 31.480721465354023 15.818427501391398 9.573351242410352 -1 0 0
498 30 3 0.35 28.287663456243493 16.815870630594155 8.43475614308293 0 0 0
838 50 3 0.35 32.132338936612214 17.417380939558917 7.750170384465951 -1 0 0
834 50 1 -0.48 32.088119923284424 18.412744359875447 7.584556865011375 -1 0 0
2681 234 14 -0.8476 31.143825261403393 18.515207711062033 4.472142082343361 -1 0 0
2680 234 13 0.4238 32.12896800853971 18.36005455769577 4.3982926684189625 -1 0 0
2815 279 13 0.4238 30.980503262123754 16.39292377048608 4.323050047667818 -1 0 0
2816 279 14 -0.8476 30.683060426603873 15.470213987150835 4.56833714848355 -1 0 0
2817 279 13 0.4238 29.837108753723214 15.294400994002332 4.064861200607267 -1 0 0
2708 243 14 -0.8476 29.22471042553348 18.60758941965323 7.2203869154130835 -1 0 0
836 50 3 0.35 31.13186088599057 18.59189156098318 7.313252016867289 -1 0 0
840 50 5 0.08 31.436788718157928 18.869443788491076 9.437097671648722 -1 0 0
835 50 2 0.2 32.25166161410001 19.1522342692343 8.770653227119624 -1 0 0
2682 234 13 0.4238 30.942698413363992 19.484076631774506 4.616613086362658 -1 0 0
2709 243 13 0.4238 29.043448682255217 19.4268930502654 6.676404777553202 -1 0 0
2707 243 13 0.4238 28.479116625284234 18.596068624874967 7.886712134829938 -1 0 0
406 24 8 0.13 28.363316570472207 18.10344711128828 4.409009984075859 0 0 0
841 50 5 0.08 32.08584025757045 20.207109299349668 8.55184201535862 -1 0 0
2485 169 13 0.4238 3.4546604253346564 20.908582286113962 6.10850380321698 0 0 0
2914 312 13 0.4238 4.193670240302369 22.524389516160177 7.433067938146207 0 0 0
2915 312 14 -0.8476 4.927883736744334 23.18710082491635 7.580633032670035 0 0 0
2916 312 13 0.4238 5.125745561918042 23.594557589564147 6.689083479534554 0 0 0
1672 85 6 0.06 5.527400931295274 21.818740249826362 3.70177603630206 0 0 0
2824 282 13 0.4238 5.0312744131261065 24.387108643881945 4.635941339279537 0 0 0
2806 276 13 0.4238 6.6598479292537975 22.98202109856944 8.207035261803588 0 -1 0
2807 276 14 -0.8476 7.583248043442086 23.329543138081355 8.370105675228544 0 -1 0
2825 282 14 -0.8476 5.909186923167332 24.433315085518487 5.112560448306583 0 0 0
2414 145 14 -0.8476 7.9539293560243784 22.45930205589717 5.472297236432365 0 0 0
2826 282 13 0.4238 6.045674789452278 25.405656475250176 5.30217672896325 0 0 0
2415 145 13 0.4238 7.182853277065065 23.082517688639456 5.341623963332754 0 0 0
2808 276 13 0.4238 7.577004642871764 24.3186239144309 8.517459918023693 0 -1 0
2600 207 14 -0.8476 7.783739202047589 25.86871659049791 8.511895952726256 0 0 0
2601 207 13 0.4238 8.18670108274318 26.712197436384535 8.156658215116718 0 0 0
424 25 8 0.13 3.8709021096922074 25.38396934531496 7.037392980815542 1 0 0
420 25 7 -0.32 3.6244523988102326 25.770918203529227 8.026164757709877 1 0 0
2498 173 14 -0.8476 3.000375750134899 23.797698619678656 4.680918162990831 0 0 0
2497 173 13 0.4238 3.13863521212628 23.051194026851142 5.331799348413186 0 0 0
2486 169 14 -0.8476 2.8751299128723944 21.63035856856186 6.4869412258545465 0 0 0
2413 145 13 0.4238 8.093731825899248 22.611067383709212 6.4507927478442815 0 0 0
423 25 8 0.13 4.474730002696978 25.407057270079463 8.603026672833177 1 0 0
1673 85 6 0.06 4.243556344985409 21.43368542248821 2.817039484513052 0 0 0
1668 85 4 -0.12 5.317105161442887 21.245828254394887 2.7986238069337404 0 0 0
363 22 4 -0.12 10.831762966651867 20.96289327956297 5.50857237388524 0 0 0
373 22 8 0.13 13.401490957566775 21.07451376786672 7.7615583911770205 0 0 0
371 22 6 0.06 13.035252393213742 20.883960629838533 5.233850750168847 0 0 0
366 22 4 -0.12 12.257576848017221 21.164925562615736 5.9440730357199305 0 0 0
374 22 8 0.13 11.750335820288628 20.796561685997098 8.090651049538414 0 0 0
368 22 6 0.06 10.057355126978683 21.19292584740746 6.240360635890844 0 0 0
2599 207 13 0.4238 8.566996169102588 25.65702889687097 9.096472025152192 0 0 0
360 22 3 0.35 8.61069466711335 21.454310854371926 4.173536431192324 0 0 0
2863 295 13 0.4238 9.230527772708156 22.48674828022174 8.673556683733104 0 0 0
365 22 5 0.08 11.39933406839247 21.31708003140023 3.4665336860532543 0 0 0
358 22 1 -0.48 9.348691755704959 21.03998054485644 3.6223357683105846 0 0 0
359 22 2 0.2 10.576697286864354 21.567903579849997 4.1362295433184 0 0 0
370 22 6 0.06 12.381987027027161 22.243033122274205 6.045772034803582 0 0 0
2382 134 13 0.4238 13.138033350956613 24.21688975113767 5.419799713795473 0 0 0
364 22 5 0.08 10.399863607747214 22.642206423166087 4.083887074912319 0 0 0
2381 134 14 -0.8476 12.254724901655699 24.356578666099622 4.972267958334861 0 0 0
2380 134 13 0.4238 11.782021211475028 24.717255590156014 5.776318194870197 0 0 0
378 23 3 0.35 11.427634497601536 25.293544990342745 3.8768915047088774 0 0 0
2695 239 13 0.4238 12.324813362168129 24.573950739799848 8.686830386230834 0 0 0
2696 239 14 -0.8476 12.508455787847735 23.614200306243717 8.474256724531166 0 0 0
375 23 1 -0.48 11.129409297155199 26.04518736084843 3.2717245337650844 0 0 0
2697 239 13 0.4238 11.776153147763665 23.184132453014392 9.0022773191926 0 0 0
2644 222 13 0.4238 11.327980099079612 25.875824535413123 7.641443268435396 0 0 0
2645 222 14 -0.8476 10.902683415800848 25.847846102556808 6.736804311214255 0 0 0
1763 89 11 -0.8 12.151817614385484 26.084896786031734 9.128744522619849 0 0 0
2864 295 14 -0.8476 10.108013499323913 22.544048910982617 9.149756724660376 0 0 0
379 23 3 0.35 10.284234788432617 26.40835906353349 3.6887592816988026 0 0 0
2646 222 13 0.4238 10.224542020713539 26.581286907318557 6.783927466690993 0 0 0
2354 125 14 -0.8476 14.50826797979774 23.867476729649113 6.507721369991847 0 0 0
2355 125 13 0.4238 13.907082954959115 23.606839200510493 7.26315342564658 0 0 0
2865 295 13 0.4238 9.943098300732904 23.26015194971756 9.828012173322595 0 0 0
361 22 3 0.35 9.231784244685123 21.313443517514365 2.6570990068306504 0 0 0
2760 260 13 0.4238 10.767484310450344 25.534348407453123 9.794608724484053 0 0 0
2701 241 13 0.4238 16.20134277144964 24.767078151950074 2.9330439452954846 0 0 0
2583 201 13 0.4238 14.659374798240608 23.107438076750917 3.647817562985496 0 0 1
2353 125 13 0.4238 15.216169195035555 24.491306598861726 6.838996031451454 0 0 0
2581 201 13 0.4238 15.756383052404217 23.49967883721491 4.817857892052565 0 0 1
2582 201 14 -0.8476 15.629644931139275 23.185413536571353 3.8770042746420073 0 0 1
1022 59 6 0.06 18.319624653351894 21.375177482939215 6.070401584393523 0 0 0
1018 59 4 -0.12 19.269250153654568 21.617050360396945 6.547733053333178 0 0 0
1026 59 6 0.06 18.42153248636528 21.73834263731635 8.465384593540698 0 0 0
1028 59 6 0.06 17.74730375160852 24.04239500082783 8.465162142691774 0 0 0
1032 59 6 0.06 19.53997425870807 25.279021958619253 7.149999658876046 0 0 0
1027 59 4 -0.12 18.731097343189234 24.745627337097616 6.6506552626015925 0 0 0
1021 59 4 -0.12 18.990739483163786 22.398449991685155 7.8108632771845805 0 0 0
1025 59 6 0.06 19.84684386854657 22.637019319814762 8.441978561427485 0 0 0
1024 59 4 -0.12 18.092072920668922 23.583621045010105 7.538449045341165 0 0 0
1031 59 6 0.06 19.212119545440103 24.366315847737198 5.74905836038408 0 0 0
1029 59 6 0.06 17.27031912882763 23.17574320225208 6.949812566580441 0 0 0
1023 59 6 0.06 19.879087717415345 22.25568667669596 5.908688245381025 0 0 0
1030 59 12 -0.18 17.75871686916023 25.861562153221122 6.329622026756892 0 0 0
1034 59 6 0.06 16.920992977234803 25.479297412889345 5.746330616084105 0 0 0
1035 59 6 0.06 17.38887624763408 26.516075184239583 7.118904663461854 0 0 0
1033 59 6 0.06 18.325899169782016 26.54552181956914 5.698242657679489 0 0 0
1772 89 6 0.06 15.759680102151796 26.039274508364848 9.077301260646383 0 0 0
646 38 8 0.13 24.710724805914055 21.90339958539421 3.404029130815907 0 0 1
491 29 8 0.13 22.949732004854035 23.799233374162405 7.347938077961453 0 0 0
1016 59 6 0.06 21.94128591076195 20.772313146154872 7.099460093874743 0 0 0
2518 180 13 0.4238 24.6873803206092 21.013447296496224 9.190729270345328 0 0 0
493 29 8 0.13 24.182128588294297 23.613922421343908 5.996786775003876 0 0 0
492 29 8 0.13 22.959116872828467 22.487302895659532 6.17428059901958 0 0 0
151 9 8 0.13 22.338235281991018 24.648381096619346 9.907405218362545 0 0 0
488 29 7 -0.32 23.137483719301542 23.55497135779118 6.302365569059313 0 0 0
2902 308 13 0.4238 24.941686214106966 21.109027674040895 7.310465089450505 0 0 0
2347 123 13 0.4238 25.679924789845934 21.787052683824825 5.453319229327611 -1 0 0
1314 71 11 -0.8 25.807892761550512 21.852332384952113 8.55234369397133 0 0 0
489 29 6 0.06 22.530318403857585 24.175885324874777 4.4340358562102 0 0 0
485 29 4 -0.12 22.34576600521867 24.51195387203463 5.454396012289472 0 0 0
1312 71 10 -0.22 25.423879543293914 24.229835981169877 9.104628372029405 0 0 0
1311 71 9 0.7 26.109695672911478 23.062585051665167 8.37731944726681 0 0 0
2349 123 13 0.4238 26.568869439026187 22.890529171703307 6.024687104501061 -1 0 0
490 29 6 0.06 21.28279019470328 24.463643145780985 5.690796176958546 0 0 0
1315 71 4 -0.12 26.36329626000164 25.39251185823327 9.34790397028626 0 0 0
1317 71 6 0.06 24.509050433090323 24.58988440027516 8.633895641591383 0 0 0
2530 184 13 0.4238 26.35394470440987 20.818918334654263 10.076051054900741 0 0 1
482 29 4 -0.12 22.778109210893824 25.97478534307359 5.588245351870415 0 0 0
487 29 6 0.06 22.44106641541351 26.13684019571962 6.612099260337289 0 0 0
2749 257 13 0.4238 26.228913511027145 23.844409050891336 3.912349058112895 0 0 1
2348 123 14 -0.8476 26.204516594177157 22.581140821550655 5.146303192133148 -1 0 0
483 29 5 0.08 24.920632779028665 25.929371111841284 5.97780607921197 0 0 0
484 29 5 0.08 24.53647547193792 26.06315470827606 4.279212172919478 0 0 0
478 29 2 0.2 24.21348702456266 26.368953581297006 5.274351384589307 0 0 0
486 29 6 0.06 22.09088411798765 26.56412204097787 4.981170040844225 0 0 0
1319 71 6 0.06 25.870413781391605 26.30024704412852 9.696070935977808 0 0 0
1316 71 6 0.06 24.91647078762461 23.826604400847934 9.98102835336848 0 0 0
2750 257 14 -0.8476 26.652931636778177 24.569826717073497 3.3701224874782687 0 0 1
642 38 6 0.06 22.352361160579996 21.605392240058727 2.527413950328131 0 0 1
2751 257 13 0.4238 27.61984928467885 24.332233098962895 3.4631342439664774 0 0 1
1086 62 9 0.7 30.113527082086968 23.445649803303894 3.580012574372695 -1 0 1
2723 248 14 -0.8476 28.744346649950486 21.442180147226615 7.622522905188885 0 0 1
2356 126 13 0.4238 29.985198278428342 21.31121281638856 6.547469578598018 -1 0 0
1313 71 11 -0.8 27.048291388119424 23.418529536191627 7.583022579476651 0 0 0
2894 305 14 -0.8476 29.744130231813067 20.759370559315045 9.974183213509932 0 0 0
2499 173 13 0.4238 32.33311315766751 23.845691261779557 4.85337680994376 -1 0 0
1320 71 6 0.06 26.87190195704366 25.725922983037975 8.443308043799865 0 0 0
2724 248 13 0.4238 28.91670879768118 21.181522826741997 8.572460560463641 0 0 1
2722 248 13 0.4238 27.949152047233227 22.040241057264858 7.722629233952086 0 0 1
2357 126 14 -0.8476 30.745043920397663 21.1338947320128 5.921990839115536 -1 0 0
2487 169 13 0.4238 32.28077852034969 21.30409650758442 6.234447212115518 -1 0 0
421 25 6 0.06 32.5537408467259 24.204345837464395 8.604692102572496 0 0 0
417 25 4 -0.12 32.49874715628592 25.284388629733073 8.468237755179905 0 0 0
2358 126 13 0.4238 30.740033897144848 22.018396784895295 5.455448419414671 -1 0 0
419 25 6 0.06 31.792865930337392 25.271980943144577 6.398715489744008 0 0 0
413 25 3 0.35 28.330149484385835 24.3944095951301 6.879686908313497 0 0 0
411 25 3 0.35 28.87758186881809 25.92064643123794 6.303996102896118 0 0 0
410 25 2 0.2 30.116300328566673 24.740563845522736 7.618710536175059 0 0 0
414 25 4 -0.12 31.400568757179386 25.53403312629809 7.381348739537801 0 0 0
415 25 5 0.08 30.387288742752546 23.68505307287574 7.594240876599421 0 0 0
416 25 5 0.08 29.853930642467333 24.88029584327336 8.667411438595733 0 0 0
412 25 3 0.35 29.436308608467947 24.495554979354985 5.730833413419099 0 0 0
409 25 1 -0.48 29.096480110358783 24.967540369826416 6.556592336523722 0 0 0
1089 62 11 -0.8 30.684396294986918 23.413663069176806 4.733195057071136 -1 0 1
422 25 6 0.06 32.2295485631138 25.726652626814563 9.427441161222202 0 0 0
418 25 6 0.06 31.09747370461527 26.581062147676604 7.38119485932305 0 0 0
112 7 6 0.06 31.475288276211707 26.278130570956655 2.769989955054731 -1 0 0
105 7 3 0.35 29.243538132141744 25.925328034597605 3.3285254357449308 -1 0 0
1322 71 6 0.06 28.242246473472875 24.432679646729675 9.823867594241129 0 0 0
1088 62 11 -0.8 29.318554560886177 24.37698205820945 3.2894025109263354 -1 0 1
1092 62 6 0.06 30.919060956597605 21.471533849322682 3.0755349625642756 -1 0 1
1087 62 10 -0.22 30.42167511322514 22.299572356522333 2.5704645754564344 -1 0 1
2452 158 13 0.4238 6.610507328060485 26.987890414321754 8.7962131601169 0 0 0
425 25 8 0.13 3.6474224064959486 26.855917245463587 7.924253243135043 1 0 0
2792 271 14 -0.8476 6.348214939609052 27.399062652918396 5.98015178617392 0 0 0
114 7 7 -0.32 3.4671770100951873 27.998110801221785 2.961913899830071 0 0 0
2791 271 13 0.4238 7.3292238858199985 27.470203314771922 6.160683634689017 0 0 0
2748 256 13 0.4238 8.02355041807899 27.143790735204924 4.026491460627493 0 0 0
119 7 8 0.13 3.792576381881447 28.20946651113924 3.980530880179239 0 0 0
2453 158 14 -0.8476 6.053868842154426 27.818626118065723 8.788186539756602 0 0 0
2793 271 13 0.4238 5.84187096872302 27.503215424519354 6.836188512611608 0 0 0
2454 158 13 0.4238 6.634499404501305 28.621714719573035 8.65421067210209 0 0 0
1514 79 11 -0.8 8.216756731073984 29.302084919308257 8.20058826384897 0 0 0
2803 275 13 0.4238 7.866317934206881 30.4026932779527 9.455076431009225 0 0 0
1484 77 6 0.06 3.64379540800005 32.2477641397612 3.052001145432569 1 0 0
739 44 5 0.08 4.2332168682270055 31.241034945418434 9.570962862987422 0 0 0
1522 79 6 0.06 8.406651887108445 32.10788992408137 7.4884739604190536 0 0 0
117 7 8 0.13 3.6786383927294746 26.953569187381312 2.7331053014989335 0 0 0
382 23 5 0.08 13.180812877152691 26.75529277453623 2.9793349368734696 0 0 0
1767 89 6 0.06 14.089790195796336 27.53503818772117 7.949913663291684 0 0 0
1762 89 10 -0.22 13.73506311829457 27.8834756618567 8.919911836495373 0 0 0
2747 256 14 -0.8476 8.945585005582686 27.173422849969917 4.412502963137452 0 0 0
2746 256 13 0.4238 8.920936227204447 27.32379734222846 5.40084030515615 0 0 0
384 23 6 0.06 12.088295311342096 27.472926505451795 5.2890832742739775 0 0 0
1766 89 6 0.06 13.586647822361886 28.94511437945119 8.72234493645473 0 0 0
1761 89 9 0.7 12.44419887618552 27.265107805562742 9.409175825590532 0 0 0
1978 97 6 0.06 9.010967213133895 30.56792399432055 3.206420964296546 0 0 0
376 23 2 0.2 12.16816277934771 27.10957249026424 3.172109947508349 0 0 0
1984 97 6 0.06 10.981949886434812 32.805705208216295 3.154499080140491 0 0 0
1985 97 6 0.06 10.95148243857133 31.473579910483927 4.318055920180097 0 0 0
1513 79 11 -0.8 8.889716415544527 27.611472732971627 6.8927128276040515 0 0 0
1511 79 9 0.7 8.962253314399044 28.815271072546068 7.282027378814429 0 0 0
1980 97 12 -0.18 11.343259993404692 31.796767802465027 3.353588999247507 0 0 0
1284 69 6 0.06 12.972758164910053 32.35784357675429 7.731329746783661 0 -1 0
1520 79 6 0.06 10.192458678281255 30.853848673284105 8.582973781691827 0 0 0
1518 79 4 -0.12 9.435201459517234 32.20586472379505 7.141165475793188 0 0 0
1523 79 6 0.06 9.545338438367452 32.122888341710876 6.059906469935617 0 0 0
1519 79 6 0.06 11.359873859545358 31.27641657517683 7.290462660665105 0 0 0
380 23 4 -0.12 12.209725488374822 28.062658959391996 4.380454157452631 0 0 0
385 23 6 0.06 11.235854203156402 28.55210923371323 4.392686226075911 0 0 0
1516 79 6 0.06 9.812682135300808 29.83269529525959 5.743567260343772 0 0 0
1512 79 10 -0.22 10.088499065887095 29.68055718985562 6.7870783317633245 0 0 0
1515 79 4 -0.12 10.326782756094968 31.00885266507072 7.51242843237359 0 0 0
1517 79 6 0.06 10.937563886606721 28.997046671963744 6.793306886167754 0 0 0
383 23 4 -0.12 13.517995655828678 28.95455523684104 4.364055029890746 0 0 0
387 23 6 0.06 13.587397198728544 29.630698282186565 3.5119103872072976 0 0 0
391 23 8 0.13 12.693880999825481 30.46889558445291 5.716084258754888 0 0 0
1983 97 6 0.06 12.421154108127126 31.913740599193872 3.465830623856357 0 0 0
386 23 7 -0.32 13.594786179872264 29.882705493545778 5.534735024198307 0 0 0
390 23 8 0.13 14.259978203566313 30.71286370647605 5.297051600602408 0 0 0
388 23 6 0.06 14.39110570066586 28.312396132919773 4.248093710404113 0 0 0
389 23 8 0.13 13.88330624840099 29.33720400082943 6.433245340887081 0 0 0
2346 122 13 0.4238 8.90871985834649 28.48048319430803 9.82899993351256 0 0 0
1654 84 6 0.06 19.29160535173827 32.10413215812921 4.898242225063443 0 -1 0
1652 84 4 -0.12 17.31416818322308 32.457497235393284 5.5779423255044325 0 -1 0
1657 84 6 0.06 16.726978815644507 32.38629217944199 6.493515912010059 0 -1 0
1649 84 4 -0.12 18.763982309955345 32.30943012084889 5.829694391447205 0 -1 0
246 15 5 0.08 20.328751745848713 32.755052783006334 9.520131666471414 0 -1 0
1879 93 6 0.06 17.1460292178038 31.938304531243823 8.772787923976487 0 0 0
1659 84 6 0.06 17.452295831718814 31.656117462080374 3.5662907254519753 0 -1 0
1653 84 6 0.06 18.890580286066054 31.376598100538743 6.379179388003935 0 -1 0
1870 93 6 0.06 19.095751870296517 27.775024232571376 9.354600833625762 0 0 0
1878 93 6 0.06 16.011881628743403 30.770463041115406 8.887915648056193 0 0 0
1865 93 4 -0.12 19.65235893122049 28.697863246149794 9.19122021494045 0 0 0
1872 93 6 0.06 18.211251878679022 29.55145318495709 8.051673585821039 0 0 0
1868 93 4 -0.12 18.7459480991524 29.9240303488845 8.925414240287658 0 0 0
1873 93 6 0.06 19.361374980835926 30.78846530471491 8.676138288400914 0 0 0
1655 84 12 -0.18 16.84798063354567 31.44565646393697 4.4486997547947515 0 -1 0
1874 93 4 -0.12 16.720326829574567 31.286639211869947 9.535838533478625 0 0 0
1871 93 4 -0.12 17.7643438564634 30.31622567533678 10.014139370319404 0 0 0
1660 84 6 0.06 16.952920345766838 30.36782604633229 4.57281950115792 0 -1 0
1867 93 6 0.06 20.177546522684395 28.611801723150457 7.097084897118068 0 0 0
1658 84 6 0.06 15.78151745854234 31.563495585634904 4.256588464820123 0 -1 0
1770 89 6 0.06 15.765592765203984 28.27034727275438 9.705267423888692 0 0 0
1869 93 6 0.06 20.262783268721627 29.02674137569899 10.032265864353988 0 0 0
1862 93 10 -0.22 20.63035181761355 28.398626992175807 8.0654135318289 0 0 0
1765 89 4 -0.12 14.857369982012512 27.719772493526094 9.950492404489852 0 0 0
226 14 3 0.35 21.83867509813478 32.67960315996123 2.5740143510072486 0 -1 1
1413 75 11 -0.8 23.487782813755558 28.96840099866322 3.179035108819264 0 0 1
2667 229 13 0.4238 22.575968675111234 30.283520908761766 3.87905736556062 0 -1 1
1866 93 6 0.06 20.89228363281739 27.345666645092933 8.169349758237225 0 0 0
2715 245 13 0.4238 23.81377532436506 32.34819323428206 6.741566476147716 0 0 0
18 2 1 -0.48 25.883788555768277 32.253823426947 8.936040192534074 0 -1 0
807 48 5 0.08 25.29721932961968 31.64454339360264 3.400489725873876 0 0 1
2666 229 14 -0.8476 22.1653258938981 31.154575076138002 4.148629141496144 0 -1 1
1863 93 11 -0.8 22.101693511961592 30.270528545837642 8.458523021746666 0 0 0
1861 93 9 0.7 21.93676618653199 29.117763083458385 8.017370707188096 0 0 0
2665 229 13 0.4238 22.57871495076101 31.30309567600669 5.047007008022772 0 -1 1
21 2 3 0.35 25.950468498316148 31.617895857389613 8.15419539672192 0 -1 0
2714 245 14 -0.8476 23.507373089970123 31.429376416814556 6.4927198022429184 0 0 0
2713 245 13 0.4238 22.91961811261153 31.071397259211672 7.218273765583296 0 0 0
477 29 1 -0.48 24.249446670686297 27.834110203417573 5.3767934797736885 0 0 0
479 29 3 0.35 23.93916906699164 28.39661319873941 4.5974024504221935 0 0 0
480 29 3 0.35 23.733037588004258 28.09226140315606 6.205534268141641 0 0 0
2740 254 13 0.4238 26.0394859624953 28.978053731036525 8.169459247373634 0 0 0
2741 254 14 -0.8476 25.329619955364443 29.33154277438495 8.778694087635984 0 0 0
2742 254 13 0.4238 24.480250974600445 29.155596226261594 8.281052631284576 0 0 0
1864 93 11 -0.8 22.859316484385467 28.373440933486727 7.6701379064514486 0 0 0
2560 194 13 0.4238 25.141045096724916 31.08882055400874 5.966039687772669 0 -1 0
2561 194 14 -0.8476 26.12858661365472 30.95611475553025 5.881291504542396 0 -1 0
481 29 3 0.35 25.223388316678836 28.067801422821617 5.507014390603482 0 0 0
243 15 3 0.35 22.07626582315436 31.3757087009295 9.620944940667428 0 -1 0
801 48 2 0.2 26.041434254631874 31.170923682473656 2.7602046058834464 0 0 1
806 48 5 0.08 26.576368868102087 30.275738172985335 3.0774180867340455 0 0 1
22 2 3 0.35 25.58140009756717 31.767542808753404 9.768040253920297 0 -1 0
2562 194 13 0.4238 26.26541556460913 29.988629286730387 6.094085906153137 0 -1 0
1419 75 6 0.06 20.927084728426102 29.004000047751113 2.8291778407327066 0 0 1
104 7 2 0.2 29.955051372776722 27.777067276356952 2.898521459630469 -1 0 0
108 7 4 -0.12 31.33696303402416 27.26784384574163 3.205271756994958 -1 0 0
19 2 2 0.2 27.214866876903407 32.79189533662341 9.157112870254043 0 -1 0
1326 71 6 0.06 28.48671649650803 26.946222098746368 9.714902072216109 0 0 0
113 7 6 0.06 31.57050005538442 27.202495189027644 4.267969478171653 -1 0 0
1479 77 6 0.06 32.25677007815906 30.894660517007345 4.218112735068146 0 0 0
1474 77 4 -0.12 31.523850259880625 31.700063073869337 4.265985391338033 0 0 0
1478 77 6 0.06 30.791556397407376 31.585127256967574 3.4668158574755394 0 0 0
24 2 5 0.08 27.892386483365698 31.963846236478965 9.365531487857591 0 -1 0
744 44 6 0.06 32.1345071063991 29.583523331706743 9.802735985163022 -1 0 0
1464 77 11 -0.8 26.781296529726262 28.414469790738572 6.552687669547168 0 0 0
106 7 3 0.35 28.645623689735196 27.14080608046107 4.3182632768614795 -1 0 0
1467 77 6 0.06 28.24613928679382 29.1819486297273 8.520900727714523 0 0 0
1461 77 9 0.7 28.02624759550337 28.27286426176188 6.622065584469967 0 0 0
812 48 6 0.06 28.34810510170177 32.268847842634834 4.068710413312124 0 0 1
1476 77 6 0.06 30.275913827614225 32.541923407752705 5.794723401208721 0 0 0
1463 77 11 -0.8 28.575218082604778 27.412817301751133 5.947104711483995 0 0 0
1475 77 6 0.06 31.58872866618035 31.66508934539354 6.455275024434811 0 0 0
1471 77 4 -0.12 30.84986217373026 31.625868684407983 5.654853545024697 0 0 0
1466 77 6 0.06 29.723520671387178 28.38927702048192 7.880890783726529 0 0 0
1470 77 6 0.06 28.303399911332974 31.031211770416533 7.205524293384654 0 0 0
1472 77 6 0.06 29.28722346433056 30.5059646886845 4.980975421558985 0 0 0
1462 77 10 -0.22 28.881083418638973 29.03999107240154 7.646354817943924 0 0 0
1469 77 6 0.06 29.92842987784111 30.861302823408167 7.937282703921812 0 0 0
1465 77 4 -0.12 29.25094481383526 30.493837017918864 7.166491366218026 0 0 0
1468 77 4 -0.12 29.97998435902651 30.414445039482167 5.817541612919638 0 0 0
1473 77 6 0.06 30.595972964820596 29.51594885086336 5.780137427342998 0 0 0
745 44 6 0.06 31.961397177761754 31.193017376616503 9.123938488634053 -1 0 0
740 44 4 -0.12 31.84505796598939 30.608112034814923 10.036345971980955 -1 0 0
109 7 5 0.08 29.929361254449844 28.71975254620132 3.4451667022279455 -1 0 0
107 7 3 0.35 28.16494486700703 26.968725455409142 2.7251136493335957 -1 0 0
103 7 1 -0.48 28.926446878639027 26.882727925529707 3.38302758225519 -1 0 0
115 7 6 0.06 32.11665920971792 29.25768950200854 2.6862483045590717 -1 0 0
934 55 8 0.13 4.770271344718523 3.955224991079392 17.42978458905625 1 0 0
1349 72 4 -0.12 7.649658348119168 5.965669834827814 17.019498761113482 0 0 0
1359 72 6 0.06 7.7466215811644075 2.918169013577555 16.354260937805456 0 0 0
1343 72 4 -0.12 7.084029131882683 8.458157741760594 16.912550600697394 0 0 0
1347 72 6 0.06 6.238014806996585 8.314492597357503 16.240422326671847 0 0 0
935 55 8 0.13 4.876130191481188 5.6796149547989145 17.52906477509047 1 0 0
1346 72 4 -0.12 8.18542659477378 7.380672201346166 16.857667037926237 0 0 0
1901 94 6 0.06 7.710722639624352 5.805099475600805 10.388664114013894 1 0 0
1355 72 12 -0.18 8.339802349147977 3.447320155384148 17.10009741451147 0 0 0
1900 94 6 0.06 6.33839857289069 6.759253681423112 11.009478268646518 1 0 0
1896 94 4 -0.12 7.365394359327561 6.447056780217329 11.199081077390268 1 0 0
1898 94 6 0.06 6.870517312781593 6.319702053043383 13.194280885329066 1 0 0
1893 94 4 -0.12 7.401205927701842 5.683855779655812 12.48561620946981 1 0 0
1890 94 4 -0.12 6.453621529950434 4.413805944706176 12.486624759116463 1 0 0
1895 94 6 0.06 6.7165613006763465 3.7812451116219306 11.638765094948411 1 0 0
1894 94 6 0.06 5.434837606437798 4.653155292024808 12.181784450545205 1 0 0
1887 94 10 -0.22 6.45554879042183 3.606538035593494 13.818852954721475 1 0 0
1892 94 6 0.06 6.429348874649636 4.331818147969948 14.632129551860388 1 0 0
1891 94 6 0.06 7.406724802236843 3.107685485480157 14.004720548662934 1 0 0
929 55 6 0.06 3.4466360595023664 4.603138603296557 15.269446535044398 1 0 0
945 56 6 0.06 3.5743096631082407 6.144425851445743 11.207718843401445 1 0 0
924 55 4 -0.12 2.6032482065554277 4.4311999239237085 15.93822942223112 1 0 0
944 56 6 0.06 3.1238123418029637 4.669494554945385 12.141627391837021 1 0 0
940 56 4 -0.12 2.7694707696160856 5.463159363420758 11.483847209424377 1 0 0
1897 94 6 0.06 8.407204146655069 5.435376313163222 12.823790807688912 1 0 0
1899 94 4 -0.12 8.266476174624339 7.7035721971126385 11.30947756599574 1 0 0
1904 94 6 0.06 7.71680157878958 8.42276032580419 11.916735992622781 1 0 0
1404 74 6 0.06 3.4650952729401765 8.423261922370116 14.362072917560559 1 0 0
927 55 4 -0.12 2.772603746522628 4.881332881637112 17.435057250895774 1 0 0
922 55 3 0.35 2.949979776549421 2.8368699777679858 13.912100567078841 1 0 0
1886 94 9 0.7 5.34882984301508 2.568038291302679 14.017063043069566 1 0 0
1353 72 6 0.06 6.890172760363412 5.8938876009118655 16.24093247092268 0 0 0
1360 72 6 0.06 9.136255672541623 2.811563981820379 17.486895420269533 0 0 0
1351 72 6 0.06 8.594466878357704 7.358557465306263 15.847551436593386 0 0 0
1357 72 6 0.06 9.168063999553846 4.958134625342492 15.793719031448257 0 0 0
1903 94 6 0.06 9.207606662343878 7.564789556887812 11.84159526424015 1 0 0
1508 78 6 0.06 10.06539131346251 4.451487210211532 10.879191892849411 0 0 0
1502 78 4 -0.12 12.183194188771068 4.715304984304959 11.134573389831857 0 0 0
1500 78 6 0.06 11.001897843020998 5.51667228256661 13.495323852563107 0 0 0
1493 78 4 -0.12 11.867828018149975 7.504059142239615 13.88600318656142 0 0 0
1496 78 4 -0.12 11.94923727047633 6.02413494920173 13.313208239424629 0 0 0
1501 78 6 0.06 12.798660519873094 5.560043785218772 13.814442745601543 0 0 0
1503 78 6 0.06 13.218713092811145 6.577661683147939 11.663844055868339 0 0 0
1499 78 4 -0.12 12.26043524827015 6.097649456531205 11.862409828391455 0 0 0
1504 78 6 0.06 11.491828503329918 6.744166372117509 11.438858076188742 0 0 0
1498 78 6 0.06 11.081256108356394 8.058108063068211 13.373684042199036 0 0 0
1494 78 6 0.06 10.68573969720198 6.875934241754761 15.525391330131434 0 0 0
1490 78 4 -0.12 11.41487159099749 7.646472407159393 15.274843691099308 0 0 0
1495 78 6 0.06 12.261378405623399 7.392737446261633 15.912951268389374 0 0 0
1510 78 6 0.06 10.700348555306487 3.669053574888234 12.296702814935935 0 0 0
1505 78 12 -0.18 10.901404110106407 3.8530836212940898 11.241313724359344 0 0 0
1497 78 6 0.06 12.77363796040142 8.066900171987275 13.66049293967053 0 0 0
2366 129 14 -0.8476 12.628000021736568 4.350185688981658 16.57605884196551 0 1 0
2625 215 13 0.4238 12.19593655589874 3.085826849689682 14.825010864558607 0 1 0
1352 72 4 -0.12 8.753071857651182 4.8895444998341056 16.799310133129083 0 0 0
2365 129 13 0.4238 13.336339817916738 3.9954146440220573 17.18632479519956 0 1 0
1506 78 6 0.06 13.059063908110451 4.11192410006343 11.37315285927367 0 0 0
2367 129 13 0.4238 12.509187161826155 5.246538404113569 17.003219353175968 0 1 0
1509 78 6 0.06 10.857886850632633 2.88604542383358 10.740234986485778 0 0 0
1356 72 6 0.06 9.625374696233264 5.189667295819762 17.379956811058214 0 0 0
1350 72 6 0.06 9.009039511297772 7.524316452623818 17.5570700872536 0 0 0
65 4 6 0.06 14.671687751902935 7.919360170159531 10.299510637721443 0 0 0
63 4 7 -0.32 16.765555667018166 8.169476099455652 10.5967300233946 0 0 0
1842 92 6 0.06 16.003934093664892 4.1044666754178305 16.675892238735045 0 0 0
68 4 8 0.13 16.90794357790019 7.664811210662607 11.55233221454902 0 0 0
45 3 6 0.06 15.029425709432036 7.538970893155285 14.498222240885283 0 0 0
51 3 8 0.13 17.45868025714391 6.082980875618656 13.348275186806532 0 0 0
41 3 5 0.08 14.628601471028391 8.145694842491384 16.83343775841103 0 0 0
50 3 8 0.13 16.31904298087524 4.940349496753067 14.00418248719315 0 0 0
49 3 8 0.13 17.91368156638435 4.938479963457178 14.595656346785207 0 0 0
47 3 6 0.06 16.566143130363717 6.190712018535322 16.341345385223605 0 0 0
48 3 6 0.06 17.79835805350568 7.086012135274429 15.608849195715987 0 0 0
46 3 7 -0.32 17.125458933157 5.620864645859373 14.27754831447642 0 0 0
43 3 4 -0.12 16.818326537891657 6.661439007842955 15.39110533917058 0 0 0
40 3 4 -0.12 15.89788080477501 7.84959867038626 15.079111522964457 0 0 0
251 15 6 0.06 19.659849503397716 4.667222368550773 12.666714290229551 0 0 0
247 15 4 -0.12 19.496395594182488 3.8195152193726143 12.001273143347932 0 0 0
253 15 8 0.13 17.431468074011825 4.30169368311912 11.066056003014964 0 0 0
250 15 7 -0.32 18.505531097409744 4.275477344862147 10.882105300812219 0 0 0
254 15 8 0.13 18.7938023267901 5.240951524978487 10.466297869809651 0 0 0
252 15 6 0.06 19.071451279845867 2.96751215622751 12.531979870994837 0 0 0
1791 90 6 0.06 20.536493244792105 7.464756840741158 14.237924375210353 0 0 0
1844 92 6 0.06 17.86203258090361 2.550870108256298 15.967311394317218 0 0 0
1837 92 10 -0.22 16.57045063155343 3.6161715336933637 17.468838108439535 0 0 0
44 3 6 0.06 16.39677674508239 8.493354995543442 14.354668882331 0 0 0
1881 93 6 0.06 15.286740816590726 2.524521407613438 10.179683465588935 0 1 0
826 49 6 0.06 22.654138775871154 7.562074240698272 17.623541545249275 0 0 0
2156 104 6 0.06 26.295720652241783 4.586849222062755 17.423710972975417 0 1 0
1794 90 6 0.06 20.79948046764718 6.495741412227412 12.02675868265864 0 0 0
15 1 8 0.13 26.243691342899595 6.584046684654213 10.350863020728024 0 0 0
1795 90 6 0.06 22.454852455372155 6.857559117569339 11.948409793494724 0 0 0
244 15 4 -0.12 20.83580954292885 3.496273305934607 11.460663553855325 0 0 0
1790 90 4 -0.12 21.509881157568934 7.279007654870727 12.291260649728377 0 0 0
248 15 6 0.06 21.194016539168352 4.395955407286762 10.960267315105625 0 0 0
1787 90 10 -0.22 21.542547602118447 7.397696995425051 13.82380587971119 0 0 0
1792 90 6 0.06 21.98075353352902 6.490818076070394 14.240558479427662 0 0 0
13 1 6 0.06 24.59021280207454 5.466633449903947 12.666742466804317 0 0 0
12 1 7 -0.32 25.283326276798647 6.346478537350962 10.808461814907206 0 0 0
9 1 4 -0.12 25.520074727189076 5.6640839517425015 12.133350863625074 0 0 0
14 1 6 0.06 26.048291973202915 4.7343708538580564 11.92179395254555 0 0 0
2148 104 6 0.06 25.17649831129593 3.4099909515632874 15.739552911177435 0 1 0
1788 90 11 -0.8 23.61154983267982 8.176847009026893 14.475659039031683 0 0 0
249 15 6 0.06 21.515197709909152 3.319121354383798 12.294441289603101 0 0 0
2141 104 6 0.06 24.55225326012068 3.215744192283593 13.46268200614794 0 1 0
824 49 5 0.08 24.896226939845732 6.350425153703538 17.318742632962746 0 0 0
6 1 4 -0.12 26.51018625864061 6.3851660438378826 13.014834091478654 0 0 0
7 1 5 0.08 26.119387770423387 5.289857230179276 14.830626376263048 0 0 0
11 1 6 0.06 26.136516995173857 7.302091423609032 13.47063609033592 0 0 0
820 49 3 0.35 24.557328362019078 8.31122810317946 15.907488052643654 0 0 0
17 1 8 0.13 24.79693143539548 7.31084816817342 10.955253536559653 0 0 0
819 49 3 0.35 26.10483270338947 8.161621762295585 16.367076695174376 0 0 0
817 49 1 -0.48 25.171503706160998 8.341317928697457 16.708746398069557 0 0 0
1786 90 9 0.7 22.441744502767037 8.496556083223012 14.275700001122168 0 0 0
2142 104 6 0.06 26.10141132177865 2.5347729755114727 13.361141875694933 0 1 0
25 2 5 0.08 27.142424981174557 2.8991754155418725 10.158718514449403 0 0 0
943 56 4 -0.12 32.41149656970052 4.954083738506508 10.192680540283746 0 0 0
941 56 6 0.06 32.751084957286245 6.595481311149802 13.32365038736613 0 0 0
920 55 2 0.2 32.54354247844284 3.0258391164196037 15.793220967148434 0 0 0
928 55 6 0.06 32.07178393253509 4.976153561907907 15.52356327403545 0 0 0
919 55 1 -0.48 32.37414544073702 2.7430117927825055 14.375654244916593 0 0 0
948 56 6 0.06 31.568556473501808 4.39833319077516 10.603447772476056 0 0 0
942 56 6 0.06 32.07451285347205 7.293494455627725 12.015875763521272 0 0 0
937 56 10 -0.22 32.21651517255962 6.292516899683795 12.423325941083172 0 0 0
2 1 2 0.2 26.966780589168593 5.442107129075723 14.162134128883133 0 0 0
10 1 6 0.06 27.399481844855252 6.585670718531911 12.41726586811677 0 0 0
8 1 5 0.08 27.291845692910435 4.503067239507458 13.714168390273239 0 0 0
921 55 3 0.35 31.666418250006537 3.3786419313170954 14.03620175468072 0 0 0
1 1 1 -0.48 28.063083335906583 6.142037271662954 14.737825737805244 0 0 0
3 1 3 0.35 27.885506392800323 7.018477327948294 15.207347573104073 0 0 0
4 1 3 0.35 28.561099945525456 5.583905849074801 15.416501033502438 0 0 0
5 1 3 0.35 28.70603717804368 6.294368549331793 13.973928707220754 0 0 0
2699 240 14 -0.8476 29.44109476509542 3.7650072847427856 15.244646144183113 0 0 0
2698 240 13 0.4238 29.81940426430355 4.160661333590431 14.40776338021267 0 0 0
938 56 11 -0.8 30.746659198234838 4.591491558262321 13.153093089458295 0 0 0
936 56 9 0.7 30.89517125786162 5.79091618838453 13.008013060936785 0 0 0
939 56 11 -0.8 29.97239749499962 6.629430033433847 13.211755605267951 0 0 0
2743 255 13 0.4238 29.519841206429277 3.997705087074517 12.397697111627954 0 1 0
2744 255 14 -0.8476 28.733810087797572 3.5144616533630293 12.01213059208784 0 1 0
612 36 8 0.13 29.45242161730843 7.287770632934408 10.771448077865085 0 0 0
2700 240 13 0.4238 29.30648192907016 2.774591445821719 15.213231539335085 0 0 0
2745 255 13 0.4238 28.840032249389907 2.5792438534677102 12.3499400608443 0 1 0
1398 74 6 0.06 31.955749584961573 8.007624652598226 15.803886278549312 0 0 0
607 36 7 -0.32 29.845423804373958 8.219397888243257 10.364316058814989 0 0 0
1389 74 11 -0.8 27.686236497347956 7.929981553534055 16.584664341034745 0 0 0
926 55 5 0.08 31.638651265010694 2.759764929149921 16.339584348509256 0 0 0
1391 74 6 0.06 30.053054560369524 7.386640976031184 17.281707058296035 0 0 0
2157 104 6 0.06 27.825656823164564 4.290714017995506 17.17258101237377 0 1 0
1387 74 10 -0.22 29.786612876622087 8.425055984898 17.47878429678787 0 0 0
932 55 6 0.06 32.72640478958827 5.890903311015041 17.628138776148937 0 0 0
1341 72 6 0.06 5.549295183775406 10.571262026074107 16.81794553259979 0 0 0
1337 72 10 -0.22 6.541519991952658 10.872091594559395 17.154290640328185 0 0 0
1408 74 6 0.06 5.806740152883789 9.10561400479672 12.9884168982508 1 0 0
2069 101 6 0.06 4.201276045368186 14.398102937023129 10.474861065330185 0 0 0
1400 74 6 0.06 3.0972969135949757 10.012921111858521 16.003132745957245 1 0 0
2776 266 13 0.4238 7.892462129457888 12.952588602088221 11.10557171309087 0 0 1
1407 74 6 0.06 3.7224231549954574 11.226712578099738 13.00844169382333 1 0 0
2777 266 14 -0.8476 7.040965792349141 12.63176480288789 11.520370230964572 0 0 1
1406 74 6 0.06 4.791989357200192 10.636460090521608 14.377313804813577 1 0 0
2778 266 13 0.4238 7.341237253192198 11.81384990507295 12.011170251002989 0 0 1
1409 74 6 0.06 4.597312935006439 9.200515988605009 11.756677590969051 1 0 0
1402 74 4 -0.12 4.1815382767883085 10.376292493703664 13.512560232285718 1 0 0
1410 74 6 0.06 5.842491389149467 10.501690526339438 12.041210394283777 1 0 0
1405 74 12 -0.18 5.135003404967767 9.803435493921665 12.488465509539822 1 0 0
1336 72 9 0.7 6.778163307664493 12.230209397727586 16.511209195508417 0 0 0
2505 175 13 0.4238 7.913958182845184 9.996202560981493 13.563154806114152 0 0 0
1339 72 11 -0.8 6.729330557733663 12.280327848360109 15.259447249104603 0 0 0
2503 175 13 0.4238 7.560452979858303 11.55568642717443 13.886557200702478 0 0 0
178 11 5 0.08 3.364932731384969 13.872790724132775 16.286347048501863 0 0 0
2504 175 14 -0.8476 7.95504993707065 10.931663628330865 13.212078275637314 0 0 0
180 11 6 0.06 3.469178340332028 13.024889581532172 13.936643832170866 0 0 0
1399 74 4 -0.12 3.0919210778187747 9.392029970734928 14.029859105260837 1 0 0
2907 309 13 0.4238 8.40405241800115 13.050417637121328 15.063085468423145 0 0 0
173 11 3 0.35 5.591302835351424 13.581626574350592 15.104422313074616 0 0 0
176 11 4 -0.12 2.9257253224837676 13.94215474899498 14.163403378259723 0 0 0
1340 72 4 -0.12 7.57039655505027 9.86800702012519 16.785308579215645 0 0 0
1345 72 6 0.06 7.971932605852178 10.14176216071721 15.80962250362621 0 0 0
172 11 2 0.2 3.6136989219490743 14.462727851021569 15.404175802730135 0 0 0
171 11 1 -0.48 5.037446572666228 14.42495042802156 15.151111300180206 0 0 0
2079 101 6 0.06 2.817828954882208 10.235647304751076 10.582195528141675 0 0 0
2949 323 13 0.4238 6.038027261062307 14.015566823543658 12.219973837762327 0 0 0
2424 148 13 0.4238 7.620920501017022 14.515318586906686 16.86479557692121 0 0 0
1338 72 11 -0.8 7.256138298435473 13.133826516837786 17.180571328089023 0 0 0
1344 72 6 0.06 8.380411048839768 9.93293324580403 17.511805410513126 0 0 0
2195 106 6 0.06 12.205205690638312 14.303077238626145 10.12034556685543 0 0 0
1908 94 6 0.06 9.087349435670278 10.406620776319436 10.439258464263062 1 0 0
1909 94 6 0.06 10.323237545591539 9.215040364194454 10.532825377907747 1 0 0
790 47 5 0.08 13.180464395958024 13.040205770173664 17.54367141828814 0 0 0
1492 78 6 0.06 10.397387234686413 8.87155102566745 16.719709647750335 0 0 0
1487 78 10 -0.22 10.719425658559857 8.963634439610267 15.682430316582101 0 0 0
1491 78 6 0.06 9.790578873407785 9.06980674575647 15.121977252657029 0 0 0
2189 106 11 -0.8 9.633029525153507 13.278728602209357 10.908902513001443 0 0 0
58 4 5 0.08 13.461961725685422 10.694871016646392 10.49749186267525 0 0 0
2860 294 13 0.4238 10.321761299546882 12.01657998634855 11.659217526833185 0 0 0
2862 294 13 0.4238 10.094047214127396 11.347043366887219 13.024649021323876 0 0 0
2861 294 14 -0.8476 10.84006905645063 11.65579065653964 12.434600520076307 0 0 0
2905 309 13 0.4238 9.828440358023155 12.367308123976912 15.260186181348445 0 0 0
59 4 5 0.08 12.935952705945 9.357683527977766 11.549774257842294 0 0 0
53 4 2 0.2 13.597753352650805 10.22004412925983 11.469210175488648 0 0 0
1486 78 9 0.7 11.51983581137943 10.197909738314362 15.586313415687243 0 0 0
785 47 3 0.35 11.769496934409526 12.79968612307034 15.816734660057648 0 0 0
52 4 1 -0.48 13.354330206243853 11.098159407234306 12.610984452300487 0 0 0
54 4 3 0.35 13.903233001346956 11.94424063462261 12.665609204496203 0 0 0
56 4 3 0.35 13.234679103435653 10.669702514319354 13.51775896081242 0 0 0
55 4 3 0.35 12.436844518755827 11.502612558095336 12.48945411099398 0 0 0
1488 78 11 -0.8 12.623549556986632 10.202321224906758 15.023142999692716 0 0 0
1489 78 11 -0.8 11.002177106729327 11.22195032860312 16.06817627850937 0 0 0
783 47 1 -0.48 12.340578268349716 13.625585935279824 15.707706903396613 0 0 0
2906 309 14 -0.8476 9.358656819490115 13.101184444564598 14.76951251314928 0 0 0
784 47 2 0.2 13.44375675494846 13.444400611388243 16.566205200687108 0 0 0
787 47 3 0.35 12.584316479825986 13.777369558526773 14.739365207806777 0 0 0
548 33 3 0.35 9.944690079760264 14.16690743788203 13.656625837114332 0 0 0
549 33 3 0.35 9.859632797947233 14.253775341364985 12.087935025091605 0 0 0
986 58 9 0.7 14.030017191951037 14.389542665498544 12.779695449343127 0 0 0
989 58 11 -0.8 12.947378484179962 14.43864428337598 13.35127699956752 0 0 0
37 3 3 0.35 14.105426571955276 9.96887699754493 15.504634914983953 0 0 0
789 47 5 0.08 13.927156246664191 12.576246051452951 16.118132556968106 0 0 0
786 47 3 0.35 11.775542487107268 14.40421465979353 16.015283664335065 0 0 0
547 33 3 0.35 11.283501455023373 14.623055042846145 12.760897579632026 0 0 0
2427 149 13 0.4238 10.259473576318939 12.090104516203697 17.45134432003305 0 0 0
768 46 3 0.35 20.25044156317965 12.473778513621111 17.084200913111445 0 0 0
60 4 4 -0.12 15.391462523252684 8.727785121853005 10.428001569569737 0 0 0
67 4 8 0.13 17.57571580340222 8.898347922877392 10.573861640329138 0 0 0
2430 150 13 0.4238 19.336518462409884 9.60824160333756 17.127160891968117 0 0 0
36 3 2 0.2 15.457667402039545 8.640913760234866 16.327923761765874 0 0 0
57 4 4 -0.12 14.988338143930482 9.676268313573905 11.590494836143673 0 0 0
988 58 11 -0.8 14.786047608666552 13.423867785184791 12.95337733943441 0 0 0
42 3 5 0.08 16.336803809098434 8.655880442630425 16.97215330651793 0 0 0
795 47 6 0.06 16.07136055376509 13.316484913914868 16.864170580596994 0 0 0
61 4 6 0.06 14.880227109784732 9.139658628341245 12.53309683796661 0 0 0
38 3 3 0.35 14.921151627307534 10.469267458322726 16.74341037186388 0 0 0
2407 143 13 0.4238 18.206142058656695 12.429924342165847 16.519678034802087 0 0 0
85 5 8 0.13 16.250732681758297 12.75009278390123 10.651314215409696 0 0 0
62 4 6 0.06 15.68698583971692 10.5051513326042 11.704428526069524 0 0 0
2725 249 13 0.4238 15.555012078243902 12.641322575584555 13.933667439103015 0 0 0
39 3 3 0.35 15.672059979839798 10.547254394470082 15.418521973213755 0 0 0
35 3 1 -0.48 15.034648328918962 9.927884852829445 15.898333554330037 0 0 0
2726 249 14 -0.8476 16.056766968367945 12.184192130206828 14.66804107345077 0 0 0
2900 307 14 -0.8476 19.382777650106036 10.010624885562077 15.225433438329736 0 0 0
2727 249 13 0.4238 17.001318173111102 12.196889318571108 14.339875597804062 0 0 0
2901 307 13 0.4238 19.053466402572802 10.911665822524467 14.943099613917125 0 0 0
2114 103 11 -0.8 18.74245188989788 12.39086882942284 14.377075981415533 0 0 0
2111 103 9 0.7 19.521193646178226 13.19085333592302 13.819715634777927 0 0 0
2116 103 6 0.06 18.320711501903265 13.17852346177984 12.09595796127732 0 0 0
2112 103 10 -0.22 18.95883075348879 13.903653742760294 12.601058337105304 0 0 0
2117 103 6 0.06 19.64366231451865 14.157373360613438 11.79188058629233 0 0 0
2899 307 13 0.4238 20.324187621410267 10.081801356066197 14.895717464644164 0 0 0
1798 90 6 0.06 20.46128118646663 9.031271080101249 11.997571218844762 0 0 0
791 47 4 -0.12 15.780938831161643 14.241343877960636 17.362595631022074 0 0 0
2408 143 14 -0.8476 18.732956676773284 12.385075541170012 17.368492448956484 0 0 0
2295 110 6 0.06 26.621555986834444 13.166995982507345 10.289410874508443 0 0 0
767 46 2 0.2 21.72137664034704 13.684921144262766 17.513637603229817 0 0 0
821 49 3 0.35 25.057763118279034 9.272823615007548 17.082232120516345 0 0 0
770 46 3 0.35 21.75291476440575 11.835255334146902 16.73292476350246 0 0 0
2459 160 14 -0.8476 26.50760461163329 13.710270090650793 17.251579125910737 0 0 0
1793 90 4 -0.12 21.346885279232644 8.575980329238611 11.554229133684688 0 0 0
2113 103 11 -0.8 20.731488930350558 13.363791914623732 14.121490149777475 0 0 0
2291 110 6 0.06 23.862290840298343 14.176764872428556 10.377722245869025 0 0 0
1797 90 6 0.06 22.221403926847138 9.185636615286633 11.781545737028992 0 0 0
2290 110 4 -0.12 25.58437474115 12.906990159641296 10.501043900828055 0 0 0
769 46 3 0.35 21.08346119733215 12.757567938991595 15.701348482753405 0 0 0
766 46 1 -0.48 21.16745075168049 12.657728336479318 16.70290195044701 0 0 0
2959 327 13 0.4238 23.574065351370898 11.20251603602843 16.471150938865367 0 0 0
2694 238 13 0.4238 25.113981401575714 12.812774344370549 16.582493252701973 0 0 0
2693 238 14 -0.8476 24.346722741510476 12.48085985646858 16.03369629686494 0 0 0
2476 166 13 0.4238 21.778355023118834 12.404815836498784 13.491206950403654 0 0 0
1789 90 11 -0.8 22.018366834985073 9.659919525589999 14.428102886618278 0 0 0
2961 327 13 0.4238 22.708938395747346 10.148550596322103 15.779686113054963 0 0 0
2478 166 13 0.4238 22.185098143738784 10.92015771104034 13.690074625183797 0 0 0
2477 166 14 -0.8476 22.500107087685322 11.758129428113513 13.244425049179954 0 0 0
2716 246 13 0.4238 24.20089170681903 9.423277559155093 13.234884721713314 0 0 0
2718 246 13 0.4238 24.101043170602892 10.974144813391474 12.9574665866194 0 0 0
2717 246 14 -0.8476 24.748948340594772 10.212402691583865 12.957491436415767 0 0 0
2543 188 14 -0.8476 25.073114393663886 14.612225086418478 14.420658976985974 0 0 0
2294 110 6 0.06 25.49410513761665 12.263180446459534 11.375970739919973 0 0 0
2692 238 13 0.4238 24.32316060583178 13.24812358431377 15.392772864540866 0 0 0
2960 327 14 -0.8476 22.922405368858023 10.479032429363194 16.69905786118227 0 0 0
2287 110 10 -0.22 24.898745076225133 14.297388871662829 10.692919019154195 0 0 0
599 36 3 0.35 26.388788897435354 10.611336582843464 13.674938341601466 0 0 0
2544 188 13 0.4238 25.85279507940117 14.41998777831968 13.824694160880036 0 0 0
2292 110 6 0.06 24.977559633108342 14.560402822997995 11.747787952547196 0 0 0
772 46 5 0.08 22.642106714790692 14.050170797111333 17.058681249745703 0 0 0
2374 132 13 0.4238 26.273064748995196 11.807667368999327 17.58102568179663 0 0 0
1395 74 6 0.06 30.746103335876754 10.317855998152439 17.378112382795138 0 0 0
2376 132 13 0.4238 27.154325409447154 10.601078550181882 17.19574093898861 0 0 0
1401 74 6 0.06 32.22584931267204 10.886293680336008 15.004918462577088 0 0 0
1396 74 4 -0.12 32.643000293763826 9.907038051995139 15.239822383445437 0 0 0
1386 74 9 0.7 28.58834779135637 8.79626447694504 16.666522811255845 0 0 0
1403 74 6 0.06 32.63142197757155 9.18335835152698 13.294530131146692 0 0 0
183 11 6 0.06 31.750428720666847 12.77424051990074 15.342950137634913 -1 0 0
2073 101 6 0.06 32.58921173821958 12.654714116020955 11.013322529356742 -1 0 0
1393 74 4 -0.12 31.528498187825996 9.007871309916686 15.732477258325723 0 0 0
1397 74 6 0.06 30.747450080593055 8.913482481458384 14.978029700595432 0 0 0
598 36 3 0.35 27.364130118153007 11.856846282000335 14.199451427295115 0 0 0
184 11 6 0.06 31.26588551971531 12.938206454717808 13.7336596202535 -1 0 0
179 11 4 -0.12 31.77149188432294 13.493179923622332 14.523914739640555 -1 0 0
609 36 6 0.06 29.549475738672157 10.285842175800205 10.537903215953234 0 0 0
600 36 3 0.35 27.672501615696248 10.369836312634604 14.698073074991802 0 0 0
596 36 1 -0.48 27.331839223108382 10.891765642563785 13.903296021550968 0 0 0
608 36 6 0.06 30.639687205281177 9.664084385912767 11.80604413715651 0 0 0
606 36 6 0.06 28.85446877856507 8.800407096425804 13.062835778750491 0 0 0
605 36 6 0.06 27.652735013026515 9.135392943143835 11.754659326901594 0 0 0
602 36 5 0.08 29.310478384374107 11.150110585197915 13.375839082613608 0 0 0
603 36 5 0.08 28.063737729733916 11.628250882466922 12.125557050988876 0 0 0
597 36 2 0.2 28.368294532959943 10.907436008639273 12.884376893964893 0 0 0
601 36 4 -0.12 28.546442441296435 9.484380316561825 12.27199018616776 0 0 0
604 36 4 -0.12 29.70684302640992 9.492700979889474 11.268860885461242 0 0 0
1388 74 11 -0.8 28.467515799638072 9.876488349851986 16.118688065014247 0 0 0
2396 139 14 -0.8476 27.5250776387322 13.745205169140032 13.811224960984088 0 0 0
2397 139 13 0.4238 28.178157688047264 13.81847245356579 13.057467881526806 0 0 0
186 11 8 0.13 29.93962308034299 14.48651471589501 15.200189883782881 -1 0 0
2813 278 14 -0.8476 29.4944401582932 14.572601562275349 11.959628641757915 0 0 0
2327 116 14 -0.8476 28.865993890232794 12.506402482926424 16.246150394132222 0 0 0
2328 116 13 0.4238 29.09162272165876 11.552286503798777 16.04920956021512 0 0 0
2460 160 13 0.4238 27.40042291638715 13.431724199928576 16.89757426689492 0 0 0
2326 116 13 0.4238 29.553654656603726 12.813698082936948 16.90396814036625 0 0 0
2395 139 13 0.4238 27.67311536857857 14.420539560570786 14.53374781816487 0 0 0
1390 74 4 -0.12 31.019205934155508 9.28031874038787 17.185582125842686 0 0 0
2422 148 13 0.4238 7.294727273031111 16.00630233972986 17.28081773206634 0 0 0
181 11 6 0.06 3.003032361754988 14.657416137047727 13.344525299616642 0 0 0
174 11 3 0.35 5.100336120853164 14.846740725503066 14.23554087588872 0 0 0
2840 287 14 -0.8476 6.944344714320525 16.294110488741083 10.420457331714587 0 0 0
842 50 4 -0.12 3.71796133328161 19.237372545945043 10.658983016122665 0 0 0
2841 287 13 0.4238 7.470846126237303 15.451064599161034 10.310444316096545 0 0 0
848 50 8 0.13 5.829326703874246 19.141112353522765 10.499093960557623 0 0 0
845 50 7 -0.32 5.047498417425032 18.680730691798473 11.103188111187446 0 0 0
175 11 3 0.35 5.598079475068101 15.04001008570762 15.723408062977835 0 0 0
2947 323 13 0.4238 6.156149338710984 15.438862550378111 11.70229026630526 0 0 0
2948 323 14 -0.8476 5.770704559088839 14.943261851328426 12.480650141040652 0 0 0
2556 192 13 0.4238 7.0363172138080765 18.957015882632568 15.524655604863192 0 0 0
2555 192 14 -0.8476 6.0939829379212735 18.917315610821056 15.85701204721031 0 0 0
850 50 8 0.13 4.961962006110063 17.597588095526724 11.015883307785913 0 0 0
866 51 8 0.13 2.9256957457415447 17.858094537959225 13.746446626882268 1 0 0
177 11 5 0.08 3.4019893661234173 15.518873480655227 15.571124773732931 0 0 0
862 51 7 -0.32 2.904286284922004 18.445686793509132 14.6642774158559 1 0 0
867 51 8 0.13 3.9213338455910245 18.692426178163473 14.969023947779963 1 0 0
558 33 6 0.06 8.45587359678648 18.237023519504127 12.523352591880828 0 0 0
865 51 8 0.13 2.510088807295117 17.787997273523374 15.438996326774639 1 0 0
849 50 8 0.13 5.215283275014629 18.844204903411722 12.167735408068733 0 0 0
846 50 6 0.06 2.908014324787473 18.800633431728436 11.24326145981534 0 0 0
2968 330 13 0.4238 8.1524533169608 17.528436597707497 16.16914023140109 0 0 0
2423 148 14 -0.8476 7.680339357058813 15.458646701376226 16.538249647276118 0 0 0
2554 192 13 0.4238 6.133115615812622 18.50643671539364 16.767878959669595 0 0 0
2067 101 6 0.06 2.9797452313641064 16.315650714060446 10.582292324955745 0 0 0
847 50 6 0.06 3.720975302245533 20.316465755440063 10.812882857483277 0 0 0
1063 61 11 -0.8 10.969184919255984 17.988658491559953 17.173201376678236 0 0 0
545 33 1 -0.48 10.284710645569628 14.715161293859557 12.879492954114697 0 0 0
561 33 8 0.13 9.002843698586101 18.8839853459679 10.197990097190814 0 0 0
556 33 7 -0.32 9.532682212249192 19.335986648604695 11.036502174987772 0 0 0
559 33 8 0.13 9.038027067009223 20.28344565589334 11.250451256727965 0 0 0
788 47 4 -0.12 14.46411555282584 14.673359172273315 16.626083238229597 0 0 0
554 33 6 0.06 9.446623649246519 16.695677990806274 11.155963277920067 0 0 0
560 33 8 0.13 10.584020673917259 19.5518901662577 10.846214042821524 0 0 0
553 33 4 -0.12 9.494060685052563 18.449454666048965 12.268054504819483 0 0 0
2969 330 14 -0.8476 8.80796103459685 18.09512390684014 15.669934841908926 0 0 0
2587 203 13 0.4238 10.656000673189741 16.385351341994387 16.960669526395304 0 0 0
552 33 5 0.08 8.834200736286931 16.029126681258525 13.45911817243811 0 0 0
557 33 6 0.06 9.956104695914085 19.028598469688028 13.067582056656482 0 0 0
2970 330 13 0.4238 9.66479245143177 18.193531281552403 16.17608494324456 0 0 0
1062 61 10 -0.22 12.607681136593936 18.876651769562663 15.590501828648755 0 0 0
551 33 5 0.08 10.532106751688088 16.537820939257543 13.896838004919292 0 0 0
546 33 2 0.2 9.873667394360872 16.109599937779468 13.141046416046029 0 0 0
550 33 4 -0.12 10.026959664137053 17.053033919319155 12.00663555025452 0 0 0
555 33 6 0.06 11.017636909067786 17.213333187748376 11.581195585696788 0 0 0
994 58 6 0.06 12.986467914502182 16.8548277998674 12.894944979389123 0 0 0
1000 58 6 0.06 12.7224739148632 19.336348462405404 12.85843718033484 0 0 0
996 58 4 -0.12 13.267354308777902 19.295582605594788 11.915261717912081 0 0 0
1067 61 6 0.06 13.59170037363558 18.63339948263409 15.189664019015567 0 0 0
1066 61 6 0.06 11.850658255410092 18.52428488362895 14.889866087061929 0 0 0
1001 58 6 0.06 12.647907185065598 19.095260910663143 11.041023196598701 0 0 0
990 58 4 -0.12 13.572503460426274 16.794658471384203 11.977841665045474 0 0 0
995 58 6 0.06 12.986380425047455 16.684468255424317 11.065452270371178 0 0 0
993 58 4 -0.12 14.266991720996174 18.159904398169175 11.872047322755948 0 0 0
987 58 10 -0.22 14.526052170610964 15.550457972666097 11.923373233831327 0 0 0
1061 61 9 0.7 12.140603814326271 18.199884453735425 16.908526522478468 0 0 0
792 47 6 0.06 14.128456898071581 15.519533148189966 17.225632567669358 0 0 0
1065 61 4 -0.12 12.422406123009798 20.446701349677227 15.653599170888924 0 0 0
2588 203 14 -0.8476 10.63498118204932 15.446335167468987 16.61739250214955 0 0 0
2589 203 13 0.4238 9.667293861570013 15.299052752755689 16.41264809850788 0 0 0
1753 88 6 0.06 17.338500185779232 17.350802804311463 10.18130156551008 0 0 0
1755 88 12 -0.18 17.059429945773402 20.055848823184718 10.110927321860013 0 0 0
1752 88 4 -0.12 18.30090320910192 19.32827455233506 10.341815493375428 0 0 0
794 47 7 -0.32 16.867073725893547 15.395115272435364 17.190709766993997 0 0 0
793 47 6 0.06 14.776109624404905 14.970018852553189 15.62468957494942 0 0 0
997 58 6 0.06 14.834139718203637 18.130374328215005 10.941666995691966 0 0 0
1759 88 6 0.06 16.299370284201608 19.652179621886006 10.779879485869625 0 0 0
2119 103 6 0.06 17.261773582375838 14.907759040785885 13.549226796762277 0 0 0
2115 103 4 -0.12 18.170753600987887 15.187082580948674 13.016432093120283 0 0 0
2120 103 6 0.06 17.804759279966447 15.78187400331443 12.179528357925673 0 0 0
798 47 8 0.13 17.448660732859345 15.323577283518638 16.271593130295646 0 0 0
991 58 6 0.06 14.82717096738584 15.246985905559226 10.920692527656545 0 0 0
998 58 6 0.06 14.947552436978368 18.290229533602037 12.713468143370791 0 0 0
1751 88 6 0.06 19.76752736445409 17.094461809466214 10.985366724874588 0 0 0
1757 88 6 0.06 18.510492233606264 19.184359483134052 11.401767102463237 0 0 0
992 58 6 0.06 15.479647225821564 15.758626693169742 12.408614170987521 0 0 0
2118 103 4 -0.12 18.923468055567987 16.27925134862832 13.862869784108229 0 0 0
2121 103 4 -0.12 18.030584967347764 17.443100580919577 14.145253960309262 0 0 0
2125 103 6 0.06 17.1350609141238 17.08795302847831 14.655198463855195 0 0 0
2124 103 4 -0.12 18.720090968506227 18.53105639451711 14.991449405486762 0 0 0
2123 103 6 0.06 19.190233659190284 15.850109814511121 14.828690781106786 0 0 0
2126 103 6 0.06 17.559816409039914 17.731610682857696 13.205426676814321 0 0 0
2122 103 6 0.06 19.79609617326546 16.64969257770454 13.324882812386583 0 0 0
2129 103 6 0.06 18.76970537323634 18.29107406073641 16.053562071101 0 0 0
2131 103 6 0.06 16.993756291318856 19.63578747681305 15.409662086537873 0 0 0
2127 103 4 -0.12 17.987692130532537 19.850805356857933 15.017239602770115 0 0 0
2132 103 6 0.06 17.913849048000472 20.267233077005535 14.012614491561937 0 0 0
2128 103 6 0.06 19.70170366118861 18.85742939375865 14.647859955763392 0 0 0
776 46 6 0.06 20.495731869228152 15.219095257685616 16.616880521480546 0 0 0
2133 103 6 0.06 18.76129751819515 20.666105099361253 16.912026036766058 0 0 0
799 47 8 0.13 16.522936061649716 16.383633705833187 17.494908872273278 0 0 0
771 46 4 -0.12 20.6886281672693 14.8058695379216 17.606916903929278 0 0 0
1745 88 6 0.06 21.042303236192417 14.837133398977459 10.092474029714998 0 0 0
2531 184 14 -0.8476 26.681235790598066 20.028819003664125 10.594370340613514 0 0 1
2611 211 13 0.4238 25.38777979680907 16.10003119014052 17.079595561903506 0 0 0
2458 160 13 0.4238 26.452421828650827 14.645840911338635 16.9027303066224 0 0 0
2288 110 11 -0.8 25.711678650179053 16.489143837145036 10.354536603774186 0 0 0
2881 301 13 0.4238 22.90191141176401 14.828822531392406 13.787772235337934 0 0 0
2883 301 13 0.4238 21.454254785734683 14.858033656868791 13.686758558879228 0 0 0
438 26 6 0.06 21.279376499688972 20.471517318729944 11.00538983634827 0 0 0
1375 73 6 0.06 23.890877249832783 19.604050534598933 16.838663704769502 0 0 0
1371 73 4 -0.12 24.06967817850383 20.549718217947948 17.350405235202587 0 0 0
2542 188 13 0.4238 25.4028738070338 15.411525175177898 14.923062280874118 0 0 0
2882 301 14 -0.8476 22.19931386578341 15.52258621069789 13.629407169172758 0 0 0
433 26 5 0.08 22.306870403257648 18.170507250791744 10.228245632463473 0 0 0
429 26 3 0.35 24.11941587182973 19.238852031954586 10.866956498132705 0 0 0
428 26 3 0.35 24.46852546556112 17.670132001837317 10.698517419974548 0 0 0
426 26 1 -0.48 24.018298599188185 18.336585173956742 11.309473519474526 0 0 0
2656 226 13 0.4238 22.40780227887138 16.744794551357465 14.946867028811612 0 0 0
2657 226 14 -0.8476 22.903729150041542 17.328974052050434 15.589379603234837 0 0 0
435 26 6 0.06 22.260047230716808 18.63714935168457 13.238793216359431 0 0 0
431 26 4 -0.12 21.83674182367549 18.774084658816008 12.243706396592097 0 0 0
2658 226 13 0.4238 23.411331444811836 17.951703606229025 14.993914288338999 0 0 0
430 26 3 0.35 24.40621938635681 18.17509818264811 12.227934656983082 0 0 0
427 26 2 0.2 22.665096758662834 17.929735569742363 11.229164909089036 0 0 0
432 26 5 0.08 22.517581760145667 16.877570964352294 11.472733021623592 0 0 0
1364 73 11 -0.8 25.966256498623714 20.45484903963564 13.061707995944811 0 0 0
2448 156 13 0.4238 25.251839938175124 19.195513093690522 13.662939515277731 0 0 0
2447 156 14 -0.8476 24.899998012150853 18.2926267882288 13.909990856416522 0 0 0
436 26 6 0.06 20.828664292341486 18.363518918751453 12.301602789039446 0 0 0
2446 156 13 0.4238 25.73339451816716 17.843028646694925 14.23146007931287 0 0 0
2613 211 13 0.4238 23.90661764972377 16.70366930811233 17.11661665214354 0 0 0
2938 320 13 0.4238 26.636471845245396 16.528675412770447 11.796666815091422 0 0 0
434 26 4 -0.12 21.683962467207934 20.327233762155515 12.00720261145458 0 0 0
2532 184 13 0.4238 26.57283294227738 20.321460233442252 11.544445361519736 0 0 1
2612 211 14 -0.8476 24.53258099120665 16.089961867404654 17.59782818304904 0 0 0
2220 107 6 0.06 29.861080024470944 17.321950051781656 17.15357790271129 0 0 0
2063 101 11 -0.8 30.431758580095618 16.181924624392046 10.148406108468516 -1 0 0
2893 305 13 0.4238 29.70096992082349 19.84888633632915 10.38550608191385 0 0 0
182 11 7 -0.32 30.999023316484475 14.71917454628649 15.092129338950933 -1 0 0
864 51 6 0.06 32.722748254881274 20.120743513159013 13.465882061709491 0 0 0
2213 107 11 -0.8 26.855414371911117 15.97101661862808 16.108978513821185 0 0 0
2940 320 13 0.4238 27.10358135071644 16.758067868173388 13.23775057745912 0 0 0
2939 320 14 -0.8476 27.459011812848303 16.440701924676706 12.358557396400801 0 0 0
2800 274 13 0.4238 28.713637161850386 17.6872010272032 11.704881529230727 0 0 0
2062 101 10 -0.22 32.670395031543045 15.430122424563665 10.472012068346725 -1 0 0
2802 274 13 0.4238 30.160092318399528 17.494295348447405 11.151643349475226 0 0 0
2212 107 10 -0.22 27.767842866629778 18.045325424496582 16.94175884310458 0 0 0
2814 278 13 0.4238 28.795147098221925 15.279347021127863 12.067015392069237 0 0 0
2812 278 13 0.4238 30.094591720123795 14.989228151059597 11.2767871758899 0 0 0
2066 101 6 0.06 32.41718980922823 15.121137679228967 11.486187600339266 -1 0 0
187 11 8 0.13 31.440051520844342 15.083860835465181 16.019833260370532 -1 0 0
185 11 8 0.13 31.101985991248938 15.501460946059982 14.34008999927468 -1 0 0
2801 274 14 -0.8476 29.56352486564137 18.1909624672992 11.55013414940744 0 0 0
859 51 4 -0.12 32.39202476307797 19.620115624639148 14.375898670505833 0 0 0
2217 107 6 0.06 28.10443735941024 18.968289426578593 16.469553249176872 0 0 0
2211 107 9 0.7 27.275802922245596 17.124448665265575 15.822277322631555 0 0 0
2214 107 11 -0.8 27.250665217867983 17.588544717879913 14.69239970203136 0 0 0
855 51 3 0.35 28.359640312328672 19.072071576521104 14.43838997928466 0 0 0
851 51 1 -0.48 28.629476855712888 19.674315155811904 13.673784006988237 0 0 0
854 51 3 0.35 28.786407367985746 19.00891334127637 12.930316035536345 0 0 0
856 51 4 -0.12 30.90057296617443 19.318454871149 14.359623009561973 0 0 0
852 51 2 0.2 29.88741873928314 20.36610302043521 13.86941759293929 0 0 0
861 51 6 0.06 30.625669294167253 18.83912647906142 15.299202015249792 0 0 0
860 51 6 0.06 30.940359645118853 18.54809008702511 13.589498575634785 0 0 0
853 51 3 0.35 27.910786473780597 20.34577426518898 13.44409219569299 0 0 0
863 51 6 0.06 32.51719440663686 20.355717781914286 15.170479349318938 0 0 0
2216 107 6 0.06 26.89414676794425 18.33021300755177 17.527959068034782 0 0 0
159 10 4 -0.12 4.958840726382496 24.17643717598503 17.62853034791194 1 0 0
163 10 6 0.06 4.409777868335716 23.308110377728504 17.264284439943715 1 0 0
1578 81 6 0.06 6.941857766514855 21.289572227076363 12.86359274878803 0 0 0
167 10 6 0.06 6.9451111279659905 23.522784872032155 17.51660042662783 1 0 0
155 10 2 0.2 5.24347191661607 25.03467028731408 16.40137870629212 1 0 0
156 10 3 0.35 4.244521927609522 26.079119957896104 14.946905793634047 1 0 0
1579 81 6 0.06 6.8424550026834705 21.910114630716294 14.520539064664806 0 0 0
1572 81 6 0.06 4.337061045292603 21.493218469996677 12.442861941076265 0 0 0
1574 81 4 -0.12 7.017975195808059 22.185013287097647 13.480462180674273 0 0 0
1576 81 6 0.06 6.22403984651905 23.116847516490544 11.86496446708673 0 0 0
1571 81 4 -0.12 5.871221298873749 23.086655426313328 12.895859128872628 0 0 0
1575 81 6 0.06 5.941184168140114 24.13864096105449 13.172568492965686 0 0 0
1568 81 4 -0.12 4.462659212795662 22.45445918137903 12.941236905525788 0 0 0
1573 81 6 0.06 4.0877674161912205 22.15471962104499 13.919883354569496 0 0 0
1577 81 4 -0.12 8.419528997669685 22.860502171417124 13.43962569252269 0 0 0
154 10 1 -0.48 4.0516655854761225 25.556242944946924 15.78924660789969 1 0 0
161 10 5 0.08 5.57790525858389 24.399261232138016 15.581289562932232 1 0 0
158 10 3 0.35 3.424454252633039 26.0334673034466 16.420906549414557 1 0 0
160 10 5 0.08 6.028295182783739 25.74536239147259 16.66042637952034 1 0 0
1581 81 6 0.06 8.448201975593648 23.732819785525365 14.092600715297804 0 0 0
1570 81 6 0.06 3.618205842325689 23.599018582981465 11.222516245337202 0 0 0
1565 81 4 -0.12 3.42858983881332 23.489703762881 12.290332923676328 0 0 0
1569 81 6 0.06 3.58586601973496 24.50900216235373 12.643081411759006 0 0 0
2831 284 14 -0.8476 8.257377035928702 26.441759353470076 14.654064616113535 0 0 0
157 10 3 0.35 3.5040027885352956 24.81175487672145 15.381896053837607 1 0 0
1075 61 6 0.06 12.888720469965667 22.991907516733583 16.732607167199713 0 0 0
1073 61 6 0.06 14.103677925798666 20.848558361661098 17.02001139690401 0 0 0
899 53 8 0.13 9.01191054720752 24.461674386508378 16.474606107641584 0 0 0
999 58 4 -0.12 13.739436387227105 20.702413919624625 11.618379663497363 0 0 0
1069 61 6 0.06 11.612917563877154 20.734886748172414 16.324280826896683 0 0 0
1070 61 6 0.06 12.167786870289136 20.748564514238126 14.637634547536042 0 0 0
1003 58 6 0.06 14.15418613076494 20.88175476495958 10.626434160346841 0 0 0
1004 58 6 0.06 14.623225881559371 20.861021460097696 12.236357215565336 0 0 0
1068 61 4 -0.12 13.788113370914898 21.113884890108288 16.010973559533248 0 0 0
1583 81 6 0.06 10.449028031695804 22.580894903824287 13.915197619148826 0 0 0
1072 61 6 0.06 14.46917887893859 20.741246854758998 15.245841417315997 0 0 0
1582 81 6 0.06 8.566422853351057 23.405930221338934 12.50738809034563 0 0 0
2832 284 13 0.4238 9.120827923533387 26.1732277949571 14.227011266565384 0 0 0
896 53 7 -0.32 9.561053450147192 24.197698252624292 17.37842863786736 0 0 0
900 53 8 0.13 9.650375127479034 23.112301811206557 17.332901820863732 0 0 0
898 53 6 0.06 11.554886743417951 24.985091535642958 16.8006784661996 0 0 0
1585 81 6 0.06 9.674894554678996 21.138484686645477 13.244748141849124 0 0 0
1076 61 6 0.06 13.014541129775225 22.977995501630907 15.032456777538192 0 0 0
1071 61 4 -0.12 13.568752468769157 22.70501747415919 15.930493108060913 0 0 0
2759 260 14 -0.8476 9.91358566986105 25.141221344711376 10.135693686680911 0 0 0
1584 81 6 0.06 9.275432049326334 21.55389998992743 14.838869391742529 0 0 0
1580 81 12 -0.18 9.520712762716407 22.010690892795317 13.880059722668555 0 0 0
2758 260 13 0.4238 9.726663228156724 25.31700914346942 11.102228363469711 0 0 0
1007 58 6 0.06 11.967931905436062 21.74416113983181 11.168851191770575 0 0 0
1002 58 4 -0.12 12.781372189996949 21.828611377786217 11.889489433193054 0 0 0
1005 58 12 -0.18 13.29757856044585 23.226519201240556 11.715268740298237 0 0 0
1006 58 6 0.06 12.278912587750026 21.80139751867268 12.856407360751328 0 0 0
1010 58 6 0.06 12.598404457776804 24.033282896317026 11.93532431906568 0 0 0
1082 61 6 0.06 13.946871908454936 25.22978831938822 14.826747279491396 0 0 0
1009 58 6 0.06 13.724687984469643 23.302246433789648 10.715279017316567 0 0 0
1008 58 6 0.06 14.09254329009919 23.369127338502487 12.447273203453152 0 0 0
2655 225 13 0.4238 11.23437003624104 26.262479183790212 13.230851218441705 1 0 0
2654 225 14 -0.8476 10.789907846484077 25.40030213156041 13.474032787519548 1 0 0
2653 225 13 0.4238 11.487989590149098 24.923371213711704 14.0081202610806 1 0 0
1081 61 6 0.06 13.87107946943367 25.412111109148434 16.530020434020663 0 0 0
1077 61 4 -0.12 14.526497482813824 25.058865710334175 15.7339166142614 0 0 0
893 53 4 -0.12 10.869700457872657 24.995452521638924 17.64835107790663 0 0 0
2103 102 6 0.06 20.428023703861676 25.570393625425552 17.17468774204431 0 0 0
442 26 8 0.13 19.905626337693683 20.771808481503435 13.225586867924097 0 0 0
2130 103 12 -0.18 18.72099122255179 20.936414145817245 15.856827020899411 0 0 0
1078 61 6 0.06 15.306428489274845 23.16485982275161 14.99999757601037 0 0 0
1074 61 4 -0.12 14.882141025100857 23.488680475915892 15.950395755984458 0 0 0
1773 89 6 0.06 14.6344169334971 25.620422433599686 10.447380613104631 0 0 0
1083 61 6 0.06 16.31280173092732 25.79889008931523 14.651245738702174 0 0 0
2135 103 6 0.06 18.140512696094618 21.835506877140972 15.649912910265886 0 0 0
1760 88 6 0.06 17.26715955914156 21.09810004577043 10.35320262491835 0 0 0
1779 89 6 0.06 15.882486789167785 24.55492981550455 12.265579436591507 0 0 0
1768 89 4 -0.12 15.4273992836869 26.276298169508856 10.08801674214251 0 0 0
1080 61 12 -0.18 15.767418907981686 26.051603164829586 15.560547787343262 0 0 0
2134 103 6 0.06 19.75268322784791 21.135032898510268 15.566484605533299 0 0 0
1085 61 6 0.06 16.42566541808859 26.162840334302693 16.42221728745537 0 0 0
1778 89 6 0.06 16.66478185955691 24.028086237459483 10.74134904530058 0 0 0
1079 61 6 0.06 15.46088728673284 23.355368913097877 16.864407399400296 0 0 0
1784 89 6 0.06 18.677658028572658 22.519324986390195 12.078675257738766 0 0 0
1777 89 4 -0.12 17.98179755828216 24.57040727597724 12.42721189812866 0 0 0
1783 89 6 0.06 17.2438989473498 22.829949744722676 13.251984842109136 0 0 0
1774 89 4 -0.12 16.71564519594544 24.71968687936215 11.582323474549723 0 0 0
1780 89 12 -0.18 18.20448256837745 23.13939742401478 12.840089536119345 0 0 0
1785 89 6 0.06 18.896806702283357 23.01734933079168 13.673113004630965 0 0 0
1771 89 4 -0.12 16.584900379766992 26.152447289000683 11.063682376541426 0 0 0
1776 89 6 0.06 17.47842228712952 26.501837909142473 10.546303154368884 0 0 0
1782 89 6 0.06 18.899206543056046 24.866593145613237 11.91851630000951 0 0 0
1781 89 6 0.06 17.946370672518974 25.253138513010427 13.27618747455024 0 0 0
2108 102 6 0.06 22.55010598534639 23.65507708315267 17.337968322243526 0 0 0
1376 73 6 0.06 23.097518909126592 20.998442403236922 17.554585272228614 0 0 0
1369 73 6 0.06 23.79324907123064 20.868378464304 14.62056339197229 0 0 0
1373 73 6 0.06 25.87985401170554 21.26612321457258 16.208849752427447 0 0 0
441 26 8 0.13 20.897149363043496 22.168527681799695 12.858639667199531 0 0 0
437 26 7 -0.32 20.935999800667133 21.109798757528786 13.11499920400815 0 0 0
440 26 8 0.13 21.347970259518185 21.04776421392083 14.12225712866721 0 0 0
153 9 8 0.13 21.027726024147434 24.137226337992658 10.888312394027725 0 0 0
147 9 6 0.06 23.625209478010106 26.55420680224782 10.242573171447088 0 0 0
148 9 7 -0.32 22.00168766798459 24.623486522315815 10.943866746876148 0 0 0
149 9 6 0.06 21.1304493905372 26.604430006111045 10.915784706630781 0 0 0
1361 73 9 0.7 26.01402480450718 21.65089676353532 13.42888558486967 0 0 0
439 26 6 0.06 22.69084757331057 20.732550431912216 11.907016635444856 0 0 0
152 9 8 0.13 22.757601207743647 24.03276121179087 11.46133641360546 0 0 0
1372 73 6 0.06 25.002990620630342 22.508744961895133 16.95969470927528 0 0 0
1368 73 4 -0.12 24.855265760066054 21.587627462138123 16.39590712730618 0 0 0
1365 73 4 -0.12 24.088832153461027 21.8418672400259 15.011826456809679 0 0 0
145 9 4 -0.12 21.9223388450773 26.024973163082755 11.390418671193297 0 0 0
1370 73 6 0.06 23.126415326957172 22.343800257747844 15.111594359628706 0 0 0
150 9 6 0.06 21.638028970083667 26.13498129213599 12.43693792509822 0 0 0
146 9 6 0.06 24.039163973579967 26.43242881184925 11.91581003715053 0 0 0
1366 73 6 0.06 24.212555529467664 22.666002616169067 12.95653040807024 0 0 0
1362 73 10 -0.22 24.876489490011913 22.530937883389214 13.810395595349048 0 0 0
1367 73 6 0.06 25.117850439795923 23.577537086727048 13.996168233373819 0 0 0
1989 98 11 -0.8 26.401280428319772 26.660599031391442 15.096435840401938 0 0 0
313 19 5 0.08 26.58895887524845 23.959001569406844 15.96083211423214 0 0 0
1991 98 6 0.06 23.856813511197046 26.351955070814235 15.823043692388007 0 0 0
2848 290 13 0.4238 31.462304746418603 23.80734320553394 17.02198665836024 0 0 0
2849 290 14 -0.8476 32.22872316759186 23.202827149151936 17.239228175751272 0 0 0
1335 71 6 0.06 31.73488829291326 26.49850837506513 13.187676278698456 0 0 0
857 51 5 0.08 29.764936360136467 21.23439747526851 14.516873541052963 0 0 0
858 51 5 0.08 30.422359202749256 20.711367205921682 12.984675951940819 0 0 0
2908 310 13 0.4238 31.795307138982672 26.44498124421915 16.59721386741449 0 0 0
1318 71 4 -0.12 27.55110241275362 25.110928104145486 10.32430278338073 0 0 0
1323 71 6 0.06 27.140591250766967 24.57626431996659 11.180895894020377 0 0 0
316 19 6 0.06 29.437543633910543 23.09410112395212 16.268218330910358 0 0 0
1321 71 4 -0.12 28.32937260128528 26.37584465106908 10.630352226835289 0 0 0
2895 305 13 0.4238 29.567071893604655 21.37653613789741 10.740858065994077 0 0 0
1363 73 11 -0.8 27.165646489248125 22.198085024603145 13.497283017058514 0 0 0
310 19 3 0.35 27.487048320640078 25.249175704768312 14.357907634701917 0 0 0
1333 71 6 0.06 32.58961124224125 26.095053246221234 11.75264899521237 0 0 0
2643 221 13 0.4238 29.938054827409736 26.49181091563564 15.286593461465065 -1 0 0
317 19 6 0.06 28.251672298731677 22.00188529165107 16.031274803516492 0 0 0
2850 290 13 0.4238 32.599739452796214 22.8788665976535 16.368925174602772 0 0 0
1328 71 6 0.06 30.248271243869127 25.378397736949438 10.644195953375375 0 0 0
1567 81 6 0.06 32.14126717610481 22.0004600597333 12.351711661259884 -1 0 0
1562 81 10 -0.22 32.29569597223703 23.077214985619094 12.421618963162967 -1 0 0
1566 81 6 0.06 31.819455099206046 23.469198513369953 11.522908761661412 -1 0 0
1324 71 4 -0.12 29.748063037707205 26.11755548529908 11.269954747600874 0 0 0
312 19 4 -0.12 28.40796061877979 22.927646249851733 16.585059197842 0 0 0
309 19 3 0.35 27.50800291282139 23.651255463067926 14.123669310433566 0 0 0
2642 221 14 -0.8476 30.437545510092626 25.805867203672918 15.815765484621469 -1 0 0
308 19 2 0.2 27.657793148868564 24.17003452553225 15.995398606258046 0 0 0
2604 208 13 0.4238 28.125863148996373 22.475612402989903 12.151083154924876 -1 0 0
314 19 5 0.08 27.698246557565923 25.058979203621 16.624904277659773 0 0 0
2641 221 13 0.4238 30.719179960734728 25.04050665776525 15.237027989870981 -1 0 0
307 19 1 -0.48 27.932710489333424 24.394515819825372 14.659690856880044 0 0 0
2603 208 14 -0.8476 29.034914834908385 22.492095355422137 11.734687688808991 -1 0 0
1564 81 11 -0.8 30.397141455478383 23.646247477483094 13.766731899984718 -1 0 0
2602 208 13 0.4238 29.59641248082987 22.954316087199814 12.421058298642246 -1 0 0
1561 81 9 0.7 31.62413213148205 23.666377187899926 13.721165887696257 -1 0 0
311 19 3 0.35 28.91769403317126 24.354375052558645 14.439855550853816 0 0 0
1563 81 11 -0.8 32.31767013316576 24.08289011671453 14.675087322417335 -1 0 0
1329 71 6 0.06 29.5623564995445 25.706066913166282 12.262087160630921 0 0 0
2880 300 13 0.4238 8.454328758472794 29.550448079234975 16.523081422321514 0 0 0
2804 275 14 -0.8476 7.56717287956727 30.67860273677804 10.368542183245845 0 0 0
738 44 5 0.08 4.126373655340843 29.595514436163782 10.157496148337955 0 0 0
925 55 5 0.08 3.0469728082274834 32.735586431223844 16.177167414974473 1 -1 0
737 44 4 -0.12 2.6563734740761524 30.952983487432185 11.038976925020037 0 0 0
742 44 6 0.06 2.5606128139186035 30.408481211827123 11.978382967004736 0 0 0
2830 284 13 0.4238 7.716630396881905 26.81058218842326 13.898026284212824 0 0 0
2963 328 14 -0.8476 4.730352555161207 27.165523000163454 13.839418625833234 1 0 0
2964 328 13 0.4238 4.7003282196360345 26.872447513197443 12.883784239699143 1 0 0
2379 133 13 0.4238 5.923410267254944 30.472597595950802 17.02094711057901 1 0 0
2431 151 13 0.4238 3.4437886354477243 29.8893137196605 14.473287058524791 1 -1 0
2805 275 13 0.4238 8.295703525962814 30.73708917607574 11.051076744221122 0 0 0
741 44 6 0.06 2.5595067063998314 31.988858813628596 11.364116245935799 0 0 0
1888 94 11 -0.8 4.513074286337778 32.745352070207154 13.11027829443827 1 -1 0
2383 135 13 0.4238 5.62790090063749 27.36707669575884 10.243144839432016 0 0 0
2385 135 13 0.4238 6.221047043463766 27.304565054088783 11.639851866168623 0 0 0
2384 135 14 -0.8476 5.352894413053807 27.130505205191646 11.175044768200856 0 0 0
2507 176 14 -0.8476 7.2924302619197245 28.6596574104249 15.928050896548097 1 0 0
2962 328 13 0.4238 4.620767912028217 28.155827669453274 13.924980242767676 1 0 0
2508 176 13 0.4238 7.846804655170135 27.938304081349983 15.512900037679247 1 0 0
2378 133 14 -0.8476 5.39979655537881 31.199494359677836 17.465334883340162 1 0 0
733 44 2 0.2 4.068519124923531 30.63964849012978 10.465024073804967 0 0 0
736 44 3 0.35 5.037723642138349 31.651187523576105 11.978078274737678 0 0 0
1889 94 11 -0.8 5.418098578453515 32.02541482941584 14.925518603323455 1 -1 0
2377 133 13 0.4238 5.380914737063031 31.893928894506658 16.74600501949111 1 0 0
735 44 3 0.35 6.076047500029587 30.84705830728207 11.023349267753408 0 0 0
2432 151 14 -0.8476 4.365761179776834 29.78019156839126 14.101682161894788 1 -1 0
734 44 3 0.35 5.293803508129472 29.993750177603594 12.017470853772968 0 0 0
732 44 1 -0.48 5.154773495049039 30.80740543990059 11.435433786156446 0 0 0
2574 198 13 0.4238 7.388743097023115 29.116879355534813 12.952972365690622 0 0 0
2433 151 13 0.4238 4.59489969668677 30.72374543678631 14.340919961183568 1 -1 0
2887 303 13 0.4238 6.712849456084138 31.09916104230016 14.376039102466686 1 0 0
2573 198 14 -0.8476 7.400591792716063 28.19520623132273 12.565144075985382 0 0 0
2572 198 13 0.4238 8.050945973067327 28.182209864994057 11.805602375007924 0 0 0
2888 303 14 -0.8476 7.394440246407581 30.551935786239802 13.8902298651187 1 0 0
2506 176 13 0.4238 6.508070404865276 28.562810297127847 15.315326687410247 1 0 0
2889 303 13 0.4238 8.182789494498401 31.020389221836915 14.289088464248458 1 0 0
2624 215 14 -0.8476 12.342201713976644 32.480958741547454 14.465104196805333 0 0 0
894 53 6 0.06 10.044093681539945 26.774950438175075 17.097457878119712 0 0 0
2811 277 13 0.4238 12.168152484564303 27.658663642174552 11.861990380815216 0 0 0
2810 277 14 -0.8476 12.061777795286986 27.654504831890797 12.856324605798262 0 0 0
1883 93 6 0.06 14.222833694421267 30.66033030134942 11.015137575666687 0 0 0
2879 300 14 -0.8476 9.402333457309098 29.763199444984345 16.759843693877865 0 0 0
892 53 5 0.08 12.34220667824526 27.4582027566968 16.835434777697763 0 0 0
2345 122 14 -0.8476 9.29005217835443 28.359324097752946 10.745480610978914 0 0 0
2878 300 13 0.4238 9.51228509873326 30.501083244565137 16.09390790002189 0 0 0
1764 89 11 -0.8 11.782234029605592 27.90302011076652 10.252157916436051 0 0 0
2344 122 13 0.4238 10.236049647823574 28.117486104406588 10.529531569652626 0 0 0
2661 227 13 0.4238 9.844786738008555 30.79747175867614 13.808799841871034 0 -1 0
2660 227 14 -0.8476 9.85705113330651 31.244519079234813 14.703243521208906 0 -1 0
2659 227 13 0.4238 10.651773921907608 31.850871766714363 14.731239654852986 0 -1 0
2937 319 13 0.4238 10.094660269018274 29.78765738385502 11.335042775457094 0 0 0
2936 319 14 -0.8476 10.305377163373446 30.65762069559161 11.780905675348922 0 0 0
2935 319 13 0.4238 11.245093088098711 30.90676057195403 11.546610856816224 0 0 0
2623 215 13 0.4238 12.885478582490352 32.03842610370021 15.178579735487517 0 0 0
2924 315 14 -0.8476 13.970137764847182 31.40713896534985 16.397056592067052 0 0 0
2809 277 13 0.4238 12.01566357182803 28.63261149220275 13.059330833931842 0 0 0
1769 89 6 0.06 14.557080950051406 28.088526426426306 10.931300004981413 0 0 0
2925 315 13 0.4238 14.08481831984311 30.603845493200524 16.981522935650247 0 0 0
2923 315 13 0.4238 14.114430127947172 32.22889550217735 16.948352759540246 0 0 0
2097 102 6 0.06 18.502961917820514 27.315297490796446 17.261343366477263 0 0 0
1876 93 6 0.06 17.257621393108252 29.434318886581764 10.406069576500855 0 0 0
1847 92 6 0.06 18.352910103319516 30.86606638792386 17.431366559383083 0 -1 0
1845 92 6 0.06 16.57303592409752 31.90551680024712 16.40158185700397 0 -1 0
1840 92 4 -0.12 17.255052886113877 32.63297805867673 16.84179713558067 0 -1 0
2091 102 6 0.06 16.4726069690003 28.416679499491792 17.305855872170966 0 0 0
1851 92 6 0.06 20.036771903562155 32.73650538521404 17.165790824470825 0 -1 0
1084 61 6 0.06 15.29248717895694 27.03071328432796 15.497939960280176 0 0 0
1875 93 6 0.06 18.30734963757503 30.72582615184193 10.865907308887124 0 0 0
1775 89 6 0.06 16.48686481461476 26.816343524449792 11.922616212001676 0 0 0
1885 93 6 0.06 14.670176139781491 31.846330289924836 12.375283674179338 0 0 0
1880 93 12 -0.18 14.974689048761347 31.293035170812026 11.48687332488981 0 0 0
1884 93 6 0.06 15.586908071922995 30.44728442038101 11.799970752646166 0 0 0
1877 93 4 -0.12 15.9374153261119 32.09529647322916 10.636305243745209 0 0 0
2009 98 6 0.06 17.805940547712538 27.770474333462758 14.618406784496257 0 0 0
1882 93 6 0.06 16.526278447337162 32.682431165801425 11.341038863514036 0 0 0
2005 98 12 -0.18 17.91866728630282 28.77910612761778 14.220800121468285 0 0 0
2002 98 4 -0.12 19.299855769789602 29.188073130457198 13.505592568687696 0 0 0
2010 98 6 0.06 17.572932025581324 29.45265839307948 15.004975455173648 0 0 0
2008 98 6 0.06 17.06907836806441 28.82242865492632 13.539288296311573 0 0 0
2006 98 6 0.06 19.62180050616915 28.517454881247062 12.708874756098858 0 0 0
2007 98 6 0.06 19.16895406423167 30.19855640723393 13.118391322406127 0 0 0
2000 98 6 0.06 20.04677275933372 27.693552282388616 15.694044480642422 0 0 0
245 15 5 0.08 20.25273203629252 31.732905238452 10.8903320548948 0 -1 0
1999 98 4 -0.12 20.500076368497297 29.36354290000054 14.437336275440524 0 0 0
2004 98 6 0.06 20.235148272355666 30.146462817879225 15.147959909925012 0 0 0
239 15 1 -0.48 22.043260309013377 32.21667824288476 10.179346910363497 0 -1 0
2143 104 4 -0.12 25.139181532766848 32.686840441969665 16.064609133889036 0 0 0
2147 104 6 0.06 24.390075621524346 32.69133963049535 16.85641505451726 0 0 0
2145 104 6 0.06 23.596567840726216 32.0546460924764 15.052464400627684 0 0 0
142 9 4 -0.12 23.27121772334162 26.810754246391923 11.241076943429665 0 0 0
1992 98 6 0.06 23.41338768208434 26.90229697772491 14.161100513640303 0 0 0
2620 214 13 0.4238 26.639755867366254 29.254626001540252 13.544202411674434 0 -1 0
2151 104 6 0.06 26.37796734004896 31.179392290489886 16.853110111081982 0 0 0
240 15 2 0.2 20.78409043294033 32.600143873863125 10.498296469619168 0 -1 0
140 9 3 0.35 24.959743426676084 28.959140692744285 10.523170903533654 0 0 0
1986 98 9 0.7 25.439121155272638 27.208054596024738 14.515240920982444 0 0 0
1987 98 10 -0.22 24.014568919793675 27.10211043982153 15.048113582182342 0 0 0
1998 98 6 0.06 21.967438388870406 27.388677101561996 16.880637368738405 0 0 0
2003 98 6 0.06 21.293518864414978 29.75108541111021 13.79827732409673 0 0 0
144 9 5 0.08 22.707288294316783 28.41801822294162 12.42355506543168 0 0 0
242 15 3 0.35 22.551137206317605 31.930620315082486 11.004188564947144 0 -1 0
2137 104 10 -0.22 25.05692341319562 32.566521889709634 13.487795221077397 0 0 0
137 9 1 -0.48 24.490475237902942 28.897009189843146 11.415391980693594 0 0 0
138 9 2 0.2 23.211070771487584 28.27957338076471 11.466908443688505 0 0 0
2136 104 9 0.7 24.6534512137412 31.72108454588124 12.351823095552852 0 0 0
2138 104 11 -0.8 25.523132580489957 31.414591607781766 11.466351266168125 0 0 0
1994 98 6 0.06 23.35231477839391 29.0646211529858 14.832973055767521 0 0 0
139 9 3 0.35 25.13870430492792 28.6650438596347 12.154393294143043 0 0 0
143 9 5 0.08 22.63761072698634 28.924525185719602 10.801087726639917 0 0 0
1990 98 4 -0.12 23.461697336641784 28.396366093190046 15.687143425798483 0 0 0
2144 104 6 0.06 24.936043010379393 30.870442095584743 14.790266283227137 0 0 0
1988 98 11 -0.8 25.624977751165247 27.91971375803574 13.504761883838531 0 0 0
1995 98 6 0.06 24.177034514439242 28.880111989953775 16.352289396994873 0 0 0
141 9 3 0.35 24.237937781290675 29.842695119993074 11.664459068404451 0 0 0
1997 98 6 0.06 21.75195390889636 29.113288262402754 16.79427614022577 0 0 0
2001 98 6 0.06 21.208648401431937 27.24476677805587 14.453391098148394 0 0 0
2139 104 11 -0.8 23.44612536790965 31.41152605721158 12.236412577053233 0 0 0
2146 104 4 -0.12 26.46650934372633 32.245879327520484 16.645981662940954 0 0 0
1996 98 4 -0.12 20.922337485032784 28.038170073177994 15.143806781570422 0 0 0
1993 98 4 -0.12 22.034969956017406 28.241200946824144 16.204783019099487 0 0 0
2140 104 4 -0.12 24.654339963127462 31.922865983609746 14.824673720777527 0 0 0
2622 214 13 0.4238 26.652718065629358 30.466033863517374 12.427328529688129 0 -1 0
1540 80 4 -0.12 29.52215434825824 29.072657758833515 17.52320006670802 0 0 0
1542 80 6 0.06 29.887459428948127 31.117730159795514 16.970333562233336 0 0 0
1331 71 6 0.06 30.369170158024126 28.13861212813417 11.89780011560741 0 0 0
1541 80 6 0.06 29.268067983096742 30.166888114957423 15.691287808123434 0 0 0
2495 172 14 -0.8476 29.287983438999177 31.661076600679948 13.828908495473492 0 -1 0
2910 310 13 0.4238 32.51799788295066 27.858130932945798 16.83576580602805 0 0 0
748 44 8 0.13 30.199233512148695 31.78373795894194 10.728191234807404 -1 0 0
746 44 8 0.13 29.72841789426053 30.1496864641798 10.111333904503153 -1 0 0
1334 71 6 0.06 32.67047061008494 27.775189966890913 12.389716596050546 0 0 0
2621 214 14 -0.8476 27.20084779665239 29.936312927972132 13.074616195010874 0 -1 0
743 44 7 -0.32 30.453040435904654 30.724438462993973 10.688151741833176 -1 0 0
1536 80 9 0.7 31.3846361203492 29.981919130452958 15.918877344890774 0 0 0
1547 80 6 0.06 27.42013151235085 28.927757724247954 16.86620037399265 0 0 0
2496 172 13 0.4238 29.935284669063698 30.928665743036305 14.040111663981454 0 -1 0
2629 217 13 0.4238 28.594116211180072 27.796520615433174 13.379713225899415 0 0 0
1538 80 11 -0.8 31.679649166062966 30.54037011182315 14.83989739772985 0 0 0
747 44 8 0.13 30.478098367596104 30.34455932772122 11.709523577328751 -1 0 0
1537 80 10 -0.22 29.970863028697437 30.127000323736112 16.523528501938735 0 0 0
2630 217 14 -0.8476 28.81061886801379 27.363829202313404 14.25489061061777 0 0 0
1545 80 6 0.06 29.748525263624984 28.10587713993951 17.07350240351451 0 0 0
1539 80 11 -0.8 32.17122753377964 29.381543035303885 16.685575968203366 0 0 0
1327 71 4 -0.12 30.789142333958544 27.275817997994537 11.380744820709197 0 0 0
1330 71 12 -0.18 32.03360317264534 26.906606721784065 12.222087493096003 0 0 0
1325 71 6 0.06 27.767101141018102 27.05872377863524 11.267269332900575 0 0 0
2631 217 13 0.4238 27.916904216078343 27.499131883901363 14.682675106893504 0 0 0
1332 71 6 0.06 31.061744198663426 27.6533488176684 10.395201732105125 0 0 0
923 55 3 0.35 32.115580087641405 32.09469320939821 14.22663555473228 0 -1 0
2494 172 13 0.4238 28.53582023222723 31.065165412890813 13.547532756686731 0 -1 0
2909 310 14 -0.8476 32.46602544571767 26.916873177286725 17.16947756082943 0 0 0
2150 104 6 0.06 27.303590207759292 32.47781066146641 15.987468171745268 0 0 0
449 27 5 0.08 3.8143264040282094 7.959159376628696 22.899607775230663 1 0 0
2954 325 14 -0.8476 6.892478241002872 7.790743245031174 23.02105447335616 1 0 0
2030 99 12 -0.18 4.6857900049523575 4.847865926548112 23.502787535752027 1 1 0
2027 99 4 -0.12 4.42656547711949 4.56765148802901 21.959031459836154 1 1 0
2034 99 6 0.06 3.848512725246702 5.4282566144202296 23.89040832738278 1 1 0
2032 99 6 0.06 5.148435790310537 3.9759213342652457 21.396097022742907 1 1 0
2031 99 6 0.06 4.603359541000591 5.490320382807018 21.406254429118093 1 1 0
2955 325 13 0.4238 7.680470055383115 7.175567607524988 22.99535817470555 1 0 0
2676 232 13 0.4238 6.007455358498183 7.769821346102208 24.496051448772285 0 0 0
2033 99 6 0.06 5.66968858510708 5.299846174151902 23.628461148537873 1 1 0
451 27 4 -0.12 2.919792348411543 8.087637179335234 20.409609163319338 1 0 0
933 55 8 0.13 4.4776038532520275 4.974596731263203 18.89805710914233 1 0 0
2035 99 6 0.06 4.6778160933954025 4.021286177874706 24.213307599119503 1 1 0
2024 99 4 -0.12 2.988577146827903 4.0348392238346165 21.780479013383307 1 1 0
456 27 6 0.06 2.9793861097164296 7.04477939140464 20.7211098192016 1 0 0
2029 99 6 0.06 2.635723864285037 4.300422700101705 20.783936741641483 1 1 0
1358 72 6 0.06 7.809308767728273 3.6092322342372967 18.03844565314024 0 0 0
1354 72 6 0.06 7.2116110117690395 5.850115289846813 18.01091093718709 0 0 0
2953 325 13 0.4238 7.1990750111508 8.460118522693264 22.344322144670606 1 0 0
1348 72 6 0.06 6.633154309916379 8.402514098927185 17.90338470336612 0 0 0
2021 99 4 -0.12 2.8610913099118123 2.514188630804713 21.981732277255468 1 1 0
1248 68 6 0.06 6.7634844855194665 2.9945167273272006 25.163747335047596 0 1 0
1245 68 6 0.06 8.389678401298063 4.552316431758895 24.521577584302896 0 1 0
930 55 7 -0.32 4.266062151175363 4.830951296768106 17.83845691955452 1 0 0
459 27 8 0.13 4.161141734127105 7.724756675881094 18.823677555688555 1 0 0
710 42 6 0.06 7.541942663239199 2.824269940259327 21.099986359663568 0 1 0
2774 265 14 -0.8476 9.131393729919324 6.416348397093017 22.634141549745152 0 0 0
2873 298 14 -0.8476 9.494851451943841 8.008300148781265 20.53614718864705 1 0 0
2773 265 13 0.4238 9.389258576779808 6.976806818590178 21.84710585628072 0 0 0
2775 265 13 0.4238 9.872581394577516 5.7541298476707645 22.74432139716764 0 0 0
2617 213 13 0.4238 11.895438521726527 4.7815932577295195 21.506182965835805 0 0 0
2619 213 13 0.4238 11.485761139616592 3.965010527537142 22.794855287962164 0 0 0
2618 213 14 -0.8476 11.177671776654652 4.706190260440668 22.19839422552711 0 0 0
2402 141 14 -0.8476 13.13201025510654 4.783009724320013 20.034610965909614 0 1 0
569 34 5 0.08 13.425443468940857 5.168111187871531 23.672732077731 0 0 0
2552 191 14 -0.8476 12.494695604876187 7.660013034520229 22.22594258384168 0 0 0
2553 191 13 0.4238 11.610023094910085 7.6435711075258554 21.75998660977298 0 0 0
2557 193 13 0.4238 9.242069958465823 7.014014886240492 24.28681960833744 0 0 0
2403 141 13 0.4238 12.691497334074631 5.354283224013633 19.34206072514546 0 1 0
566 34 3 0.35 13.871118296939546 6.259735241520104 21.781129058805405 0 0 0
2401 141 13 0.4238 13.820458064329282 4.167072269404301 19.651606188790254 0 1 0
563 34 2 0.2 14.450111617932132 5.027939254640996 23.32843053838142 0 0 0
2393 138 14 -0.8476 12.97439724471128 7.108006758752547 18.213979531303977 0 0 0
2392 138 13 0.4238 12.32590028487947 7.783721478918064 18.564539483482534 0 0 0
1244 68 6 0.06 8.889432160821176 3.1804065790099973 23.680246089279613 0 1 0
2502 174 13 0.4238 11.602693783157203 7.5291548448357455 25.0776196774883 1 0 -1
2501 174 14 -0.8476 12.489551582251805 7.983151254740503 24.991587665145786 1 0 -1
1241 68 6 0.06 10.702119378790359 4.464941456413851 25.005866279032176 0 1 0
1240 68 4 -0.12 8.79538357791752 3.556305394236502 24.699064749173175 0 1 0
2394 138 13 0.4238 13.818532546805 7.295340678507025 18.716347419471113 0 0 0
2500 174 13 0.4238 12.450095367358324 8.106433654251399 23.999984939224802 1 0 -1
2874 298 13 0.4238 10.187997186520876 8.523844607316427 20.03236695006227 1 0 0
1838 92 11 -0.8 14.432600508970005 3.1817209499499812 18.164151567402804 0 0 0
2558 193 14 -0.8476 9.615632801253184 7.29690587149336 25.17025322547221 0 0 0
568 34 5 0.08 14.69169989629183 4.081094218091218 22.845464598921083 0 0 0
562 34 1 -0.48 14.731654241488423 6.012728776175543 22.24867271031131 0 0 0
564 34 3 0.35 14.875573651230567 6.9518576746770435 22.591390661291825 0 0 0
565 34 3 0.35 15.439720143588826 5.753538095499444 21.57666494909266 0 0 0
1839 92 11 -0.8 15.87495836747224 3.2747806645096817 19.78563522025184 0 0 0
2526 182 13 0.4238 17.372892836963587 6.048406986518692 19.81026375827843 0 0 0
2525 182 14 -0.8476 16.5009477026923 5.864121745988507 20.263897539949326 0 0 0
2524 182 13 0.4238 16.286096095195802 4.900382913418559 20.10553409922648 0 0 0
2609 210 14 -0.8476 18.752948716669827 6.970698172681957 19.247809707357895 0 0 0
572 34 6 0.06 16.37641630771156 4.85783835518856 24.320623983895437 0 0 0
2610 210 13 0.4238 18.94845471429663 7.245837125518427 20.189142601250502 0 0 0
759 45 6 0.06 17.035549363513994 3.4846760890369977 22.318990337196297 0 0 0
2608 210 13 0.4238 19.055443864005824 7.82087024396526 18.816839189827874 0 0 0
2931 317 13 0.4238 15.997880880868623 7.387750853366361 19.692402343773296 0 0 0
2930 317 14 -0.8476 15.337358757950408 8.103992077906486 19.467145719461072 0 0 0
2732 251 14 -0.8476 18.571369186461865 7.98051206594203 21.762570366833266 0 0 0
2731 251 13 0.4238 18.653831168558547 8.203747435444823 22.73385649979415 0 0 0
1836 92 9 0.7 15.580022411917845 3.2789588966014125 18.598842221490365 0 0 0
757 45 4 -0.12 18.820076936502865 2.695726756389013 23.402861343585954 0 0 0
760 45 7 -0.32 18.963851378775928 3.6987468823403864 24.51380446742042 0 0 0
763 45 8 0.13 19.96137794775563 3.4633320966396792 24.88482615190661 0 0 0
764 45 8 0.13 18.89787363285771 4.734713316303209 24.181303296124433 0 0 0
567 34 4 -0.12 15.35590632519477 5.140861237573679 24.578682042190337 0 0 0
754 45 4 -0.12 17.276068432336384 2.598738871517751 22.906699624071955 0 0 0
761 45 6 0.06 19.527029073121 2.875370619986847 22.592871716864536 0 0 0
1119 63 6 0.06 19.40808216588526 7.010586136617026 24.71028427683357 0 0 0
1841 92 6 0.06 17.26164944078564 4.34613939382546 17.890178380298398 0 0 0
571 34 6 0.06 15.419808391756392 6.190310656499823 24.866273704655065 0 0 0
1850 92 6 0.06 19.099582452202817 3.3788755424799612 18.26836213433385 0 0 0
831 49 8 0.13 21.143745039970945 6.116685040426395 18.756561655816398 0 0 0
832 49 8 0.13 21.617019956477755 5.711974483185264 20.511586066208892 0 0 0
2277 109 4 -0.12 24.115080717945432 4.721819181412998 22.577792872793083 0 0 0
2282 109 6 0.06 23.31130802308342 4.959553276533416 21.880965427746574 0 0 0
2281 109 6 0.06 24.443074876208932 3.7283241639923546 22.27197602478539 0 0 0
825 49 4 -0.12 23.152007039106984 6.43583137955836 19.281860464995283 0 0 0
829 49 6 0.06 23.647833437037598 6.6953632045958775 20.21724056737169 0 0 0
2274 109 4 -0.12 25.261160404889566 5.7900858763267 22.584509579347127 0 0 0
2279 109 6 0.06 24.974405575168532 6.757824235042237 22.996080525846487 0 0 0
828 49 7 -0.32 21.68206124237136 6.393191524305974 19.663146604812546 0 0 0
2280 109 12 -0.18 23.4328767071288 4.754458982040426 23.947491419434748 0 0 0
2278 109 6 0.06 25.57836527504969 5.980697517715425 21.559236566220427 0 0 0
2285 109 6 0.06 22.532026371548007 4.143466182879384 23.89010695427175 0 0 0
2283 109 6 0.06 24.08576790100217 4.238934083106171 24.651837659570567 0 0 0
2284 109 6 0.06 23.185471358165422 5.751471418300096 24.312036779840646 0 0 0
823 49 5 0.08 25.582442584871394 7.379224083427781 18.466189071316897 0 0 0
2159 104 6 0.06 26.677168508424273 4.8053066040713945 19.98134461249696 0 1 0
2275 109 6 0.06 26.310635049319302 4.930342482555403 24.2433901715668 0 0 0
2271 109 4 -0.12 26.546699173701768 5.288991956615774 23.24150166691743 0 0 0
833 49 8 0.13 21.2636293495325 7.369245324133353 19.908849784257562 0 0 0
1134 63 6 0.06 22.13240708940676 8.03636019765517 22.174902643578868 0 0 0
827 49 6 0.06 23.507902572634876 8.408458060508156 19.02640001799972 0 0 0
830 49 6 0.06 23.467379756558913 5.491828041947164 18.8374122364135 0 0 0
1856 92 6 0.06 21.531021564824073 3.6585915692698787 19.06874809581746 0 0 0
822 49 4 -0.12 23.480971863705726 7.56720493028879 18.333793033683918 0 0 0
1852 92 4 -0.12 21.666610460931437 2.577176890425015 19.08590669172127 0 0 0
1859 92 6 0.06 22.145263815690797 2.6623175401314945 21.190678941284595 0 0 0
1128 63 6 0.06 21.69932101517616 7.656895148369177 24.587056917779975 0 0 0
818 49 2 0.2 24.829075376807097 7.377194305441803 17.678426249313922 0 0 0
2028 99 6 0.06 32.567602154863415 4.499200916708139 22.435068141340132 0 1 0
931 55 6 0.06 32.51149020353726 4.29200621369424 18.14715054422919 0 0 0
2152 104 4 -0.12 27.095231420237717 4.064872360862134 17.949504829427557 0 1 0
2276 109 6 0.06 26.91887340947033 4.438445176658007 22.67036854397864 0 0 0
2149 104 4 -0.12 26.81049503099881 2.5792914271353466 18.023549293883832 0 1 0
455 27 6 0.06 32.40060353307608 8.096650148739549 19.709958285053155 0 0 0
2160 104 6 0.06 28.231337968423972 3.9755689014812168 19.686484613726236 0 1 0
2155 104 12 -0.18 27.497907118486708 4.670152769393768 19.276888723920642 0 1 0
2158 104 6 0.06 27.93963603418642 5.655139247675066 19.12584669730081 0 1 0
2273 109 6 0.06 27.41352051215008 7.19082789659472 23.970256288221876 0 0 0
2268 109 4 -0.12 27.647536307146865 6.397497647439734 23.260326557255006 0 0 0
2272 109 6 0.06 27.812004133188196 6.856271719100234 22.28533262781314 0 0 0
2265 109 4 -0.12 29.039993951059145 5.791703535372983 23.584241659390628 0 0 0
2267 109 6 0.06 30.251746581470833 7.299390279407954 22.535972181488972 0 0 0
2270 109 6 0.06 29.246401983277067 4.992169566313555 22.87270976226342 0 0 0
2262 109 10 -0.22 30.263890704191773 6.777504984466399 23.492854971529233 0 0 0
2266 109 6 0.06 31.1466338580069 6.148820718121967 23.60971851843805 0 0 0
2261 109 9 0.7 30.36496793200554 7.874040239673829 24.526950986429277 0 0 0
693 41 6 0.06 29.743585263903846 2.6009977839463545 24.585865549504526 0 1 0
2269 109 6 0.06 29.058783666555016 5.397496164929919 24.600304654570714 0 0 0
1392 74 6 0.06 29.59091896189104 8.508674897625719 18.547825128887546 0 0 0
2264 109 11 -0.8 31.462334916859504 8.440674520791381 24.69740311357112 0 0 0
697 41 8 0.13 31.956988001823042 2.847176971049068 24.335866001856665 0 1 0
2263 109 11 -0.8 29.38604185555345 8.319840826375302 25.205437471046885 0 0 0
448 27 4 -0.12 2.524711014890775 9.009294657348176 21.539232916800906 1 0 0
444 27 2 0.2 3.6733757131253384 9.008331562233796 22.639786444712605 1 0 0
1342 72 6 0.06 6.653755062231903 11.099615065533484 18.214372178465773 0 0 0
458 27 8 0.13 4.978034252976226 8.749529831025873 20.095551191371023 1 0 0
454 27 7 -0.32 4.078835785492104 8.570864561220809 19.50592650695804 1 0 0
450 27 5 0.08 4.673340196585398 9.344953644177874 22.366120336408095 1 0 0
446 27 3 0.35 3.8083925984546037 9.419766708632476 24.621017151645503 1 0 0
443 27 1 -0.48 3.2696291678650518 9.71827639030758 23.820544038517284 1 0 0
2679 233 13 0.4238 5.444344545329667 12.398540947800948 20.63799818928984 0 0 0
2678 233 14 -0.8476 5.363184109639603 11.527241283776434 21.122024885276005 0 0 0
2828 283 14 -0.8476 5.518496562846508 13.481585741530408 19.247432234926983 0 0 0
1688 86 11 -0.8 3.2971707125075866 12.20684266654265 22.576107248260897 1 0 0
2677 233 13 0.4238 4.541139753123572 11.551705428255215 21.690950945773018 0 0 0
2896 306 13 0.4238 3.748604054941846 13.035676682437053 19.55971526301326 1 0 0
447 27 3 0.35 3.290447761321173 10.720189493089492 23.694574708149688 1 0 0
2352 124 13 0.4238 6.620792709449012 10.368339569372353 20.95704605325143 0 0 0
1686 86 9 0.7 2.9406638018281224 12.856324798054157 23.548871752516163 1 0 0
2351 124 14 -0.8476 7.423353311364392 9.77497174723208 21.019041512635503 0 0 0
199 12 7 -0.32 7.030895762068234 11.178970202820615 24.553810779118514 0 0 0
203 12 8 0.13 7.7901890151563045 10.87843985918569 23.831805375488813 0 0 0
2827 283 13 0.4238 6.15096109472548 13.134010753366027 18.555180808372675 0 0 0
1687 86 10 -0.22 3.3951549410953925 14.264885881617941 23.743355454031857 1 0 0
202 12 8 0.13 6.111995881368847 11.436392048849957 24.02703424293415 0 0 0
457 27 8 0.13 3.7961220045960937 9.497564891381378 19.00649091893912 1 0 0
2350 124 13 0.4238 8.100202952317472 10.445492843305976 20.715220594393514 0 0 0
271 16 8 0.13 7.103253393635943 14.545570364988142 20.79811633469295 0 0 0
204 12 8 0.13 6.86464528549188 10.292592494839436 25.16604592226784 0 0 0
201 12 6 0.06 7.992257488095972 13.12852385821062 24.64855233663848 0 0 0
2898 306 13 0.4238 2.9047450424191337 12.552493114394304 20.843838426890784 1 0 0
2897 306 14 -0.8476 2.8219620005548967 12.919629394266037 19.91734496752767 1 0 0
270 16 8 0.13 7.382641350292736 13.515576821636401 22.17224014784682 0 0 0
272 16 8 0.13 8.099752978924837 13.081999078771922 20.560305653296325 0 0 0
267 16 7 -0.32 7.83910725317598 13.88235090334254 21.252864164529974 0 0 0
2829 283 13 0.4238 5.428284697318272 14.472154128266657 19.144137820139427 0 0 0
1691 86 6 0.06 4.482975435641192 14.24044938479539 23.678656473910955 1 0 0
1692 86 6 0.06 3.203288194831368 14.549802786266227 24.77783408395591 1 0 0
2688 236 13 0.4238 2.546849217344409 14.506620456978052 19.32939372014914 0 0 0
2872 298 13 0.4238 8.78201196996269 8.704457971879144 20.450969051686563 1 0 0
2551 191 13 0.4238 12.578426463236926 8.65454736143979 22.163322199344222 0 0 0
2426 149 14 -0.8476 9.801640332148335 12.717528017326162 18.081233337114362 0 0 0
2627 216 14 -0.8476 11.669739050235416 9.216408363737767 19.466163573693706 0 0 0
2626 216 13 0.4238 11.979501283224765 9.948791206275352 20.072541951576916 0 0 0
2515 179 13 0.4238 10.917985585317158 11.052438941255478 20.68662938605881 0 0 0
2516 179 14 -0.8476 9.92022837773765 11.083958278987751 20.627310011669593 0 0 0
2333 118 14 -0.8476 10.821962484270536 10.466076730301033 23.64125297141166 0 0 0
2332 118 13 0.4238 11.769545237641768 10.396303133540467 23.329403276199017 0 0 0
2517 179 13 0.4238 9.784368024085628 11.6051327114519 19.784724516161205 0 0 0
2373 131 13 0.4238 12.020659464895393 13.03851407054878 20.16544379636011 0 0 0
1589 82 11 -0.8 13.115407193256559 10.122086515709114 22.256357651549045 0 0 0
1588 82 11 -0.8 12.569598049821806 11.516761391449132 20.63752916464842 0 0 0
1586 82 9 0.7 13.26848707974678 11.251744096570699 21.625823862940862 0 0 0
1591 82 6 0.06 13.887100989110479 13.286535455411316 22.015182529211167 0 0 0
1587 82 10 -0.22 14.26661967687283 12.26686842363092 22.081373160108363 0 0 0
1593 82 4 -0.12 13.933507272580455 12.038732104401962 24.651454632498876 0 0 0
2334 118 13 0.4238 10.31854986287561 10.771499953356004 22.83296887452454 0 0 0
1597 82 6 0.06 13.24659413988628 11.194347855837515 24.593990563335637 0 0 0
1598 82 6 0.06 13.285884424579775 12.891286623710341 24.446828229082612 0 0 0
2466 162 13 0.4238 14.415612040028403 9.42557504418583 22.56403479970369 0 0 0
269 16 6 0.06 9.919070255877468 14.074989541421012 21.84221557504133 0 0 0
2371 131 13 0.4238 11.180245627822163 14.047149378800448 19.12783026932653 0 0 0
2372 131 14 -0.8476 12.059148323228655 13.826285561349392 19.550654122286026 0 0 0
2632 218 13 0.4238 13.989217207879086 11.348613370686232 19.134165107628597 0 0 0
2633 218 14 -0.8476 14.560648943256998 11.034456862223827 18.376007750871437 0 0 0
2628 216 13 0.4238 11.913106008999902 9.492672828204032 18.536388732473846 0 0 0
2425 149 13 0.4238 8.978133913402614 13.132714961520955 17.694596016696984 0 0 0
1590 82 4 -0.12 14.882721497712794 11.922989832963962 23.470462929749047 0 0 0
1592 82 6 0.06 14.97670895247202 12.224263380071038 21.255483024177998 0 0 0
2929 317 13 0.4238 15.753098893438883 8.91440038496637 19.87997702301856 0 0 0
2465 162 14 -0.8476 15.170693044009985 8.76993354110262 22.559843717352166 0 0 0
2316 112 13 0.4238 15.50780602390814 9.00241473447371 24.80247067451797 0 0 0
2733 251 13 0.4238 18.030330630367175 8.738015110719065 21.397194788735895 0 0 0
2464 162 13 0.4238 15.864024786278781 9.140297519064962 21.941658956853708 0 0 0
1594 82 6 0.06 15.645709804716372 12.699642284885826 23.52334053149658 0 0 0
2634 218 13 0.4238 15.508252945470526 10.913895623517375 18.671887102871118 0 0 0
1595 82 6 0.06 15.270164273245054 10.904685646278157 23.5033435075528 0 0 0
1163 65 11 -0.8 16.91056220780163 9.968397333484488 21.000336217414862 0 0 0
1164 65 11 -0.8 17.140581155687535 11.067353767764594 19.100251167189604 0 0 0
1161 65 9 0.7 17.230432038253202 11.006256524248135 20.360263491952132 0 0 0
1166 65 6 0.06 17.02033055262555 12.40204773526087 21.978459385004214 0 0 0
1162 65 10 -0.22 17.656973320032392 12.224870010566878 21.11160848774999 0 0 0
1167 65 6 0.06 17.48679977696783 13.062931825577246 20.435716645440614 0 0 0
1165 65 4 -0.12 19.215325633918987 12.259751632315195 21.414673524103264 0 0 0
2428 150 13 0.4238 18.669167239987814 10.080032954603755 18.541826232928187 0 0 0
1168 65 4 -0.12 19.780540382260973 13.678875945222108 21.817441117899477 0 0 0
1169 65 6 0.06 19.76250664264864 12.175996945055921 20.475676909165784 0 0 0
1170 65 6 0.06 19.351782043995257 11.496953199732866 22.181259856941736 0 0 0
1172 65 6 0.06 19.338510478646434 13.936588669646731 22.779901635788647 0 0 0
2429 150 14 -0.8476 19.362849853855288 9.49581563377533 18.12048790273278 0 0 0
1126 63 6 0.06 20.571354143066728 10.090060492627961 23.888399264957485 0 0 0
2409 143 13 0.4238 18.07833545974738 12.05603516799335 18.04910670532753 0 0 0
1173 65 6 0.06 19.369000885150612 14.46352140897554 21.182536992468272 0 0 0
775 46 6 0.06 19.739736773327387 14.456812689017372 18.01422631721828 0 0 0
1123 63 6 0.06 18.53074924794153 9.45314100866081 25.1898556167204 0 0 0
796 47 6 0.06 15.798805999951302 13.773782070526988 18.34707684032975 0 0 0
1171 65 4 -0.12 21.311881101290396 13.751247791479315 21.95016093081088 0 0 0
1175 65 6 0.06 21.71639111920104 13.476461989808296 20.975994165955463 0 0 0
2535 185 13 0.4238 21.11280353793891 10.058121695590675 19.45628965557669 0 0 0
1176 65 6 0.06 21.62276470319665 12.982538401253564 22.657673336413794 0 0 0
1135 63 6 0.06 21.794326528322266 9.72591887510995 21.883678801281484 0 0 0
1133 63 6 0.06 23.35161999116906 9.246535388860265 21.561098659660516 0 0 0
1130 63 12 -0.18 22.548555481838648 9.039458504001402 22.268447977041212 0 0 0
773 46 5 0.08 21.932646909450384 13.229416858001372 18.481117451536704 0 0 0
2534 185 14 -0.8476 21.955965270166374 10.541457386704643 19.22071442633586 0 0 0
1132 63 6 0.06 23.20126356477025 10.269341174878875 23.894630072444073 0 0 0
1127 63 4 -0.12 22.94899096619207 9.220680176977176 23.737133558742528 0 0 0
2797 273 13 0.4238 23.260958596181432 11.393389521060042 20.1759133776521 0 0 0
2798 273 14 -0.8476 23.946946958367818 11.651244248198859 20.856327133009536 0 0 0
2799 273 13 0.4238 24.214770728313546 12.564216210400986 20.548456675524825 0 0 0
2533 185 13 0.4238 22.1761272949433 10.317516888425631 18.271287671193306 0 0 0
2912 311 14 -0.8476 25.732835320702414 9.846006637089381 20.28321683430537 0 0 0
2913 311 13 0.4238 25.029717584671985 10.508732872897102 20.54099955509409 0 0 0
2911 311 13 0.4238 25.901165182275427 10.152276963928529 19.346256369072783 0 0 0
2461 161 13 0.4238 25.221348777156173 10.936501769576822 22.872668033417135 0 0 0
2463 161 13 0.4238 26.168188896241453 9.808550050301971 22.247919441282264 0 0 0
2462 161 14 -0.8476 25.99095796712035 10.332844502785825 23.08082740673415 0 0 0
2234 107 6 0.06 26.357086518301905 12.974698254560613 22.21156964152192 0 0 0
2340 120 13 0.4238 25.352694152280677 13.907107719853498 19.009802578185862 0 0 0
2339 120 14 -0.8476 24.428473140768226 13.983983362203716 19.383883478597447 0 0 0
474 28 8 0.13 23.162322742944312 12.72303795956932 25.05483586081742 0 0 0
1131 63 6 0.06 23.908363139803946 8.736943537552454 23.920818833588875 0 0 0
2734 252 13 0.4238 26.750781123224087 9.533244868753235 24.845313410343614 0 0 0
2233 107 6 0.06 26.342597534014992 14.080491419834845 23.563604066527148 0 0 0
1182 65 6 0.06 23.892565680819658 14.574129755395038 22.91277225949002 0 0 0
1121 63 4 -0.12 20.76049825123296 9.706885259828763 24.891164338926842 0 0 0
1124 63 4 -0.12 21.908393814769106 8.710805480184844 24.770627355097403 0 0 0
476 28 8 0.13 24.242423314357303 14.13945545837955 25.154461210593823 0 0 0
2375 132 14 -0.8476 26.299215990134876 10.81190943887199 17.669417972517337 0 0 0
453 27 6 0.06 31.879826879390677 8.701744397801694 21.950446169429007 0 0 0
1394 74 6 0.06 31.788164821826065 9.034808855957245 17.91808708314011 0 0 0
2369 130 14 -0.8476 30.820942238272714 13.34445306641456 18.068003394205746 0 0 0
445 27 3 0.35 32.66799511806486 9.376213126209743 24.065430520966068 0 0 0
1689 86 11 -0.8 32.544563407842354 12.33327359334423 24.42666073764449 0 0 0
452 27 6 0.06 32.559456613511564 10.00845608151451 21.207012173224122 0 0 0
2235 107 6 0.06 27.837862021071558 13.642830844340265 23.03406681869427 0 0 0
2368 130 13 0.4238 31.696249626454005 13.02481704691488 18.430909314430505 0 0 0
340 20 8 0.13 28.831952162927045 9.501574355727932 20.439442599203744 0 0 0
339 20 8 0.13 30.339686654483828 10.313620270130238 19.997874306751854 0 0 0
338 20 8 0.13 28.856246709002782 10.976996032179802 19.37910785124685 0 0 0
335 20 7 -0.32 29.289156405105764 10.471208762545384 20.24218659306247 0 0 0
333 20 6 0.06 29.56083410976062 9.94654983394503 22.927798560040642 0 0 0
337 20 6 0.06 28.11671300102534 11.486194529849788 21.501749849631814 0 0 0
336 20 6 0.06 29.552730850242874 12.439973014350503 21.161307829435216 0 0 0
332 20 4 -0.12 29.201662075956477 11.43806933881963 21.408443888690392 0 0 0
334 20 6 0.06 30.930270528258994 10.958256444555436 22.629075567986767 0 0 0
325 20 2 0.2 29.417064474838917 11.6817723491603 23.961353362128648 0 0 0
330 20 5 0.08 29.712557700570663 12.730808800759212 23.942838702752034 0 0 0
329 20 4 -0.12 29.845949759556113 10.981344538082455 22.737942235871387 0 0 0
331 20 5 0.08 28.41198733603124 11.474489076981376 24.328762989088666 0 0 0
326 20 3 0.35 31.190815748079444 11.402285163356378 24.82809603882677 0 0 0
324 20 1 -0.48 30.23790612056998 11.107013636718115 24.985923746157866 0 0 0
328 20 3 0.35 30.158645688993055 10.100473921357338 24.95896162691951 0 0 0
2229 107 6 0.06 27.88902205029271 14.101786870758275 20.209048185964456 0 0 0
2230 107 12 -0.18 26.84970393263572 13.854510841708214 22.625567614743247 0 0 0
2370 130 13 0.4238 30.712792659093594 14.166917412177229 18.62647169735041 0 0 0
2686 236 13 0.4238 3.526781121469765 15.493886717885822 18.66176973750197 0 0 0
1139 64 11 -0.8 5.069209441547379 16.058762389956712 18.51735162243628 0 0 0
1136 64 9 0.7 5.580869424834603 17.184476271369206 18.67437914011763 0 0 0
1141 64 6 0.06 4.025612108164001 17.501488260895847 20.01113568782005 0 0 0
1137 64 10 -0.22 4.774311664306369 18.15515358239445 19.563578864134968 0 0 0
1148 64 6 0.06 4.850070139878385 17.688275288731862 22.25335874169584 0 0 0
1143 64 4 -0.12 5.735887927595707 18.247220807655456 21.95162510467152 0 0 0
1140 64 4 -0.12 5.653929196735129 18.896878526249083 20.62498311459928 0 0 0
1146 64 4 -0.12 5.831364843261596 19.154953915650353 23.144517189591376 0 0 0
1144 64 6 0.06 5.243687100057972 19.8841020429823 20.837650890200408 0 0 0
1145 64 6 0.06 6.5170375915627945 19.216927495114156 20.041245980281865 0 0 0
1147 64 6 0.06 6.530648317316965 17.510065493582793 21.83719405853536 0 0 0
1150 64 6 0.06 5.490042473968154 18.562555778206566 23.993457716223155 0 0 0
1142 64 6 0.06 4.363929204049479 18.932132507892426 18.918577757453704 0 0 0
1138 64 11 -0.8 6.672065492539356 17.458518431454586 18.1106966802586 0 0 0
1151 64 6 0.06 5.078187325058957 19.93410275789381 23.02709809537523 0 0 0
1149 64 4 -0.12 7.227066836674918 19.733018564341087 23.49214527966707 0 0 0
2652 224 13 0.4238 8.12767487102362 18.336825003754576 18.585113334261912 0 0 0
1690 86 4 -0.12 2.695348634255986 15.228079291323946 22.736649995585445 1 0 0
1695 86 6 0.06 3.436100296681762 15.995759403322046 22.51284055736412 1 0 0
1157 64 6 0.06 7.6438780009145 18.199836059439143 24.863803391637518 0 0 0
1154 64 6 0.06 7.581950271399438 20.20593108340308 22.576422637578816 0 0 0
1703 86 6 0.06 2.5742867362965454 18.24931731544306 21.987270693695194 1 0 0
1709 86 6 0.06 2.7730164041391654 20.573612582048135 21.448810943452095 1 0 0
1153 64 6 0.06 7.147581799421857 20.47999484069595 24.281983940075 0 0 0
1152 64 4 -0.12 8.180277547789833 18.601331496318302 24.004028153139508 0 0 0
1156 64 6 0.06 8.17615759679988 17.89284310104983 23.17567826793121 0 0 0
2687 236 14 -0.8476 2.545659070756958 15.32173857346713 18.750073305521163 0 0 0
1064 61 11 -0.8 12.997826484142935 17.9549674035163 17.803365921939957 0 0 0
2651 224 14 -0.8476 9.034474548068234 18.623886935520474 18.893888190273408 0 0 0
268 16 6 0.06 8.856832233092401 15.266984315344276 22.525068360181287 0 0 0
266 16 6 0.06 8.748068789577701 16.53069258723938 20.286927502166918 0 0 0
264 16 4 -0.12 9.091651810542189 14.74169855422904 21.5992870195384 0 0 0
265 16 6 0.06 9.679413200171954 15.242541835330277 19.51433786426994 0 0 0
258 16 3 0.35 10.430005586325269 17.86311331512576 19.549417395666488 0 0 0
262 16 5 0.08 10.68742764839426 17.157968932342637 21.827779185403244 0 0 0
260 16 3 0.35 11.654405803046062 17.009696113890282 19.078295215978905 0 0 0
261 16 4 -0.12 9.531171154260878 15.789268316533292 20.44560097874176 0 0 0
257 16 2 0.2 10.838010698279477 16.544542562398213 20.939427202794334 0 0 0
263 16 5 0.08 11.597107332248735 15.793630837582631 21.15860833898568 0 0 0
256 16 1 -0.48 11.261983971855134 17.420850969650154 19.913213272227274 0 0 0
259 16 3 0.35 11.881138922792458 18.1195101329157 20.298770751683705 0 0 0
1814 91 11 -0.8 12.911068760273047 19.216808885841964 20.8457994204554 0 0 0
2595 205 13 0.4238 13.07727103095308 18.607549315839286 22.69920068043841 0 0 0
667 40 3 0.35 14.173780456750478 17.840137868462072 18.863761091309584 0 0 0
2594 205 14 -0.8476 12.994590718656832 17.922645267331156 23.42314950869595 0 0 0
2593 205 13 0.4238 13.746057960047576 18.16686783754352 24.036080392103827 0 0 0
2550 190 13 0.4238 12.46340658883167 16.612820732395242 24.202902288245213 0 0 0
668 40 3 0.35 14.273927536209255 18.54402538847237 20.30453334964603 0 0 0
2548 190 13 0.4238 13.257993798996782 15.51957741377051 24.934701668013894 0 0 0
2549 190 14 -0.8476 12.314825407247346 15.821796522378799 24.79639849823728 0 0 0
1155 64 12 -0.18 9.56587809060169 18.92532919386158 24.435294540635347 0 0 0
1160 64 6 0.06 9.993370583601447 19.607963037858994 23.700857555580967 0 0 0
2650 224 13 0.4238 9.62757430399129 18.559555418953778 18.09131371988837 0 0 0
1811 91 9 0.7 13.218883746835322 20.364025470007093 21.16312998585044 0 0 0
1819 91 6 0.06 11.268667329414907 20.368926435471906 19.413605983928896 0 0 0
1159 64 6 0.06 10.298688000199668 18.122378597406104 24.35531669029161 0 0 0
781 46 8 0.13 20.04883444625191 17.69836432438479 18.06352577838561 0 0 0
797 47 8 0.13 17.63352220624664 15.128428329482192 17.918426291412743 0 0 0
671 40 5 0.08 14.676976627734726 16.047797438609912 20.47264478743716 0 0 0
664 40 1 -0.48 14.799345883055711 17.991462164732816 19.642157985356434 0 0 0
680 40 8 0.13 18.475148151257706 15.566073150803463 24.04964816658576 0 0 0
665 40 2 0.2 15.432929632087001 16.809244106508142 20.28062786120516 0 0 0
677 40 6 0.06 16.17387834967603 15.060794646867574 22.684787559781768 0 0 0
673 40 6 0.06 15.493894638372458 17.545030005752032 22.278585115293012 0 0 0
679 40 8 0.13 17.12247380616521 16.64242780261976 24.2996609254848 0 0 0
676 40 6 0.06 17.55598487760742 15.311260512021045 21.682652468840132 0 0 0
670 40 5 0.08 16.208854921327834 16.37620794994593 19.649314829525643 0 0 0
666 40 3 0.35 15.45773215034163 18.66787806832062 19.282824582619668 0 0 0
669 40 4 -0.12 16.203840992338726 17.023564568970333 21.63656758066613 0 0 0
672 40 4 -0.12 16.902644820309252 15.81722086528605 22.39348817536522 0 0 0
675 40 7 -0.32 17.78633527910711 16.236883537196633 23.536143840317514 0 0 0
674 40 6 0.06 16.967162957405197 17.760194272497362 21.385862993444327 0 0 0
678 40 8 0.13 18.41623864814343 17.069476477492717 23.22285917324796 0 0 0
2672 231 14 -0.8476 16.61047518049513 19.96118132992804 19.096957542866477 0 0 0
2640 220 13 0.4238 16.068428764105995 19.27272230162707 24.512490274468043 0 0 0
780 46 8 0.13 20.633175371025914 17.86287744147024 19.684300059890923 0 0 0
782 46 8 0.13 19.441290467974653 16.622547562055374 19.43186824652671 0 0 0
2671 231 13 0.4238 16.73113402313937 20.00090206512047 20.088873308363425 0 0 0
2639 220 14 -0.8476 15.297074415897203 18.651109758406335 24.64902926699476 0 0 0
777 46 7 -0.32 20.285412011949575 17.125864293987135 18.960415564032992 0 0 0
2441 154 14 -0.8476 16.638332305627742 20.366233241341696 21.75862145208064 0 0 0
2442 154 13 0.4238 15.685000267519092 20.400866327586883 22.058605570951364 0 0 0
2440 154 13 0.4238 16.94826694989444 20.500580467460033 22.699856537188296 0 0 0
2338 120 13 0.4238 24.346604165148975 14.827672321386231 18.853300574860192 0 0 0
1179 65 6 0.06 21.442823458652533 15.8958135844459 21.663252787977456 0 0 0
1178 65 6 0.06 21.254284571199847 15.438659078836777 23.352905936671753 0 0 0
774 46 4 -0.12 21.24389650667186 15.918259003304472 18.57146516764351 0 0 0
1181 65 6 0.06 23.771639652238818 15.568223315334647 21.643609984232775 0 0 0
1177 65 4 -0.12 23.264126847822666 15.405945627989214 22.594521757205165 0 0 0
1174 65 4 -0.12 21.756113596609453 15.177743497557298 22.421118829824067 0 0 0
1183 65 6 0.06 23.217793154766603 16.40720930408122 24.477851271709717 0 0 0
779 46 6 0.06 21.94247772195142 15.480036523965348 19.28426378112669 0 0 0
1374 73 4 -0.12 24.79998175573531 20.27153309258641 18.761885384049293 0 0 0
1381 73 6 0.06 23.37226051233513 18.85085622094075 19.68820109328467 0 0 0
1377 73 4 -0.12 23.96769418750413 19.716259167421605 19.979187352254826 0 0 0
2231 107 6 0.06 25.72216589438333 15.084464679492054 21.40568892574626 0 0 0
1379 73 6 0.06 25.549842826261283 19.5107789137189 18.54486471465942 0 0 0
1185 65 6 0.06 22.964783923172163 17.368030652793074 22.914799598548235 0 0 0
1180 65 12 -0.18 23.529035257452307 16.60588201987285 23.452281161277014 0 0 0
1184 65 6 0.06 24.59335274262964 16.830161138148437 23.381122344908555 0 0 0
1383 73 6 0.06 25.525504018501472 18.607582377078586 21.07807550967091 0 0 0
2227 107 4 -0.12 26.73001828621272 15.092868811641894 21.820778607969416 0 0 0
1205 66 12 -0.18 26.316609939186833 20.193710433853155 25.04067338576413 0 0 0
2225 107 6 0.06 26.70995923902347 16.413868257480523 19.25076578367264 0 0 0
1380 73 12 -0.18 24.89626343125122 19.488737617515632 21.20360746800452 0 0 0
1385 73 6 0.06 24.363077198083793 19.547444129723182 22.152502888781427 0 0 0
1384 73 6 0.06 25.621207536237954 20.294324295682323 21.32032373446728 0 0 0
1382 73 6 0.06 23.24503960020394 20.486517283600698 20.248648521121517 0 0 0
778 46 6 0.06 22.104663365963937 16.350347951916945 18.06105740919603 0 0 0
1207 66 6 0.06 26.682951470848536 18.53463855915495 23.84041214669722 0 0 0
1202 66 4 -0.12 26.402110698129235 18.670754694302595 24.884795825847263 0 0 0
1206 66 6 0.06 25.35026245529349 18.385030109579972 24.895436646546564 0 0 0
2223 107 6 0.06 28.44053296891422 15.371917280696021 17.79303258747236 0 0 0
1694 86 6 0.06 32.72642006165033 14.647665962584313 21.859307479790523 0 0 0
1208 66 6 0.06 27.319034652215493 20.594814569200757 25.190328578818765 0 0 0
1698 86 6 0.06 30.982982290130657 15.078519352766067 23.454275953497493 0 0 0
2232 107 6 0.06 26.87521854869466 15.955834323054136 22.470658558001 0 0 0
1697 86 6 0.06 31.953389651484272 16.152918224003386 24.38095115780216 0 0 0
1693 86 4 -0.12 31.75732145077275 15.839307540631182 23.355601426041815 0 0 0
2228 107 6 0.06 28.782544323474617 15.177980605104555 21.228622715890467 0 0 0
2224 107 4 -0.12 27.823780738002057 15.060527398298197 20.723535025081183 0 0 0
1704 86 6 0.06 32.40400329992689 18.1630964042774 23.739294181915582 0 0 0
1699 86 4 -0.12 32.06961363740226 18.21190611452677 22.702984526068306 0 0 0
1701 86 6 0.06 31.27746924065832 16.71195360039013 21.485741575087147 0 0 0
1707 86 6 0.06 31.040803444347283 19.39166391637029 21.25892867459281 0 0 0
1702 86 4 -0.12 31.35816499544884 19.518628811754276 22.29396398103465 0 0 0
1696 86 4 -0.12 31.233678673566104 16.97615063977949 22.542348770720302 0 0 0
2221 107 4 -0.12 27.704793041640883 16.219526031163944 19.65160657179591 0 0 0
2226 107 6 0.06 27.816742557113358 17.15765577488014 20.19522080505365 0 0 0
1706 86 6 0.06 30.415841613135782 19.71278173357878 22.80628007491221 0 0 0
1700 86 6 0.06 30.218011516458738 17.077514951548086 22.92481713159988 0 0 0
2218 107 4 -0.12 28.69015801899952 16.145812453415637 18.518918344619237 0 0 0
2222 107 6 0.06 29.621639993565417 15.840084469162912 18.99537218087059 0 0 0
2219 107 6 0.06 29.23727583830444 18.252259054623142 18.43947595025209 0 0 0
1201 66 6 0.06 26.93883771027444 16.18509211163957 24.92594713429299 0 0 0
2215 107 4 -0.12 28.948711462929218 17.4772000231497 17.729440312744167 0 0 0
162 10 4 -0.12 6.225921709193827 23.69073746469312 18.318283034660237 1 0 0
168 10 8 0.13 7.016590891412359 22.049315505455418 19.348491314527315 1 0 0
1831 91 6 0.06 8.255225500141954 25.46083058575492 21.99102354404124 0 0 0
1835 91 6 0.06 6.186414489495999 24.17692592970503 22.9964585260743 0 0 0
1830 91 12 -0.18 7.049211920075169 24.52999827611613 23.56130987076392 0 0 0
1827 91 4 -0.12 8.276365598054728 24.612400408348925 22.675023388676237 0 0 0
1833 91 6 0.06 7.277624165830039 23.80078127825282 24.338617333965445 0 0 0
1834 91 6 0.06 6.787414898410545 25.4704672111777 24.046198554275975 0 0 0
1829 91 6 0.06 7.640381988178856 23.23701745142028 21.22664818771331 0 0 0
169 10 8 0.13 5.675503497224031 22.61164417368775 20.27608605023601 1 0 0
165 10 7 -0.32 6.001203083750955 22.4335840982991 19.25121977386746 1 0 0
628 37 8 0.13 7.695584739487355 26.746284485738734 18.669087618751597 1 -1 0
166 10 6 0.06 6.739528279529073 24.36474131919276 19.00389486457017 1 0 0
164 10 6 0.06 4.24979560166826 24.73472129598852 18.239848808103176 1 0 0
170 10 8 0.13 5.44403156191295 21.667467147232315 18.711997031706815 1 0 0
1828 91 6 0.06 8.319857541021381 22.473629505535328 22.696359473261346 0 0 0
1824 91 4 -0.12 8.457552795983343 23.25392344135414 21.947815612356713 0 0 0
1708 86 6 0.06 2.5358323281863804 20.846625131847688 23.114354957971997 1 0 0
2567 196 14 -0.8476 3.6776833259106585 24.20682024167691 21.89429674169574 1 0 0
2566 196 13 0.4238 3.0748345321224306 24.070118972747494 21.10821896612469 1 0 0
2568 196 13 0.4238 3.38049197910924 24.996470170603878 22.431103079224883 1 0 0
625 37 6 0.06 6.100654708528416 25.939460698789937 20.43052332433482 1 -1 0
619 37 5 0.08 3.2823698653134574 26.417149375188536 20.655504420941128 1 -1 0
1307 70 6 0.06 4.863239663653076 23.43008865116741 25.23626317417623 0 0 0
897 53 6 0.06 11.49373656680611 24.59613562805327 18.447889356212336 0 0 0
1832 91 6 0.06 9.063412941466824 24.743456094661013 23.417665582705872 0 0 0
901 53 8 0.13 8.876449086353961 24.437246157406427 18.19210538184805 0 0 0
1813 91 11 -0.8 13.936153424254202 20.70026816991195 22.130297037583134 0 0 0
1822 91 6 0.06 10.330157057000509 20.881247613349935 21.61399326430825 0 0 0
895 53 6 0.06 10.174293376670754 26.586526780254893 18.929027281604235 0 0 0
1823 91 6 0.06 9.228906784627185 21.089492344760977 20.23427830024132 0 0 0
1825 91 6 0.06 9.832281867205868 23.676485732047098 20.320087156270077 0 0 0
1826 91 6 0.06 10.71983512893351 23.401451110862276 21.754297800069153 0 0 0
1821 91 4 -0.12 9.839847570881698 23.05260147161306 21.213869953672514 0 0 0
1820 91 6 0.06 11.118889371946155 21.995106356288403 18.862794767348255 0 0 0
1817 91 6 0.06 12.949277446230921 22.581722599831807 20.532668519927704 0 0 0
1816 91 6 0.06 13.369047892627812 21.376870446294696 19.432804118652633 0 0 0
1812 91 10 -0.22 12.711045824878438 21.547310590812707 20.284930829071314 0 0 0
1815 91 4 -0.12 11.251513061560201 21.400121666229374 19.766421177384252 0 0 0
1818 91 4 -0.12 10.066669633419416 21.52763045895101 20.776795515492985 0 0 0
1444 76 6 0.06 11.87087450265174 24.86709063466151 22.942876067252826 0 0 0
1440 76 4 -0.12 12.20188704650583 25.826899094751035 22.546221394266148 0 0 0
1445 76 6 0.06 12.822123709642165 26.25629082437098 23.3330286941424 0 0 0
1441 76 6 0.06 10.313024584471961 26.287590971727774 21.534849098118954 0 0 0
1448 76 6 0.06 12.706808068485248 25.425138099862778 20.573825111364656 0 0 0
1443 76 4 -0.12 13.226599573943208 25.71604186489364 21.486693296183446 0 0 0
92 6 5 0.08 13.559278906442975 23.591113827811817 24.196687261148682 0 0 0
98 6 6 0.06 11.056725242167085 24.447466133611222 25.010637463469628 0 0 0
88 6 3 0.35 14.063640984685101 21.257703555953 23.55983467204242 0 0 0
1450 76 6 0.06 13.969616688659446 23.71466813191725 21.9217438203751 0 0 0
86 6 1 -0.48 14.173973600135918 21.585326684400698 24.508846080151763 0 0 0
1446 76 4 -0.12 14.382048487624546 24.717119203046416 21.807165011561544 0 0 0
1437 76 10 -0.22 10.939006251422747 26.712340964973947 22.31962351797857 0 0 0
1447 76 6 0.06 13.576900323924427 26.69179949921331 21.150058691124826 0 0 0
890 53 4 -0.12 10.653138069870545 26.488212681350227 17.95476928872114 0 0 0
96 6 6 0.06 11.53068476303882 21.954314974092277 24.616263294189103 0 0 0
87 6 2 0.2 13.481586661710205 22.77095587755388 24.91043885812779 0 0 0
90 6 3 0.35 14.068793439189736 20.824733331331366 25.16502144401455 0 0 0
2673 231 13 0.4238 16.627083750962704 20.922125937388614 18.820660107692518 0 0 0
1451 76 6 0.06 14.83775395175461 24.913465994141987 22.77768910192934 0 0 0
2038 100 11 -0.8 16.863294993955723 20.749185326837363 24.34723179426942 0 0 0
1454 76 6 0.06 15.019409521483645 24.182475798041715 19.764709003452666 0 0 0
2042 100 6 0.06 19.207932732592134 21.090586093977286 23.79091495572373 0 0 0
2041 100 6 0.06 19.065942811863422 22.82043332857417 23.321053076044507 0 0 0
1460 76 6 0.06 18.278134318482287 22.773594547651278 20.119483669761642 0 0 0
1456 76 6 0.06 16.48744251536715 22.900350285048766 21.428278235143146 0 0 0
1457 76 6 0.06 17.16284915130617 24.368259658639808 21.92701588241517 0 0 0
1452 76 4 -0.12 16.726010595887335 23.893746687901185 21.048297472076527 0 0 0
1459 76 6 0.06 18.341933068484856 24.58085051241637 19.956413490390666 0 0 0
1455 76 12 -0.18 17.717842723906784 23.68779027740434 19.923381781018044 0 0 0
1449 76 4 -0.12 15.437168224043653 24.632693172913264 20.665219134218425 0 0 0
1453 76 6 0.06 15.696383359235615 25.660123927448616 20.409621922526476 0 0 0
1458 76 6 0.06 17.084155896340846 23.654367354703 19.03711971063734 0 0 0
2037 100 10 -0.22 18.906215539689306 22.087591616874043 24.111980759897698 0 0 0
2036 100 9 0.7 17.404813447990808 21.83667945695455 24.524671952064303 0 0 0
89 6 3 0.35 15.16420059906798 21.74080602202067 24.632976056837535 0 0 0
2040 100 4 -0.12 19.883614102220456 22.554971549342213 25.233591526248766 0 0 0
2472 164 13 0.4238 16.142989239911657 25.740615225786875 24.55783243061559 0 0 0
2039 100 11 -0.8 16.695449691253806 22.69699032637547 25.11245482428707 0 0 0
2868 296 13 0.4238 16.442132658759164 26.085457569683996 22.678378631338234 0 0 0
2099 102 4 -0.12 20.563397613107753 25.41299587519231 18.244751477271226 0 0 0
2048 100 6 0.06 20.15492392676579 24.61702890636648 24.819232315783573 0 0 0
2100 102 6 0.06 19.81841485817933 26.580624212124036 19.90092283383376 0 0 0
2096 102 4 -0.12 19.901100432896065 26.7209153069076 18.823139009789983 0 0 0
2470 164 13 0.4238 15.95800256917721 24.274597292299994 25.19145238862867 0 0 0
2471 164 14 -0.8476 15.618305750884714 25.21447367759346 25.22709561643358 0 0 0
2098 102 6 0.06 17.933335050740748 26.134570220741452 18.3327323988603 0 0 0
2104 102 6 0.06 20.006791365731686 24.50471474609128 18.475730605224427 0 0 0
2110 102 6 0.06 22.052918668343786 23.00927533960214 18.926306074115452 0 0 0
1209 66 6 0.06 26.040621710701572 20.69808120776967 24.11461877107856 0 0 0
2105 102 12 -0.18 22.553318686019672 23.83085078847843 18.41371449589563 0 0 0
2109 102 6 0.06 23.627887936856197 23.87583421798208 18.59095406690934 0 0 0
1378 73 6 0.06 25.375726219929277 21.176395046400643 18.956512335419013 0 0 0
2044 100 6 0.06 20.913070206118228 22.300639846998664 24.981258393178514 0 0 0
2107 102 6 0.06 22.634407247194353 25.949051095227624 18.62010185662284 0 0 0
2102 102 4 -0.12 21.951675672842555 25.131783222100104 18.852668600893765 0 0 0
2106 102 6 0.06 21.955284472533165 25.0313827506463 19.93804552749944 0 0 0
220 13 8 0.13 24.422425272249548 22.728269879127076 23.909549381543044 0 0 0
216 13 7 -0.32 23.89699325675538 23.262308726625676 23.11780436186124 0 0 0
221 13 8 0.13 22.825999489376677 23.10766605258994 23.248932121875832 0 0 0
219 13 8 0.13 24.387069190975573 22.806644951328735 22.257378614449593 0 0 0
210 13 4 -0.12 25.790068905609694 24.81716867214542 22.992385737229107 0 0 0
214 13 6 0.06 26.371822570619806 24.357339586504615 23.79129523549851 0 0 0
213 13 4 -0.12 24.27741615532254 24.755834514991314 23.216820740219205 0 0 0
217 13 6 0.06 23.645692602880224 25.31317721387949 22.52513373724515 0 0 0
218 13 6 0.06 24.066926836845496 25.11625876675263 24.22375918494295 0 0 0
215 13 6 0.06 26.093640762125048 24.404144944631767 22.030412761058166 0 0 0
206 13 2 0.2 26.179055501432778 26.307370757293434 22.92755097346241 0 0 0
1553 80 6 0.06 25.912080340828403 26.41514183682655 19.21649093817671 0 0 0
1957 96 6 0.06 21.47403519379513 26.325225010153694 22.84689618121267 0 0 0
211 13 5 0.08 25.970626599281402 26.693231588670614 21.92965050227182 0 0 0
1705 86 12 -0.18 32.301372037944994 20.76210279891456 22.177698991030617 0 0 0
322 19 8 0.13 28.02356644273066 20.736163504418137 18.33799309330358 0 0 0
319 19 6 0.06 27.17032008200613 22.980169833385858 18.33566939450663 0 0 0
2545 189 13 0.4238 27.96320989494688 22.743626803597557 24.684033204582704 0 0 0
323 19 8 0.13 29.72958543991647 21.250243799436227 18.360026585616637 0 0 0
315 19 4 -0.12 28.223715179976324 22.84335592163565 18.09117554753105 0 0 0
321 19 8 0.13 28.730905089095813 21.623407286742903 19.76669941924331 0 0 0
318 19 7 -0.32 28.719316231101665 21.500739799076257 18.6836690045414 0 0 0
320 19 6 0.06 28.84947865549131 23.630656843395123 18.5115489775145 0 0 0
2474 165 14 -0.8476 32.27605997608199 23.869399795241513 19.8961051712349 0 0 0
2473 165 13 0.4238 32.454828951899955 23.558700829643456 18.96254224089533 0 0 0
1710 86 6 0.06 31.814228649710635 21.693222631286964 21.888141283783845 0 0 0
2491 171 13 0.4238 29.99438800687664 23.386207054288732 23.66160018983824 0 0 0
2492 171 14 -0.8476 29.319952439375214 22.782819239046397 23.236049179327097 0 0 0
2493 171 13 0.4238 29.833738205230766 21.954216843484573 23.013623922999166 0 0 0
2475 165 13 0.4238 31.597005528472103 24.60181402874168 19.846247515177758 0 0 0
2490 170 13 0.4238 29.047299067165092 24.118227753134263 21.65208973647293 0 0 0
2489 170 14 -0.8476 28.550659065813754 24.819109005436715 21.140088464646453 0 0 0
2488 170 13 0.4238 29.240182799271523 24.93107555505474 20.424510627416076 0 0 0
2822 281 14 -0.8476 30.506056619618874 25.931913511139435 19.413923594526317 0 0 0
2757 259 13 0.4238 31.641496232483377 25.015930193819464 24.108743925547657 0 0 0
207 13 3 0.35 28.06287392443309 25.832714518809404 22.474270845399765 0 0 0
2756 259 14 -0.8476 30.859684226316546 24.502262069483308 24.46222119067609 0 0 0
2821 281 13 0.4238 30.3370346816015 26.538852697551683 18.637336683255924 0 0 0
209 13 3 0.35 27.889739636322822 26.095316845560234 24.126151061141258 0 0 0
205 13 1 -0.48 27.6105110298045 26.37471633567462 23.196581868685847 0 0 0
2729 250 14 -0.8476 32.49326943878817 26.445243935817857 23.50002578979808 0 -1 0
2823 281 13 0.4238 30.39640196371139 26.534112155886454 20.204724736402575 0 0 0
2730 250 13 0.4238 31.61175153699643 26.4482075551606 23.02785178230716 0 -1 0
2025 99 6 0.06 3.4472787032997316 32.38472716758955 21.17827133269264 1 0 0
623 37 6 0.06 4.90756128666793 27.110326743707283 18.560628023652235 1 -1 0
627 37 8 0.13 8.281073618161962 27.352284153642564 20.22392968577344 1 -1 0
624 37 7 -0.32 7.443971941476154 27.371144321146467 19.52604602900697 1 -1 0
2771 264 14 -0.8476 3.044670571067023 30.410412078745928 18.789584685245238 1 -1 0
621 37 4 -0.12 6.130419619806446 27.023736659163717 20.322837786433304 1 -1 0
711 42 6 0.06 6.855548102483767 32.091094682631855 22.33543448697749 0 0 0
2026 99 6 0.06 3.3438172328678717 32.60247674615791 22.931987789347673 1 0 0
626 37 6 0.06 6.166812940089516 27.488838031670298 21.30797368185936 1 -1 0
629 37 8 0.13 7.301997878161202 28.359388744646864 19.088607060636356 1 -1 0
618 37 4 -0.12 4.897303517555297 27.521438970135975 19.570092255815304 1 -1 0
622 37 6 0.06 5.066427903541484 28.568901617934664 19.320381536732526 1 -1 0
1059 60 6 0.06 5.781358001544572 30.05900236560396 24.062746731503715 1 0 0
709 42 7 -0.32 6.544284992954552 31.40211816524038 20.531716321675923 0 0 0
712 42 8 0.13 5.709557337027929 32.08467278406671 20.372074638158786 0 0 0
620 37 5 0.08 3.6893698904648904 27.915854538706057 21.341173219096206 1 -1 0
614 37 2 0.2 3.642717937991286 27.40773344743166 20.377963462117144 1 -1 0
1060 60 6 0.06 5.872616869920254 28.419970290543006 23.4094371573268 1 0 0
1058 60 6 0.06 4.393966246029159 29.29009244076552 23.262504302495365 1 0 0
1055 60 12 -0.18 5.232455369991296 29.125415053145232 23.93922719822966 1 0 0
706 42 4 -0.12 7.480762504324921 32.107945128249376 21.442708575769267 0 0 0
714 42 8 0.13 6.162601793860105 30.44429373344638 20.88530757814315 0 0 0
713 42 8 0.13 7.07229313158436 31.36621619709247 19.57879712784659 0 0 0
615 37 3 0.35 2.848287476709373 28.7855343530144 19.143530550473507 1 -1 0
613 37 1 -0.48 2.5992474665936767 27.936882151598873 19.631280677034525 1 -1 0
708 42 6 0.06 8.552815487886235 30.28259254503446 21.866944596121556 0 0 0
2770 264 13 0.4238 3.845760970546035 30.82966505622346 18.362369602482044 1 -1 0
889 53 3 0.35 11.31987941835417 29.168125153948544 17.779186096130395 0 0 0
1238 68 11 -0.8 11.496371937683886 32.736599114188145 23.546509444135395 0 0 0
1236 68 9 0.7 11.065122343751357 32.69321254642658 24.70883311305095 0 0 0
886 53 2 0.2 11.962513310397867 27.30934537907075 17.84628137737259 0 0 0
1442 76 6 0.06 10.380256302706686 26.764418591635533 23.25408745883091 0 0 0
888 53 3 0.35 12.785827685922545 28.956076410369846 18.47985964294885 0 0 0
707 42 6 0.06 9.11566420311058 31.4455303462911 22.809315741924195 0 0 0
703 42 4 -0.12 8.795303690656585 31.341106283997 21.772686021074854 0 0 0
705 42 5 0.08 9.750002762705655 32.55003827498435 20.40524652345276 0 0 0
2875 299 13 0.4238 13.120671365971356 32.051638675291066 23.745206527171 0 0 0
885 53 1 -0.48 11.835013701868366 28.616634490659592 18.450472929954245 0 0 0
699 42 2 0.2 9.905793811686221 31.543937244524834 20.794638863258676 0 0 0
704 42 5 0.08 9.77886816938636 30.81801916114202 19.991476772201764 0 0 0
702 42 3 0.35 11.354371499863706 31.837412431778027 22.306978038279745 0 0 0
701 42 3 0.35 11.97245113220833 31.348739731510996 20.86468945014068 0 0 0
698 42 1 -0.48 11.174959419259762 31.28432476881251 21.481122201981293 0 0 0
1438 76 11 -0.8 10.967272978484234 28.57351612238717 20.904268244217405 0 0 0
700 42 3 0.35 11.112589485056821 30.308736169699372 21.735028264480327 0 0 0
1436 76 9 0.7 11.365301514558832 28.06183206385215 21.928160744206096 0 0 0
887 53 3 0.35 11.457977301107816 28.563855802275455 19.385989030208243 0 0 0
1439 76 11 -0.8 12.097594203535548 28.75635323003823 22.639251437709326 0 0 0
905 54 3 0.35 12.372241245886919 29.197303049940054 24.077468331960887 0 0 0
911 54 6 0.06 10.080371654866475 28.812458647293703 24.634142922717324 0 0 0
2522 181 14 -0.8476 13.169807581412467 31.61472252640167 19.680905169770263 0 0 0
2521 181 13 0.4238 13.742510857744723 30.907964087897128 19.26553024352797 0 0 0
2820 280 13 0.4238 13.708863439015413 28.69321575808678 22.453605762526884 0 0 0
2523 181 13 0.4238 13.515005600278903 32.43212324107431 19.2196825994666 0 0 0
2876 299 14 -0.8476 14.10471107813397 31.878559125068136 23.703479538002895 0 0 0
2877 299 13 0.4238 14.316013260171523 31.1568086670433 24.362614760184023 0 0 0
902 54 1 -0.48 12.523546996770817 29.450096244371018 25.043560837741914 0 0 0
906 54 3 0.35 12.037340270528436 30.31448979963895 25.234764057208153 0 0 0
2088 102 11 -0.8 14.329088334837909 29.696044940802864 18.262901630067695 0 0 0
891 53 5 0.08 12.740592341098782 26.808465987190928 18.422345069842535 0 0 0
758 45 6 0.06 16.61114543847078 32.78580144437029 23.760651468881854 0 -1 0
1853 92 6 0.06 20.521499174989046 31.09348928955508 18.947805523944403 0 -1 0
1846 92 4 -0.12 19.427890496869374 32.67560321773762 18.067838960816793 0 -1 0
2092 102 6 0.06 15.775509554270355 27.364137082708943 18.50990600821421 0 0 0
2819 280 14 -0.8476 14.702290163188884 28.624828163577206 22.361631825732843 0 0 0
1959 96 6 0.06 19.56788621169217 27.47643524245138 21.76436885510833 0 0 0
2093 102 4 -0.12 18.484277924862177 27.075064119421867 18.32439338956121 0 0 0
1960 96 6 0.06 19.948862035924748 29.012292402181977 22.504434655921266 0 0 0
1956 96 6 0.06 20.27307650891761 26.938041391706633 23.855727370835204 0 0 0
2818 280 13 0.4238 14.938106267996371 29.134553987802377 21.534224585749506 0 0 0
2094 102 6 0.06 17.634061543933022 28.215839627305968 20.078855957638858 0 0 0
2867 296 14 -0.8476 16.7554519263955 26.887200127205958 23.187368403961464 0 0 0
2087 102 10 -0.22 16.318471044366255 28.30013386222103 18.378607358928384 0 0 0
2090 102 4 -0.12 17.725089798129176 28.262643991903374 18.993655640148297 0 0 0
752 45 3 0.35 15.591481489085302 32.54145279358735 20.85195378455296 0 -1 0
2866 296 13 0.4238 15.977914128080327 27.480691174961017 22.979435171752726 0 0 0
756 45 5 0.08 17.034089104277673 30.778957752709566 22.718146976873527 0 -1 0
749 45 1 -0.48 15.684469676988485 31.85549659739806 21.58744658980595 0 -1 0
753 45 3 0.35 15.473144144945518 31.019298118673497 21.061855754389555 0 -1 0
2089 102 11 -0.8 15.50770748650307 29.783541039770732 20.085549465858186 0 0 0
751 45 3 0.35 15.027657383761339 32.111317428370974 22.31083083992567 0 -1 0
750 45 2 0.2 17.02660597531569 31.66341157471301 22.081105427460344 0 -1 0
755 45 5 0.08 17.700993132509247 31.55043735857415 21.232238366694574 0 -1 0
2086 102 9 0.7 15.302463035993377 29.345072153667232 18.9304044527321 0 0 0
2095 102 6 0.06 18.35728514152095 29.117499078115713 18.75347162907571 0 0 0
1955 96 12 -0.18 20.388793935903685 28.078779871908566 22.153506177530126 0 0 0
1848 92 6 0.06 17.51822061931895 31.644971871393246 18.659900206520078 0 -1 0
762 45 6 0.06 19.02963866919651 31.97934850744666 23.680665423091313 0 -1 0
2854 292 13 0.4238 17.688925034403695 28.098548159666045 23.986076223911375 0 0 0
2737 253 13 0.4238 16.152747239154984 29.687705861756626 25.015900734882365 0 0 0
2855 292 14 -0.8476 17.757731402468877 28.95753725116012 24.493457188669943 0 0 0
2856 292 13 0.4238 18.598040721144926 28.856531768717637 25.026100482864067 0 0 0
1854 92 6 0.06 19.75432308384059 32.143540300677 20.011403088803945 0 -1 0
2101 102 6 0.06 20.4863692093232 27.60051137670027 18.5549828219102 0 0 0
1849 92 4 -0.12 20.347634751623993 32.15913768660071 19.09714138223577 0 -1 0
2738 253 14 -0.8476 15.262447164811855 30.08493465833893 25.238627204602004 0 0 0
1843 92 4 -0.12 18.151910142673604 31.871115766301372 17.802326496926856 0 -1 0
1858 92 6 0.06 23.521907647162458 32.67330835849907 19.93172807481499 0 -1 0
2154 104 6 0.06 25.98575704795457 32.76333818486606 18.72381584451118 0 0 0
1860 92 6 0.06 22.49658091537767 31.4326326613037 20.53852660148138 0 -1 0
2183 105 6 0.06 26.453301679781738 31.19254709232041 20.422064613856207 0 0 0
2182 105 6 0.06 25.74293400314015 29.935597102243932 22.504502366089035 0 0 0
2181 105 6 0.06 24.536326470954336 31.092176301499855 22.009772273624222 0 0 0
1855 92 12 -0.18 22.506518277387926 32.49259456023259 20.284521599898277 0 -1 0
2179 105 6 0.06 25.854565347423843 32.69772332690188 23.841634786893664 0 0 0
212 13 5 0.08 25.668576248367486 26.989990464374984 23.60694610861163 0 0 0
1958 96 6 0.06 21.070058340332146 28.316943183895148 21.336625823221773 0 0 0
1952 96 4 -0.12 21.07234922720737 27.276378438610656 23.196312833092136 0 0 0
1954 96 6 0.06 21.64627177734244 29.023024248876403 24.186687643307735 0 0 0
1949 96 4 -0.12 22.054107934333906 28.021131333459493 24.052460987842544 0 0 0
1953 96 6 0.06 22.911444409980938 28.039344872086502 23.379572477900766 0 0 0
1549 80 4 -0.12 26.13791258530697 27.377983211638494 18.758153918727665 0 0 0
1560 80 6 0.06 23.39818176265542 28.159689589475633 19.211131582010495 0 0 0
1556 80 6 0.06 25.64179404156637 29.45630286164036 19.10797859392595 0 0 0
1559 80 6 0.06 23.64823002378779 29.07323849350106 20.69108755356993 0 0 0
1558 80 6 0.06 23.95962019160587 27.274622281779635 20.551399828601106 0 0 0
1557 80 6 0.06 26.037527287662982 28.618427101796897 20.556141252177177 0 0 0
1555 80 12 -0.18 24.0416309662518 28.256683748192813 20.08560382711204 0 0 0
1552 80 4 -0.12 25.475022387507927 28.513193446097482 19.628428680959352 0 0 0
2174 105 4 -0.12 25.787930469722177 31.609816953448323 23.829142564114747 0 0 0
2180 105 12 -0.18 26.45125934180639 31.74393548114675 21.362332225804124 0 0 0
2177 105 4 -0.12 25.556577187478972 31.002656680472924 22.38288228830811 0 0 0
2176 105 6 0.06 24.39821496510438 30.15389669666881 24.57961945608094 0 0 0
2178 105 6 0.06 26.741835316025046 31.239258025494813 24.20449326616003 0 0 0
1857 92 6 0.06 22.244523558151997 32.51870087783541 18.24123489497822 0 -1 0
2175 105 6 0.06 23.73712035815938 31.770719172819575 24.45186171458296 0 0 0
2171 105 4 -0.12 24.60833769235316 31.204339999495232 24.780999227752524 0 0 0
2184 105 6 0.06 26.19711172615454 32.77663591742557 21.123427914998537 0 0 0
1554 80 6 0.06 25.667453757896055 27.349675542820357 17.775299045488442 0 0 0
1551 80 6 0.06 28.212036706903277 26.910793474903805 18.20806232614587 0 0 0
2153 104 6 0.06 27.603748425668527 32.2851541790406 18.454692972435215 0 0 0
2022 99 6 0.06 31.05772946432017 32.62543662870476 22.49656259111142 0 0 0
2023 99 6 0.06 31.29801833551872 32.65041249110715 20.906464924881362 0 0 0
2018 99 4 -0.12 31.802113183412537 32.25850564015281 21.789886596867973 0 0 0
616 37 3 0.35 32.68567965135906 27.272821164785732 18.90590015535704 0 -1 0
2185 105 6 0.06 27.476323282910734 31.859054275833927 21.71465044060031 0 0 0
2728 250 13 0.4238 32.178774883817034 26.964281673046315 24.294836879516417 0 -1 0
617 37 3 0.35 32.094110293097756 28.00207929469604 20.214913999073204 0 -1 0
2017 99 6 0.06 29.854693581377326 30.132928861432468 20.734978101190407 0 0 0
2016 99 6 0.06 29.51752451426141 30.694144308162585 22.393203080381916 0 0 0
2012 99 10 -0.22 30.23304399976397 30.173900193354832 21.75640298107885 0 0 0
2014 99 11 -0.8 30.582086539638468 27.885321620503262 21.225811685556643 0 0 0
208 13 3 0.35 27.935978583571007 27.323555060276497 23.078651584803687 0 0 0
2011 99 9 0.7 30.111657316640468 28.705995725563454 22.048760948756808 0 0 0
2013 99 11 -0.8 29.403855174116103 28.326629010580945 23.027987594478553 0 0 0
2020 99 6 0.06 32.21968381527112 30.4201997807478 22.613586805808673 0 0 0
2019 99 6 0.06 32.06933964010753 30.45594550761814 20.86442302366097 0 0 0
2015 99 4 -0.12 31.61145984438413 30.799041964892417 21.79219852793011 0 0 0
2767 263 13 0.4238 30.19705817387139 28.088187460971483 24.41149471045673 -1 0 -1
1550 80 6 0.06 28.047999925538946 27.936071796405365 19.620425216287543 0 0 0
1546 80 4 -0.12 27.656660909508602 27.75361684710743 18.619575365068464 0 0 0
1548 80 6 0.06 27.610983311084233 29.880924676304133 18.27588738837228 0 0 0
1544 80 6 0.06 30.112266400790553 29.12443131517977 18.43819940161937 0 0 0
2768 263 14 -0.8476 30.851339866565844 27.99432548652581 25.1619205385457 -1 0 -1
2772 264 13 0.4238 32.805870500872615 30.353901017735268 17.959904748322103 0 -1 0
1543 80 4 -0.12 28.01342173619748 28.998806233415777 17.777844684956968 0 0 0
2330 117 14 -0.8476 27.1735315745858 28.815224352607956 24.703927520304333 0 0 0
2331 117 13 0.4238 28.165752229388843 28.69588786757287 24.739812000507953 0 0 0
2675 232 14 -0.8476 5.683581415581407 7.802994701318612 25.441587158912775 0 0 0
2674 232 13 0.4238 4.861620930763673 7.2496965404855835 25.306405835666993 0 0 0
1243 68 4 -0.12 7.742730582322034 2.7795527071187034 25.59153705979635 0 1 0
1926 95 6 0.06 6.329180017090913 5.222884084368652 32.090082721321416 0 0 0
1916 95 6 0.06 5.35766188224776 5.894936002037957 29.195635930373307 0 0 0
1918 95 4 -0.12 5.144715312063128 7.04150997458617 31.72795354454523 0 0 0
1913 95 11 -0.8 2.947909876052259 7.742718221375819 28.299030361760373 0 0 0
2325 115 13 0.4238 2.953234200362314 6.944168239515432 26.705285376933368 1 1 0
2324 115 14 -0.8476 3.118624379231332 6.901956678925017 25.719944731129516 1 1 0
1923 95 6 0.06 5.373889387698247 8.058916951824214 31.410938087780337 0 0 0
1912 95 10 -0.22 4.353802736849245 6.265283944441904 29.403591928817114 0 0 0
1915 95 4 -0.12 4.0897034173565245 6.247511897960715 30.89051085164308 0 0 0
1911 95 9 0.7 4.089162744063115 7.571251665048076 28.73743502720766 0 0 0
1917 95 6 0.06 3.642302606646668 5.573329769258894 28.95292187480692 0 0 0
2443 155 13 0.4238 6.348329852194956 8.078575442740117 28.153482460383557 0 0 0
1921 95 4 -0.12 6.480773818412917 6.281352437274965 31.878421276274814 0 0 0
1925 95 6 0.06 6.884231465053239 6.250036640296644 30.8663057787401 0 0 0
2445 155 13 0.4238 6.78880167673129 7.684102406643478 26.745004155149367 0 0 0
2444 155 14 -0.8476 7.186647744146259 7.930110910729332 27.628875736322428 0 0 0
1250 68 6 0.06 7.8788578381218155 4.256899230227031 27.22444431585997 0 1 0
1919 95 6 0.06 4.074577982149507 5.244286241773952 31.316475635448406 0 0 0
1920 95 6 0.06 3.112597717939051 6.638881353964222 31.173761396133045 0 0 0
1914 95 11 -0.8 4.954393493804629 8.456508654150964 28.65243620415273 0 0 0
1256 68 6 0.06 6.57805831214345 3.9918773276272566 29.777568522424126 0 1 0
1246 68 4 -0.12 7.722300268307639 3.1962561684789073 27.02781634430753 0 1 0
1922 95 6 0.06 4.67646557698788 7.218384424165149 32.69624797183562 0 0 0
1929 95 6 0.06 7.50927457498786 8.083265492975354 32.6642743968105 0 0 0
1257 68 6 0.06 7.839680348071246 2.677834471422949 29.60178491541666 0 1 0
1252 68 4 -0.12 6.803713241965298 2.978549940772924 29.44532767293157 0 1 0
1254 68 6 0.06 5.621952595810278 3.35756684177018 27.618031975563838 0 1 0
1249 68 4 -0.12 6.501761307819299 2.7740666668474607 27.88932650162664 0 1 0
1251 68 6 0.06 8.543874272663572 2.7604389170660686 27.596337217500334 0 1 0
1237 68 10 -0.22 10.219435121482993 3.5320761912503276 25.297267795458403 0 1 0
1933 95 6 0.06 9.019315569960995 5.398362694707466 31.002650086650455 0 0 0
729 43 8 0.13 13.036577244394048 3.564516596823953 32.40147332875886 0 0 -1
726 43 7 -0.32 13.555332275995756 4.223042722758239 31.704786207426608 0 0 -1
730 43 8 0.13 13.081867592468546 5.202925925166156 31.766402687248927 0 0 -1
731 43 8 0.13 13.277123543278325 3.8908994909624335 30.70457757918698 0 0 -1
2559 193 13 0.4238 8.961474073599462 7.025410573623099 25.876225914938004 0 0 0
1242 68 6 0.06 10.196470589613103 3.4022518041177525 26.37928199678249 0 1 0
877 52 6 0.06 14.382031023161181 6.701385745110458 28.289730756861786 0 0 0
873 52 4 -0.12 13.609611726956288 7.468257416738548 28.34814906339502 0 0 0
878 52 6 0.06 13.39739525654159 7.772844009042605 27.323294146658263 0 0 0
879 52 7 -0.32 11.473866714389992 5.87873075849711 28.11165821860753 0 0 0
881 52 6 0.06 12.378330575041772 6.806245547623134 30.055026349216796 0 0 0
876 52 4 -0.12 12.277562770199097 6.945297405131481 28.978621721231434 0 0 0
882 52 8 0.13 11.546263306159744 5.98157278405216 27.02892151290569 0 0 0
883 52 8 0.13 12.049098985721292 4.974032879059958 28.308549361917358 0 0 0
884 52 8 0.13 10.442834107734349 5.8500802364652325 28.46420230074167 0 0 0
575 34 6 0.06 13.742909621219232 4.570057441904563 25.909139582136426 0 0 0
880 52 6 0.06 11.621190092803282 7.8153892770961315 28.994482992870594 0 0 0
1934 95 6 0.06 9.59260014811671 7.032659627245152 31.020615084261898 0 0 0
1930 95 12 -0.18 9.53036419960828 6.130012471983783 31.62847306092388 0 0 0
1935 95 6 0.06 10.541277615261542 5.737134583455645 31.737273450460656 0 0 0
721 43 5 0.08 17.39341965952609 5.66579008329403 32.52686624878302 0 0 -1
725 43 6 0.06 14.984680420047155 6.49329419734412 31.913450762986663 0 0 -1
574 34 6 0.06 14.750316174012035 3.245535793582879 25.493140089238814 0 0 0
570 34 4 -0.12 14.788540715067823 4.302484473687695 25.756834551501953 0 0 0
765 45 8 0.13 18.25931505376785 3.549492129062593 25.33202700942369 0 0 0
576 34 8 0.13 16.581250642961628 4.06581872266335 26.8830847119796 0 0 0
573 34 7 -0.32 15.597072874149736 4.518309306103504 27.00466979387476 0 0 0
723 43 4 -0.12 15.00314713608103 4.344087299452993 31.901916687804047 0 0 -1
715 43 1 -0.48 17.38744367928713 7.333895525462077 31.295973300402792 0 0 -1
718 43 3 0.35 17.078172919283546 7.666579394024223 30.393862183287872 0 0 -1
717 43 3 0.35 18.396153347561707 7.341865091911375 31.245252022108403 0 0 -1
2412 144 13 0.4238 19.44828036427443 6.798477473912771 29.60143740036979 0 0 0
724 43 6 0.06 15.241193263349734 5.745595867499681 30.29591455999664 0 0 -1
577 34 8 0.13 15.798210344512231 5.5554998841709144 27.272841008689625 0 0 0
720 43 4 -0.12 15.495390560145584 5.70862647890855 31.35523197414065 0 0 -1
1120 63 6 0.06 20.300926208639183 7.054279165716825 26.248836319685275 0 0 0
728 43 6 0.06 15.453422081261579 3.5305331745652233 31.333129690685617 0 0 -1
716 43 2 0.2 17.0191632661561 5.907977854876572 31.532173490854653 0 0 -1
578 34 8 0.13 15.17458160203938 4.107983059704746 27.921877525191903 0 0 0
719 43 3 0.35 17.133016552700646 8.040619466466527 31.971206526054175 0 0 -1
722 43 5 0.08 17.565470710191807 5.285497020966323 30.82351118445022 0 0 -1
1113 63 11 -0.8 17.01392925669617 7.324497102933648 28.6071457666542 0 0 0
1430 75 12 -0.18 18.17460591880564 3.1050641430391517 28.84853685025896 0 1 0
1433 75 6 0.06 17.231397315346296 3.6309044532491894 28.9968136903913 0 1 0
1434 75 6 0.06 18.901702976264218 3.916333314548962 28.812360897716218 0 1 0
2411 144 14 -0.8476 19.9896052930318 6.27864132462919 30.26232290204411 0 0 0
1117 63 6 0.06 17.92416913190051 5.934964722358503 26.5050075748086 0 0 0
1111 63 9 0.7 18.069604488571862 7.457770013970602 27.959325279869503 0 0 0
1114 63 11 -0.8 19.039139930641483 8.042978468807888 28.482861233584778 0 0 0
1431 75 6 0.06 18.434500126192226 2.7364756117547766 30.924348201343044 0 1 0
1435 75 6 0.06 18.24803210694475 2.5410712266347786 27.91866743463727 0 1 0
872 52 3 0.35 15.947422725422799 8.344413054667221 28.346927375321073 0 0 0
2410 144 13 0.4238 20.509575957112204 5.673256942970013 29.659684849729203 0 0 0
1112 63 10 -0.22 18.14617429625737 7.002128200735714 26.50851568244373 0 0 0
1115 63 4 -0.12 19.443034437376845 7.451719635141728 25.706434878934232 0 0 0
1116 63 6 0.06 17.25785215764285 7.287388653890286 25.944914085795162 0 0 0
232 14 6 0.06 19.681737225108385 5.1416698109165635 32.74777814134244 0 0 0
2790 270 13 0.4238 25.023062461489616 5.747391718470572 32.3488969447805 -1 0 0
809 48 6 0.06 26.618369687943265 2.681217244485193 31.92798360695324 0 1 0
223 14 2 0.2 21.57248161940678 4.193968899438067 32.23115660815632 0 0 0
229 14 5 0.08 22.0962598616359 5.020883752528714 31.7515685563465 0 0 0
2311 111 13 0.4238 22.215298712537077 4.778672636992619 28.117690129957694 0 0 0
2312 111 14 -0.8476 21.39006787905715 4.562783436957612 28.63962594380442 0 0 0
2313 111 13 0.4238 21.248010638083883 3.593815075541687 28.437262879816593 0 0 0
2570 197 14 -0.8476 24.418415598274755 4.682314339111158 27.43290593394972 0 0 0
2571 197 13 0.4238 24.444542231571297 3.888951705422465 28.041121823193045 0 0 0
228 14 5 0.08 20.867564771407352 3.8638284797636593 31.468112658078105 0 0 0
2569 197 13 0.4238 25.358556559736677 4.935120113094017 27.20431193474967 0 0 0
2163 105 11 -0.8 24.837957438726903 2.8286882641814883 29.116228379377873 0 1 0
2843 288 14 -0.8476 25.261243930958344 4.7327319267219465 30.798813233438118 -1 0 0
2842 288 13 0.4238 25.033000191386023 3.9805749982346157 30.180593622881133 -1 0 0
134 8 8 0.13 23.835368213459255 7.109155398018422 27.999203170936447 0 0 0
132 8 6 0.06 23.305087699384266 7.989902610404354 30.27698991744274 0 0 0
224 14 3 0.35 22.96143962588839 2.6772680713746277 31.803350871928508 0 0 0
136 8 8 0.13 25.318385541103645 7.75909969931423 28.73432205071009 0 0 0
2844 288 13 0.4238 26.096561907695076 5.078647258019052 30.371475871641053 -1 0 0
2847 289 13 0.4238 26.644491596818412 6.068920551829077 25.69878941645318 0 0 0
131 8 7 -0.32 24.32991692190903 8.01412135566138 28.352182969058653 0 0 0
222 14 1 -0.48 22.482613036142332 3.0827221076308753 32.59484655251449 0 0 0
692 41 7 -0.32 31.666208639046104 3.0996380067682923 25.35559500164932 0 1 0
695 41 8 0.13 31.55498945997858 4.183933376869883 25.34720911668505 0 1 0
2323 115 13 0.4238 32.64436912212535 7.3761019252995235 25.33295010724489 0 1 0
696 41 8 0.13 32.45929755711962 2.8996926572885777 26.076128380311367 0 1 0
2941 321 13 0.4238 32.02270030596576 8.512214459752371 27.520657474413795 0 0 0
2647 223 13 0.4238 31.930162710742557 6.670132928902563 28.694971252611907 0 0 -1
2648 223 14 -0.8476 31.30113778799364 5.912656336253039 28.869866473095904 0 0 -1
2649 223 13 0.4238 30.466849143387613 6.38868016420467 28.59166714145485 0 0 -1
2944 322 13 0.4238 30.668372463581342 4.245771762391606 30.194325328044684 0 0 0
2946 322 13 0.4238 29.817713785940192 2.96164428964341 30.23938687694188 0 0 0
2945 322 14 -0.8476 29.866626706534092 3.8685399455814857 30.6579316351799 0 0 0
2845 289 13 0.4238 27.53475718765631 6.285635410320913 27.14178811766846 0 0 0
2846 289 14 -0.8476 26.957932620717955 5.698940337567716 26.573375098895504 0 0 0
966 57 6 0.06 27.62957098327214 7.734240914649038 31.661095586610017 0 0 0
2343 121 13 0.4238 28.163027334480873 5.877107227649227 29.113949343620668 0 0 0
2341 121 13 0.4238 28.414184758829826 4.6981386842671355 30.15449764189303 0 0 0
2342 121 14 -0.8476 27.72307636319887 5.090734141712634 29.547644611758535 0 0 0
687 41 5 0.08 27.583693094569895 2.7105484834847076 25.903345067132634 0 1 0
685 41 3 0.35 27.471248170811243 3.501666811288814 28.136752113804413 0 1 0
691 41 6 0.06 29.693069837455525 3.905596756089257 26.76073416221886 0 1 0
2670 230 13 0.4238 29.100641814839072 7.620192897229933 27.1142246966011 0 0 0
2669 230 14 -0.8476 28.958091767918695 7.15464109960869 27.98770765333071 0 0 0
2668 230 13 0.4238 28.76859264941598 7.893139474935168 28.634810968522757 0 0 0
681 41 1 -0.48 27.59676370666002 2.520299889139633 27.933537514563696 0 1 0
686 41 4 -0.12 29.60659192833841 2.8212099851675863 26.691716738471513 0 1 0
975 57 6 0.06 29.808439600793413 8.026232445140709 32.6633354855689 0 0 0
196 12 4 -0.12 7.621496981802173 12.34514508912714 25.309605203540237 0 0 0
353 21 6 0.06 4.215835362149761 10.355366939830091 32.19153159671548 1 0 0
2891 304 14 -0.8476 5.984712243482675 10.820713015564328 29.357764056781086 0 0 0
2636 219 14 -0.8476 4.372195709803931 9.908561965014233 26.421216340176073 0 0 0
2635 219 13 0.4238 5.004758104224992 9.184659779820258 26.14578496338006 0 0 0
2637 219 13 0.4238 4.445046827328476 9.71889923457115 27.400375294437893 0 0 0
2479 167 13 0.4238 5.524829210233322 12.360600240493039 29.669119038007082 0 0 0
2753 258 14 -0.8476 3.1785446214933883 12.544073989876479 26.79635549092115 0 0 0
198 12 6 0.06 6.164914169734055 12.452227649096658 26.743141145114784 0 0 0
2752 258 13 0.4238 3.798158337115554 11.759152470134755 26.79350164038064 0 0 0
347 21 5 0.08 2.890663507209388 10.405810598127495 29.85636845244975 1 0 0
2754 258 13 0.4238 2.7033064159437963 12.56856168597004 25.916820287354447 0 0 0
2480 167 14 -0.8476 5.676448507618787 13.33723277005946 29.821536926916423 0 0 0
2892 304 13 0.4238 5.494992928960465 9.950850869916502 29.298203982346593 0 0 0
2450 157 14 -0.8476 2.856823124779263 13.677603143628096 29.204158691215603 1 0 0
2481 167 13 0.4238 4.923098700903794 13.659345796238588 30.394893650493863 0 0 0
2451 157 13 0.4238 2.9911563476301106 13.348823639986051 28.269336743640928 1 0 0
2890 304 13 0.4238 6.8847431597809825 10.55145542165196 29.01501600943196 0 0 0
197 12 6 0.06 5.842419217543471 13.505131556681379 25.372098797054377 0 0 0
193 12 4 -0.12 6.624844047862563 13.148810487590406 26.042160839441728 0 0 0
2436 152 13 0.4238 3.236625965407968 14.434516011218596 30.57947503787051 0 0 0
191 12 3 0.35 5.814158797929714 14.391233355888774 28.388884142463915 0 0 0
349 21 4 -0.12 3.2252375390383667 10.206825537830674 32.621401201849594 1 0 0
354 21 6 0.06 3.0129052547916966 9.138136043519205 32.590509252816155 1 0 0
2391 137 13 0.4238 8.298092078150372 9.238982871381257 28.060211688066367 0 0 0
194 12 5 0.08 7.8731395628629945 13.871482286003257 27.482390493761095 0 0 0
189 12 2 0.2 7.158588689399893 14.307531542932189 26.784239643420648 0 0 0
200 12 6 0.06 8.475265689717133 11.971368595499909 25.8748543607541 0 0 0
2434 152 13 0.4238 2.793028285823922 14.58984721593059 32.048404530673885 0 0 0
1219 67 6 0.06 13.077444702241023 13.839684371452947 32.738135747516274 0 0 0
2314 112 13 0.4238 13.961897731057318 8.631734789723481 25.27785988775843 0 0 0
875 52 5 0.08 14.418684475882381 8.620311647486433 30.034275898361763 0 0 0
869 52 2 0.2 14.146930024381087 8.732648612453993 28.984672909297657 0 0 0
2390 137 14 -0.8476 8.576059745254728 10.18170898743831 28.244692999759273 0 0 0
2527 183 13 0.4238 10.730187487577616 10.494459347646007 25.535460175876388 0 0 0
2529 183 13 0.4238 10.080075567421446 9.156864366876354 25.952693215168395 0 0 0
2528 183 14 -0.8476 10.437356461324473 10.000259066976463 26.35402438277844 0 0 0
588 35 6 0.06 11.040347545616486 13.44798239099664 32.01104796789158 0 0 0
594 35 8 0.13 10.545281585454793 9.479512507764769 31.912059950863387 0 0 0
2389 137 13 0.4238 9.324765711256662 10.24770541211291 27.585059676385796 0 0 0
1610 82 6 0.06 11.202562854300513 12.792749027742563 26.330073837156945 0 0 0
590 35 7 -0.32 10.796932482089131 10.486098022290445 32.246116732302454 0 0 0
586 35 5 0.08 8.61565048243652 12.82804890189741 31.89979590751235 0 0 0
585 35 5 0.08 8.732182820827703 12.683868033855006 30.174217445401446 0 0 0
874 52 5 0.08 13.416651284368287 9.531568537132696 28.856001476260367 0 0 0
1596 82 4 -0.12 14.572987212414102 12.054463355058756 26.023849900015684 0 0 0
592 35 6 0.06 10.454095823588224 10.964364687218573 30.184933274512744 0 0 0
580 35 2 0.2 9.141919513434186 13.22078131393962 31.029773701087024 0 0 0
1609 82 6 0.06 10.981853900812482 14.058316836584435 27.52976074525295 0 0 0
1608 82 6 0.06 11.028095549478614 12.35925357758731 28.05743586654127 0 0 0
1605 82 12 -0.18 11.437741821805547 13.083975847192784 27.35379954989679 0 0 0
1607 82 6 0.06 13.030454999088725 13.630627592645716 28.473482653718214 0 0 0
1602 82 4 -0.12 12.863675357703952 13.214744016973652 27.479821771862404 0 0 0
1599 82 4 -0.12 13.556758030568453 11.884943679547721 27.166564373643673 0 0 0
587 35 4 -0.12 10.86994127599379 11.481007680778232 31.049970270453287 0 0 0
584 35 4 -0.12 10.596583428996608 12.979151631269444 31.132749865012244 0 0 0
589 35 6 0.06 10.997450845997346 13.481336121654012 30.252265681778404 0 0 0
1604 82 6 0.06 12.883860069621837 11.043547516991953 27.001043079875302 0 0 0
591 35 6 0.06 11.948373593127526 11.508524796697513 30.89388350026919 0 0 0
1603 82 6 0.06 14.106027780265151 11.701989049089153 28.090126432496966 0 0 0
579 35 1 -0.48 8.92356757964697 14.624267789052407 31.057090962214787 0 0 0
1216 67 6 0.06 14.60973761769594 12.90673629158652 31.02305434574575 0 0 0
1606 82 6 0.06 13.337471916360435 13.941345078018845 26.819742866949504 0 0 0
2455 159 13 0.4238 18.634428709858334 14.337040466734688 32.272255467409266 0 0 0
2884 302 13 0.4238 16.197631702226257 9.703316166314949 32.68963210542269 0 0 0
2704 242 13 0.4238 18.086406432486015 10.196668126155654 32.748088580751514 0 0 0
2315 112 14 -0.8476 14.89241136662187 8.84591955761837 25.57501801317771 0 0 0
870 52 3 0.35 15.159245953033912 9.250741373247799 27.234892819062573 0 0 0
868 52 1 -0.48 15.288894035500418 9.100494957086795 28.225220535865418 0 0 0
2958 326 13 0.4238 17.01228891809205 12.461444201443234 28.34253909518595 0 0 -1
1211 67 9 0.7 16.449604323399136 13.365754280028323 32.03630634862131 0 0 0
2885 302 14 -0.8476 15.850264946229625 9.965593921503647 31.78931098410594 0 0 0
1212 67 10 -0.22 15.004551473517528 13.62029350638997 31.7463071629724 0 0 0
1118 63 4 -0.12 19.46722868867525 9.033015128034146 25.556784750609665 0 0 0
1600 82 6 0.06 15.210691702701029 12.925865482466302 26.17260393953959 0 0 0
1601 82 6 0.06 15.253167840694731 11.20581328750015 26.096540390622074 0 0 0
2886 302 13 0.4238 16.08854936027482 10.91186666482937 31.57063423333323 0 0 0
871 52 3 0.35 15.820317979848406 9.90966136975021 28.51326499644589 0 0 0
2706 242 13 0.4238 18.114062829483547 11.21307673789648 31.618750257426598 0 0 0
1214 67 11 -0.8 17.099685466089703 12.490165037071037 31.456701430083776 0 0 0
2957 326 14 -0.8476 16.936003494563572 11.590844525411173 28.82861241727433 0 0 -1
2956 326 13 0.4238 17.098088717135713 11.921488911805573 29.758362449646327 0 0 -1
1122 63 6 0.06 19.627263300852235 9.409246616940383 26.56721799171737 0 0 0
122 8 3 0.35 19.479027305605264 9.447519579692258 29.30219327372526 0 0 0
123 8 3 0.35 19.379151843998244 10.497303218213448 30.459123507594228 0 0 0
2705 242 14 -0.8476 18.574140747364382 10.368309469538975 31.89211757478732 0 0 0
1734 87 6 0.06 19.842893847702925 13.820172887605978 27.311768434651796 0 0 0
120 8 1 -0.48 19.933387166750258 10.282944576591944 29.642419722697028 0 0 0
124 8 3 0.35 19.947956739409562 11.169474700231868 29.15870138584104 0 0 0
2719 247 13 0.4238 20.394399770685837 13.6802941931046 30.98170735727227 0 0 0
2720 247 14 -0.8476 20.639576713522125 13.013413984245396 30.27800979918286 0 0 0
1732 87 6 0.06 17.753016354416822 14.23539929749923 26.441705108338745 0 0 0
1728 87 6 0.06 17.870743994835003 14.260262211462564 29.007692136074986 0 0 0
2590 204 13 0.4238 25.866232960305766 12.36236607421228 32.10776464549271 0 0 0
523 31 6 0.06 22.87570847318392 9.77992048134253 32.71393599469498 0 0 -1
1125 63 6 0.06 21.07364805295424 10.569284274326845 25.479672316935158 0 0 0
1129 63 6 0.06 22.46512751144462 8.774799945922545 25.70555452125234 0 0 0
130 8 6 0.06 21.764650583408276 8.67224859170825 28.26167955073958 0 0 0
128 8 4 -0.12 23.50900755387216 8.688831758943444 29.465786351835675 0 0 0
126 8 5 0.08 21.011921126464912 8.919195890959877 30.79092973827788 0 0 0
471 28 7 -0.32 23.5635668199159 13.49435746848937 25.712259486836572 0 0 0
121 8 2 0.2 21.178846833553777 9.73048840903536 30.082356022434844 0 0 0
2721 247 13 0.4238 21.637440574018804 12.961408658181961 30.31794373276223 0 0 0
127 8 5 0.08 21.66083071786197 10.535630919189153 30.636949223117703 0 0 0
135 8 8 0.13 24.56760570899523 8.77586979725583 27.609633430536043 0 0 0
125 8 4 -0.12 22.184542687015245 9.353758497736205 29.001525078213042 0 0 0
133 8 6 0.06 24.190944568846845 9.437481773907965 29.869050033870785 0 0 0
129 8 6 0.06 22.5005740767047 10.297002361084033 28.555933809696562 0 0 0
2951 324 14 -0.8476 23.317120188162086 12.716255165715676 30.291815788548924 0 0 0
2952 324 13 0.4238 24.17550313433138 12.280869449733359 30.563201478542688 0 0 0
473 28 6 0.06 23.567476701788408 12.348521414610458 27.453775440026384 0 0 0
2950 324 13 0.4238 23.253039878602948 13.368186376500052 31.047402232253823 0 0 0
468 28 4 -0.12 24.333970198178577 12.967990264995537 26.988068873257617 0 0 0
469 28 6 0.06 25.288035394640765 11.305957243207818 26.07829782958833 0 0 0
467 28 5 0.08 25.508251920186666 11.359179275089563 28.77289244849071 0 0 0
465 28 4 -0.12 25.569949683346834 12.191458357683945 26.64798946589395 0 0 0
2591 204 14 -0.8476 25.703043660759384 11.880553643431798 31.246801203735473 0 0 0
461 28 2 0.2 26.164707244188556 11.766777491893912 28.00408389460744 0 0 0
517 31 5 0.08 20.970088825164808 12.028766298232842 32.74105800980137 0 0 -1
475 28 8 0.13 22.73094753671368 14.073573055638361 26.111497240770234 0 0 0
472 28 6 0.06 24.64922533167794 13.816062985061619 27.595953217168564 0 0 0
466 28 5 0.08 26.468820969069967 12.659221248706256 28.55107157317451 0 0 0
2592 204 13 0.4238 26.643021757740932 11.695933762800914 30.959768226168535 0 0 0
470 28 6 0.06 26.25086237687647 12.84993571349758 26.10863614044849 0 0 0
967 57 6 0.06 26.42739505540385 8.695433745341699 31.1640845558747 0 0 0
2239 108 11 -0.8 23.84025860572907 14.355630427693319 32.51830807283444 0 0 0
351 21 6 0.06 32.54517484112105 11.930303570068892 31.756518329448724 0 0 0
962 57 10 -0.22 27.3921872056372 8.798094937137225 31.660847299056734 0 0 0
346 21 4 -0.12 32.3853012158956 10.854048007318562 31.82171741285469 0 0 0
348 21 5 0.08 32.21524106891844 9.139525368631034 30.567721127580022 0 0 0
342 21 2 0.2 32.28944582261364 10.215931735882563 30.412868168957417 0 0 0
2449 157 13 0.4238 32.174163354539196 13.696012972306908 29.169935776384577 0 0 0
2943 321 13 0.4238 31.27913525585803 9.099709678836799 26.233717259438038 0 0 0
2942 321 14 -0.8476 31.4648139410573 9.277738329047661 27.20008197175749 0 0 0
2736 252 13 0.4238 28.066857793627648 9.055531978975974 25.632121087685206 0 0 0
2735 252 14 -0.8476 27.12317228998525 9.361777707348146 25.75742884426939 0 0 0
963 57 11 -0.8 29.075748572298195 9.011206627634813 29.995541535466003 0 0 0
463 28 3 0.35 27.376626933960353 10.18615756001721 27.354290128446657 0 0 0
460 28 1 -0.48 27.37872802604526 10.981314788173227 27.97706772481368 0 0 0
345 21 3 0.35 31.24841620229612 10.22257311357055 28.717135699368697 0 0 0
961 57 9 0.7 28.30761223632208 9.558209745343127 30.75421135624582 0 0 0
462 28 3 0.35 27.632295729302832 10.669268771526584 28.903600076011628 0 0 0
344 21 3 0.35 30.984177332846897 11.65983026468249 29.602948193591516 0 0 0
964 57 11 -0.8 28.201182834459132 10.798463720710302 30.64470707274304 0 0 0
327 20 3 0.35 30.017913570830025 11.577848985853318 25.851977446017514 0 0 0
464 28 3 0.35 28.051899207770305 11.656134172661377 27.643015067928438 0 0 0
1189 66 11 -0.8 29.314950946224307 12.631536237537919 27.05349867639095 0 0 0
1188 66 11 -0.8 30.4762351894283 13.015568890375008 28.89515934951774 0 0 0
341 21 1 -0.48 31.13543143804023 10.66134683288719 29.619822565327823 0 0 0
343 21 3 0.35 30.35924446910402 10.152987335142289 30.018866390710322 0 0 0
1186 66 9 0.7 30.009973146493344 13.382187547413034 27.789207685291622 0 0 0
2438 153 14 -0.8476 29.053937297325113 13.238343543830847 31.12922237274885 -1 0 0
2437 153 13 0.4238 28.72725754780012 12.313301564901616 30.935286388271287 -1 0 0
2439 153 13 0.4238 29.441510545670155 13.286054277683316 30.208601453347924 -1 0 0
350 21 6 0.06 31.50410463490116 10.644146986487838 32.42799347750709 0 0 0
1194 66 6 0.06 29.03762914158517 14.58995079072602 25.386066128172416 0 0 0
2920 314 13 0.4238 28.922981455364777 14.035788744743666 32.44319518058667 -1 1 -1
2577 199 13 0.4238 30.799442262621028 13.6984944084262 32.482289067360796 -1 0 0
2420 147 14 -0.8476 6.636287677596047 15.970107534328903 31.981665615720743 0 0 0
2419 147 13 0.4238 7.40638620175828 16.382133883499165 32.46871114910837 0 0 0
2435 152 14 -0.8476 3.5856607302533208 14.752861705299335 31.460873988366643 0 0 0
582 35 3 0.35 7.931319783218324 14.805183837330611 31.11042966992038 0 0 0
276 17 3 0.35 3.7083849045520934 17.76698282136403 32.34935060541687 0 0 -1
1669 85 6 0.06 5.502794896188365 19.23938804624806 32.452175003754824 0 0 -1
195 12 5 0.08 7.583489232199889 15.061071952576976 26.121085887593807 0 0 0
275 17 3 0.35 4.202017827779656 17.97848808807926 30.83102144700547 0 0 -1
2421 147 13 0.4238 6.308080927805463 16.5793591254018 31.259776765658465 0 0 0
190 12 3 0.35 5.3280902186223695 15.404392984359335 27.236172288259667 0 0 0
188 12 1 -0.48 6.152471577303798 15.004541259220732 27.661196446332028 0 0 0
192 12 3 0.35 6.687230060323276 15.785085269400685 28.01463188241121 0 0 0
1286 70 9 0.7 6.695472047880416 18.06925604684248 29.538379541654358 0 0 0
2406 142 13 0.4238 4.591318331892902 18.47847560308117 28.71591470380919 0 0 0
1288 70 11 -0.8 5.56139454398882 18.072446510061756 30.06056360410698 0 0 0
2405 142 14 -0.8476 4.0477064529297575 18.78343049246846 27.933916566992586 0 0 0
2857 293 13 0.4238 4.311863321189635 17.443543381888055 26.554097870238493 0 0 0
2858 293 14 -0.8476 4.34272169951776 16.479245747953264 26.291021537475054 0 0 0
1289 70 11 -0.8 7.126224376878278 17.06334954503925 28.884883122603902 0 0 0
273 17 1 -0.48 3.4774568796801617 17.55115819863142 31.39006770859138 0 0 -1
277 17 3 0.35 3.4938934133680104 16.559172943285603 31.200788933777844 0 0 -1
2859 293 13 0.4238 3.5070666347660246 16.38502651516057 25.749880050911322 0 0 0
2404 142 13 0.4238 4.244114535798823 19.761511853981673 27.864551847296717 0 0 0
1287 70 10 -0.22 7.503293255403109 19.40685084243941 29.631139827638265 0 0 0
1292 70 6 0.06 7.535376255309012 19.565202879414954 30.70911561615233 0 0 0
1297 70 6 0.06 6.724111575211974 19.88231145279631 26.723714381014553 0 0 0
1291 70 6 0.06 8.54053053665482 19.321749160696157 29.307052083121384 0 0 0
1290 70 4 -0.12 6.852622657292032 20.56575425798738 28.8693781245494 0 0 0
1295 70 6 0.06 5.790493382887075 20.568890856356603 29.11434362610469 0 0 0
1158 64 6 0.06 9.627785526103803 19.31581029087232 25.451084133431415 0 0 0
583 35 3 0.35 9.286934242555658 15.151466957250827 31.83821642909254 0 0 0
2851 291 13 0.4238 10.681941919886912 15.880429566901476 25.576145314569793 0 0 0
2928 316 13 0.4238 10.00855739566276 18.328879178180735 31.889731041096496 0 0 0
581 35 3 0.35 9.23815919117471 15.160111215316652 30.260827505093758 0 0 0
2319 113 13 0.4238 8.728276028895472 16.646147356022986 28.785939098841204 0 0 0
2318 113 14 -0.8476 9.424337093125093 15.930179306141198 28.73188587072059 0 0 0
2853 291 13 0.4238 9.671070508245748 16.92230693576636 25.731429012305178 0 0 0
2317 113 13 0.4238 9.592853135451058 15.887477713898669 27.74709573723903 0 0 0
2852 291 14 -0.8476 9.825183401332044 15.997201088445378 26.07850117072512 0 0 0
1716 87 6 0.06 13.392317167847988 17.99209681155416 26.372809217684924 0 0 0
1712 87 10 -0.22 13.406978294126187 18.23325365713599 27.435713245039224 0 0 0
2926 316 13 0.4238 9.977321700548856 17.612983524657324 30.42494986583621 0 0 0
2927 316 14 -0.8476 10.450561343961414 18.285703883589957 30.99374002043804 0 0 0
1719 87 6 0.06 13.620285587726112 16.256488175378422 28.21197470485479 0 0 0
1717 87 6 0.06 12.375967527701611 18.13661184230727 27.77602731373137 0 0 0
1711 87 9 0.7 13.84132501812033 19.707273522889892 27.700489389639486 0 0 0
2539 187 13 0.4238 11.068939427639556 19.924417401330757 30.528441499028666 0 0 -1
537 32 6 0.06 13.174632712815844 18.903065806090893 31.484399852756184 0 0 0
1715 87 4 -0.12 14.178972433250697 17.192048949212413 28.239020226193688 0 0 0
1720 87 6 0.06 14.169372614372802 17.383617769481837 29.312027978225792 0 0 0
533 32 4 -0.12 13.954350543029005 19.098426356038416 32.22061373305969 0 0 0
1714 87 11 -0.8 13.257316751489084 20.43999273425557 28.566438999741685 0 0 0
536 32 4 -0.12 14.59616004191848 17.766686972431714 32.71377753843053 0 0 0
2541 187 13 0.4238 12.001026922074416 20.65285700221738 29.538249546193477 0 0 -1
542 32 8 0.13 12.825620560339688 16.507118729280954 32.776728090440926 0 0 0
2260 108 6 0.06 20.38516709739072 17.412717665729872 26.04065824447467 0 0 0
2258 108 6 0.06 19.305402808869545 18.225022856787554 27.117111378406456 0 0 0
1713 87 11 -0.8 14.737653308455855 20.19259509095329 26.907450406727065 0 0 0
2259 108 6 0.06 19.591766923239277 18.959973300298138 25.51232661920863 0 0 0
1217 67 6 0.06 14.864944952373552 14.633212643393598 31.368628269842105 0 0 0
1735 87 6 0.06 19.923178087481347 14.696879208650756 25.837030562139724 0 0 0
2456 159 14 -0.8476 19.577869022954708 14.667490837664657 32.29974545694393 0 0 0
1730 87 12 -0.18 19.626233851758627 14.797720960370006 26.88096137922689 0 0 0
1727 87 4 -0.12 18.13728679172257 15.071094649573656 27.026586339655807 0 0 0
1725 87 6 0.06 15.517489920665968 14.722142141345671 28.33916733626878 0 0 0
1731 87 6 0.06 17.907640422728416 15.954068076785656 26.430132675056967 0 0 0
1733 87 6 0.06 20.14867132646758 15.641807680947824 27.331198168533675 0 0 0
1723 87 6 0.06 15.673046704597496 16.535929535104138 26.723981809436886 0 0 0
1718 87 4 -0.12 15.603462588739065 16.786523726694604 27.782517152163905 0 0 0
2638 220 13 0.4238 14.993914552004965 18.988947935240617 25.54009077449615 0 0 0
1726 87 6 0.06 15.96842856214963 15.776668464633264 29.66934360432218 0 0 0
1729 87 6 0.06 18.104848584773087 15.993923843138866 29.019268891443524 0 0 0
1722 87 6 0.06 16.261219932318177 17.645600879051074 27.914722172002307 0 0 0
1721 87 4 -0.12 16.149314864456805 15.566377482710932 28.615211600851296 0 0 0
2457 159 13 0.4238 19.599421584757238 15.642700628256545 32.07944191681067 0 0 0
1724 87 4 -0.12 17.636632466477828 15.178152008058555 28.46842725829149 0 0 0
2967 329 13 0.4238 18.83968361955028 17.97158593271063 31.202456869948385 0 0 0
2683 235 13 0.4238 18.19165051512536 19.376536053368454 29.37303090328902 0 0 0
2966 329 14 -0.8476 19.186540040611128 17.319867408415604 31.87698254661874 0 0 0
535 32 5 0.08 15.635298342528767 19.50599229732761 30.91270320737958 0 0 0
2364 128 13 0.4238 16.482393448314603 19.651111056261342 27.160344957666744 0 0 0
2363 128 14 -0.8476 17.481086291987808 19.641107439886305 27.109911810926114 0 0 0
2362 128 13 0.4238 17.694958976406028 20.217431972328555 26.321153760952917 0 0 0
2684 235 14 -0.8476 18.01904850697903 19.525407071905732 30.346723303569377 0 0 0
2255 108 12 -0.18 20.042860742402127 18.404895122915153 26.33484654023333 0 0 0
529 32 2 0.2 14.970467345229078 20.03064258192188 31.59890895726201 0 0 0
2685 235 13 0.4238 17.68264014549579 20.463475176438656 30.429724475104948 0 0 0
534 32 5 0.08 15.688522838231139 20.314432387119567 32.36832183460398 0 0 0
2965 329 13 0.4238 18.462234927337803 17.217448330739067 32.55883710438167 0 0 0
541 32 6 0.06 14.913844884072958 17.189228536912452 31.845587103709725 0 0 0
2238 108 11 -0.8 22.757617566865704 16.21944199912359 32.81224484010847 0 0 0
2257 108 6 0.06 20.858157882440885 20.351379238500854 26.797159086984863 0 0 0
2256 108 6 0.06 21.947987353193803 19.21927533366094 25.914113182423975 0 0 0
1210 66 6 0.06 25.79083526937285 20.437507702007537 25.963852892355753 0 0 0
2253 108 6 0.06 22.75899800225303 19.87442890038691 28.05482314250426 0 0 0
2254 108 6 0.06 21.275116046224966 19.50963077793697 28.900441151464506 0 0 0
2249 108 4 -0.12 21.923173293833372 19.175653163681503 28.090121914749382 0 0 0
637 38 5 0.08 20.892826172306258 19.367057954902144 32.37416664769955 0 0 0
2252 108 4 -0.12 21.213996643980337 19.324518596957823 26.713061238539645 0 0 0
2244 108 6 0.06 23.841951068185736 15.528738445926335 29.57058154694311 0 0 0
2241 108 6 0.06 25.596032957248376 15.661787250025029 31.242898257761524 0 0 0
2236 108 9 0.7 23.67901124506499 15.556823673630088 32.234743575281286 0 0 0
2237 108 10 -0.22 24.67095526631624 16.230502695406628 31.337399186627557 0 0 0
2240 108 4 -0.12 24.18847903698066 16.49791433403333 29.929403103939805 0 0 0
2251 108 6 0.06 23.179224605835408 17.62007279039384 27.505345101460456 0 0 0
2250 108 6 0.06 21.717511049046387 17.072378701775712 28.139076684224342 0 0 0
2246 108 4 -0.12 22.494392258371107 17.81241614697288 28.331265934328584 0 0 0
2243 108 4 -0.12 23.04731128269438 17.605351538641415 29.764623733601496 0 0 0
2248 108 6 0.06 22.173539887902216 17.28888722292777 30.33428190672341 0 0 0
2247 108 6 0.06 23.415527697236968 18.564320365985928 30.129222115099772 0 0 0
2242 108 6 0.06 24.967543955383157 17.12892403829428 31.8787038398031 0 0 0
2245 108 6 0.06 25.016117047323426 16.728083624942194 29.2584530747582 0 0 0
306 18 8 0.13 25.00699496589082 19.86581284486069 28.976590925334136 0 0 0
304 18 8 0.13 26.41567138070873 18.77634540868219 29.492963026755824 0 0 0
301 18 7 -0.32 25.891107218990754 19.725979054193843 29.598626728985167 0 0 0
1200 66 6 0.06 25.93218435765413 16.354184249913594 26.394414361772583 0 0 0
305 18 8 0.13 25.493340821127774 19.887321311990007 30.60056833437836 0 0 0
644 38 8 0.13 25.179554259942186 20.603493631951345 32.54053740934888 0 0 0
1203 66 6 0.06 28.355104168613238 18.113185915995317 25.783312591702078 0 0 0
303 18 6 0.06 27.092199339485454 20.68262188707474 28.13102780182256 0 0 0
1109 62 6 0.06 29.560838278672215 20.13979315987833 25.347776493512484 -1 0 0
279 17 5 0.08 32.46336469230328 18.341057059051458 29.951528087948006 -1 0 -1
274 17 2 0.2 32.495839444296976 18.19172545124303 31.030778742204483 -1 0 -1
1191 66 6 0.06 31.18902303900225 14.703692824815128 26.608570012758328 0 0 0
1187 66 10 -0.22 30.293904539332225 14.740066212948063 27.22951795586976 0 0 0
280 17 5 0.08 32.417125231115385 19.213756858101107 31.401443575638424 -1 0 -1
1190 66 4 -0.12 29.22764579687132 15.274652644457387 26.212633364262977 0 0 0
1108 62 6 0.06 30.865354563956373 19.192964001274227 26.02467608934443 -1 0 0
1105 62 12 -0.18 30.50380435329553 20.212375592335206 25.889702059564684 -1 0 0
1198 66 6 0.06 27.391438451947913 14.692304458967458 27.179241953280545 0 0 0
1204 66 6 0.06 27.045780610225606 18.289262807783963 26.972947464332705 0 0 0
1195 66 6 0.06 29.580113983686047 16.190715242890377 25.738574282128965 0 0 0
1199 66 4 -0.12 27.287036107626854 17.9804697744621 25.955804831032403 0 0 0
1196 66 4 -0.12 26.933986008127846 16.465030419237273 25.97939258626686 0 0 0
283 17 6 0.06 31.516418750112855 16.227904883470124 30.991626009593112 -1 0 -1
288 17 8 0.13 27.77226658926549 17.287130815062824 30.800053707855014 -1 0 -1
278 17 4 -0.12 31.271361447284242 17.244130315536452 31.300445143439603 -1 0 -1
1197 66 6 0.06 28.092775299590365 16.226521349754172 27.825064897575345 0 0 0
1192 66 6 0.06 30.586049633332365 15.46616752809959 27.988177708023194 0 0 0
284 17 7 -0.32 28.688627085132723 16.861176981616964 31.20868961461796 -1 0 -1
286 17 6 0.06 29.99955322961926 18.809256558201383 31.2119736638346 -1 0 -1
1193 66 4 -0.12 27.897827379688017 15.626458557562623 26.936213685067486 0 0 0
285 17 6 0.06 29.900913060741026 17.89334213285943 29.709289033068387 -1 0 -1
281 17 4 -0.12 29.939084624615212 17.8039783573491 30.79496558424151 -1 0 -1
289 17 8 0.13 28.84800502732824 15.812574499894078 30.95735711950288 -1 0 -1
282 17 6 0.06 31.31335478185884 16.944330578241477 32.34758079773518 -1 0 -1
1107 62 6 0.06 29.365253907129627 20.30686798946524 27.61510377522451 -1 0 0
1103 62 6 0.06 31.57136007678234 20.107930145255978 28.655236633777072 -1 0 0
302 18 6 0.06 27.913674432545058 20.30982707470995 29.669900146127503 0 0 0
298 18 4 -0.12 26.9955741040246 20.68383993685371 29.216752705787954 0 0 0
287 17 8 0.13 28.714067776260393 16.854212190244176 32.29838717289723 -1 0 -1
1298 70 6 0.06 8.204368520810991 20.81150162835695 27.191050280541944 0 0 0
1293 70 4 -0.12 7.128010773282527 20.69939643779449 27.321522112352817 0 0 0
1306 70 6 0.06 3.26008577421788 22.88291057968258 25.706486156884004 0 0 0
1300 70 6 0.06 6.82717475741398 21.979942977882146 25.70358077391218 0 0 0
1671 85 4 -0.12 5.791581137717859 21.92019664235243 31.822854870445575 0 0 -1
1676 85 6 0.06 6.871158976911347 21.796160090375977 31.737631416525467 0 0 -1
1302 70 4 -0.12 4.236260434591179 23.17785488972222 26.091489285525967 0 0 0
1304 70 6 0.06 4.56876889973727 21.030814303778797 26.177865436503353 0 0 0
1303 70 6 0.06 4.529915167773366 21.82858600677342 27.70219483493849 0 0 0
1299 70 4 -0.12 4.9206018127802755 21.926769973458406 26.689347177380988 0 0 0
1301 70 6 0.06 6.838988807053278 22.797444874482018 27.22844489760329 0 0 0
1674 85 4 -0.12 5.511578594499834 23.417761907598702 31.884724584056627 0 0 -1
1296 70 4 -0.12 6.461781458853936 21.905678686554985 26.727841040811967 0 0 0
1677 85 4 -0.12 6.044390930345303 24.054069912394894 30.626997114156524 0 0 -1
1682 85 6 0.06 7.073411813011624 23.821916062584535 30.352484527675173 0 0 -1
1675 85 6 0.06 5.254760549466347 21.43252966037298 31.009134332821418 0 0 -1
1681 85 6 0.06 5.375254499172746 23.613426837296487 29.887925650475964 0 0 -1
1294 70 6 0.06 7.216249999956318 21.504473268655723 29.287371256794337 0 0 0
1680 85 12 -0.18 5.83425985144199 25.551939178699826 30.552250665067113 0 0 -1
1305 70 12 -0.18 4.196035501341636 24.347448455612202 27.05068822700494 0 0 0
1308 70 6 0.06 3.5002283285486957 25.11101255857448 26.702897047559134 0 0 0
1310 70 6 0.06 5.199796434979563 24.756790317291262 27.164880053343524 0 0 0
1685 85 6 0.06 4.772610261319681 25.798721128519297 30.56388159680162 0 0 -1
1309 70 6 0.06 3.7677309674537787 23.93524414986755 27.964350796430054 0 0 0
1683 85 6 0.06 6.360606919055413 26.0827760370506 31.34553968637119 0 0 -1
1684 85 6 0.06 6.327485416453712 25.86867379143957 29.633259784122167 0 0 -1
1679 85 6 0.06 4.452705623409857 23.675532793410596 31.862844671598538 0 0 -1
1966 97 6 0.06 8.486597660698552 25.68213725712568 31.029025573567246 0 0 -1
1098 62 6 0.06 2.539485046073854 22.520131950253635 30.186072897940882 0 0 0
1678 85 6 0.06 5.9339479812531195 23.87750604397224 32.77824339158658 0 0 -1
2836 286 13 0.4238 12.077397567044358 23.34083640664152 32.33264330461744 0 0 -1
377 23 3 0.35 10.882352079772954 25.612156135225725 32.709929707428174 0 0 -1
2837 286 14 -0.8476 13.074551720348607 23.284260261003013 32.282508129288566 0 0 -1
2540 187 14 -0.8476 11.407916030705211 20.842040520444776 30.320849141008594 0 0 -1
532 32 3 0.35 13.929094420055128 20.88694107008301 30.09417291297337 0 0 0
528 32 1 -0.48 14.452757732476918 21.18641179942881 30.90425040550648 0 0 0
2838 286 13 0.4238 13.251077772725724 24.241881011948628 32.054841123202394 0 0 -1
91 6 4 -0.12 12.032370821237107 22.505483046129896 25.411663427563532 0 0 0
99 6 6 0.06 11.692232044950128 24.16107616299437 26.698202500405294 0 0 0
2563 195 13 0.4238 10.254051878736636 21.924894906053872 31.10433515014335 0 0 -1
2564 195 14 -0.8476 9.638764803656388 22.5448964626908 31.59121508825028 0 0 -1
1962 97 10 -0.22 9.04216433321128 26.105123362276657 30.192028052645085 0 0 -1
1967 97 6 0.06 8.896142541114708 25.59032894326814 29.242396107139427 0 0 -1
101 6 8 0.13 9.449300913057648 22.585458227367475 25.51269173731321 0 0 0
100 6 8 0.13 9.108282719849758 24.191852091074622 26.18099014526957 0 0 0
97 6 7 -0.32 9.78929299686105 23.34166550917785 26.220287996138218 0 0 0
94 6 4 -0.12 11.21122966522399 23.732622188173536 25.8188843398641 0 0 0
102 6 8 0.13 9.965787695447748 22.974506083827293 27.231317230309415 0 0 0
95 6 6 0.06 12.20065291252136 21.858384073548883 26.27252377161261 0 0 0
2691 237 13 0.4238 13.238942701497853 26.102007127909594 30.499309533745866 0 0 -1
2835 285 13 0.4238 13.032128487723973 22.315381298693218 28.475843579400312 0 0 -1
2690 237 14 -0.8476 14.010553683311938 25.67686185574042 30.972489702534162 0 0 -1
1961 97 9 0.7 10.525841509437862 25.90389076510953 30.48567871026429 0 0 -1
93 6 5 0.08 14.122268788620907 23.112493915759707 25.72346696401241 0 0 0
1964 97 11 -0.8 11.384741799611891 26.70773023345064 30.06949372011701 0 0 -1
1963 97 11 -0.8 10.855265474154415 24.927482311809023 31.22289287299924 0 0 -1
2834 285 14 -0.8476 13.414580264683853 23.235575184240453 28.559539772448346 0 0 -1
2787 269 13 0.4238 12.363629322396609 26.34520482794946 28.668705200250038 0 0 0
2785 269 13 0.4238 12.883237810587534 24.989201359217795 28.15838720970362 0 0 0
2565 195 13 0.4238 9.921796631182175 23.480671446449485 31.380856509036676 0 0 -1
2786 269 14 -0.8476 13.006360363709666 25.96909263895739 28.001270975173703 0 0 0
915 54 6 0.06 9.64088526318125 26.70507293403338 25.36556244947395 0 0 0
530 32 3 0.35 13.890444597241034 21.819841479483863 31.454434246225517 0 0 0
2598 206 13 0.4238 14.58820936811112 26.499037177249498 27.87251926578206 0 0 -1
2833 285 13 0.4238 14.3459843387824 23.23656589278496 28.1955115685761 0 0 -1
2045 100 6 0.06 19.623855729293126 21.932288060095125 26.089703307125156 0 0 0
2703 241 13 0.4238 15.321580483847159 25.642081432723693 32.23219469853286 0 0 -1
2689 237 13 0.4238 14.632974660436453 25.318972701501778 30.27640184457097 0 0 -1
2043 100 4 -0.12 19.809038562898593 24.013594125727195 25.65849761374536 0 0 0
2047 100 6 0.06 18.810725344882286 24.39073021093921 25.880478517091483 0 0 0
2483 168 14 -0.8476 17.165919237449337 25.0116518481177 29.733737841735092 0 0 0
531 32 3 0.35 15.220144660372789 21.69677052834895 30.490991870807527 0 0 0
2514 178 13 0.4238 16.974489144302904 22.072382098130788 28.822841289225536 0 0 -1
2512 178 13 0.4238 17.536517693848026 23.01908652247146 29.930029018676834 0 0 -1
2781 267 13 0.4238 15.37434392904874 21.462281968388957 27.382994985260737 0 0 0
2779 267 13 0.4238 16.251847090669223 22.521714082585305 26.576045529256078 0 0 0
2780 267 14 -0.8476 15.967426293919457 22.259171034283987 27.49811206030548 0 0 0
2513 178 14 -0.8476 17.192767505107135 22.08925148828589 29.79859926543073 0 0 -1
2596 206 13 0.4238 15.665108409532625 26.497230107092427 26.665848256396025 0 0 -1
2482 168 13 0.4238 16.889681023452663 25.71612082270714 29.079943627839633 0 0 0
2060 100 6 0.06 19.598121164090024 24.944169042935755 30.762268887562378 0 0 0
2484 168 13 0.4238 17.246355928193793 25.551410200952127 30.57172445706248 0 0 0
2054 100 6 0.06 19.292668441326505 24.315912719673378 28.288147949477803 0 0 0
2058 100 6 0.06 19.846771396523984 23.129947634071414 30.742001048984584 0 0 0
2055 100 12 -0.18 20.299452193231836 24.11727744202632 30.6503689198343 0 0 0
2053 100 6 0.06 20.168250388262273 22.759443281083918 28.059551063615707 0 0 0
2049 100 4 -0.12 20.259056166579747 23.844537636006294 28.109159690151728 0 0 0
2702 241 14 -0.8476 16.15169434173219 25.653652681790888 32.78969686708514 0 0 -1
2597 206 14 -0.8476 15.552158826055884 26.643055669146136 27.64870553758533 0 0 -1
1951 96 6 0.06 22.399906897040943 26.357397082886656 25.382573843733333 0 0 0
638 38 4 -0.12 23.09467155834742 20.853878541759343 32.57505551414688 0 0 0
641 38 7 -0.32 24.480344533052353 21.404972969603996 32.77901816826115 0 0 0
2059 100 6 0.06 20.996788700712614 24.15343361728781 31.48735812652935 0 0 0
2056 100 6 0.06 21.46459978630653 25.229889839137755 29.260138532415958 0 0 0
2052 100 4 -0.12 21.139258706942535 24.195163379323063 29.36798434484797 0 0 0
2057 100 6 0.06 21.955099420456918 23.502038747682043 29.57321278822893 0 0 0
643 38 6 0.06 22.88995225230488 20.704883245878413 31.5148541481241 0 0 0
2051 100 6 0.06 21.768097465624216 24.149647542278565 26.50383507516336 0 0 0
2050 100 6 0.06 20.725347792876867 25.532881736187257 26.812727311660808 0 0 0
2046 100 4 -0.12 20.74856605657412 24.444807092614077 26.75197421796419 0 0 0
2320 114 13 0.4238 25.620233206625606 24.839325941961896 32.10292229234565 0 0 0
2321 114 14 -0.8476 25.05891311631182 25.0665474853687 31.307107206890457 0 0 0
297 18 5 0.08 26.477835623619107 23.2500114805883 27.89954362742641 0 0 0
294 18 3 0.35 26.092535968550763 24.58723746513826 30.069431490028812 0 0 0
299 18 6 0.06 25.641174739595556 22.29483703306026 30.12056946091156 0 0 0
295 18 4 -0.12 26.66630081376313 22.11146172683472 29.798658698085816 0 0 0
2322 114 13 0.4238 24.54798100746725 25.83789400653557 31.686586221202262 0 0 0
1945 96 6 0.06 24.579099311101608 25.857169547208095 26.57942041364177 0 0 0
645 38 8 0.13 24.7103164654794 22.215986087182095 32.08799923614729 0 0 0
1944 96 6 0.06 23.215647226226544 26.373050875996817 27.555290439821178 0 0 0
1940 96 4 -0.12 24.11094260251869 26.725495909952222 27.04307453728636 0 0 0
1942 96 6 0.06 25.069084528059705 26.458643682619936 28.914265816075904 0 0 0
2546 189 14 -0.8476 27.637805524581353 22.98150436881828 25.599214704725973 0 0 0
1102 62 4 -0.12 30.130060249433235 20.941604327180663 27.167535256364246 -1 0 0
1110 62 6 0.06 31.288095048104708 20.768217210502208 25.375829763493194 -1 0 0
1101 62 6 0.06 30.005107722186573 21.783583196256536 29.875681590412995 -1 0 0
1097 62 6 0.06 32.073334737776364 21.129623717660444 30.873858718423357 -1 0 0
1099 62 4 -0.12 31.25646201433854 21.07035045224208 28.251847386101893 -1 0 0
293 18 3 0.35 26.994069689291067 25.349422265011953 28.834918388101748 0 0 0
290 18 1 -0.48 26.862893992077296 24.53541304234769 29.41828304429459 0 0 0
291 18 2 0.2 27.063983385682462 23.257061974997676 28.818520025870747 0 0 0
2547 189 13 0.4238 27.709986232673835 23.97881759271089 25.612906168541016 0 0 0
300 18 6 0.06 27.185659840684266 22.124436603558237 30.756904139491745 0 0 0
296 18 5 0.08 28.07253807518697 23.23605690909178 28.40558822705345 0 0 0
2762 261 14 -0.8476 28.096141328225364 25.719322832094953 25.779713290136726 0 0 0
2763 261 13 0.4238 29.0268807563561 25.963839230504426 26.051681244799973 0 0 0
2761 261 13 0.4238 27.706936882683387 26.02849256439066 26.64744866312529 0 0 0
292 18 3 0.35 27.606063936277337 24.576513334509016 30.101028069469017 0 0 0
2755 259 13 0.4238 30.67192168549697 24.84620157979407 25.382265734216595 0 0 0
2870 297 14 -0.8476 30.62659892489347 26.04523814591947 27.039791965475537 0 0 0
1104 62 6 0.06 32.18351109327738 21.44554535586041 27.818320858090686 -1 0 0
1090 62 4 -0.12 31.4298259659328 22.97580738827083 31.833110507502028 -1 0 0
1106 62 6 0.06 29.72570874445171 21.919997134626847 26.907951134014723 -1 0 0
1100 62 6 0.06 30.843036294331135 23.091326738987753 28.952405625922147 -1 0 0
1096 62 4 -0.12 30.924973611205914 22.091366495543618 29.378436534715597 -1 0 0
1093 62 4 -0.12 31.900985388494632 22.162338656656026 30.570655759584817 -1 0 0
2467 163 13 0.4238 29.43807345069557 25.48167739014368 30.774668000824747 0 0 0
2469 163 13 0.4238 29.096912335021607 24.626284676188874 32.14658474107448 0 0 0
2468 163 14 -0.8476 28.858992828615662 24.778511787488917 31.187287090153397 0 0 0
1095 62 6 0.06 31.135681363809866 23.972265711052934 31.503434636819108 -1 0 0
1091 62 6 0.06 29.49593162905375 22.01333569467961 32.38786173333702 -1 0 0
2869 297 13 0.4238 30.597061073170416 26.368822235967627 27.985547012269976 0 0 0
1938 96 11 -0.8 27.33697975015562 26.61556726480137 28.043532423237977 0 0 0
1094 62 6 0.06 32.31255344802956 23.267485011032527 32.40219120688082 -1 0 0
1047 60 6 0.06 2.6252807388519575 31.303704397574585 27.935609367143833 1 0 0
916 54 8 0.13 7.598520925158658 28.03885722154847 25.564948815077877 0 0 0
1247 68 6 0.06 7.848892583273693 32.01608610467784 25.489944866959704 0 0 0
1054 60 6 0.06 2.687373674172379 29.31063040464111 25.36654075681995 1 0 0
1052 60 4 -0.12 4.7616070042818475 28.68867194334542 25.345450066366126 1 0 0
1056 60 6 0.06 4.586562242079209 27.613606875698487 25.30384759768973 1 0 0
1050 60 6 0.06 3.1065160742398237 28.2529565994884 27.698200974444866 1 0 0
917 54 8 0.13 7.624707323772139 26.83266690695863 26.893742082511828 0 0 0
1259 68 6 0.06 6.034780566775726 32.27695108600449 31.338871531647804 0 0 0
1255 68 12 -0.18 5.799484047470651 32.38755629629194 30.280316678859982 0 0 0
1260 68 6 0.06 4.747839927650054 32.62310539965953 30.116922153663808 0 0 0
913 54 7 -0.32 8.103470097308268 27.71846765759868 26.476273855497055 0 0 0
1258 68 6 0.06 5.818075126228413 31.382263644610553 29.859392013482115 0 0 0
918 54 8 0.13 7.925885079301784 28.54022750349882 27.170039537875418 0 0 0
1057 60 6 0.06 5.650456021455933 28.728523711433553 25.97512912289958 1 0 0
1975 97 6 0.06 7.587403152138044 29.985178236963193 31.543753674468704 0 0 -1
1253 68 6 0.06 6.380971050497748 32.0238896912204 27.70082754212099 0 0 0
1053 60 6 0.06 3.842455185127907 30.544316396426936 25.782709569086762 1 0 0
1049 60 4 -0.12 3.586739376047766 29.498499491683106 25.9530414617276 1 0 0
1051 60 6 0.06 4.342785656904814 29.28809140024009 27.968279405735828 1 0 0
1046 60 4 -0.12 3.3599559995092223 29.293823327591213 27.496951975671664 1 0 0
1045 60 6 0.06 3.0167511817001977 30.020315276834587 30.140095734789327 1 0 0
1973 97 6 0.06 8.248932405489146 28.02756538286107 32.338722739883934 0 0 -1
1969 97 6 0.06 7.650249628651126 27.77121891743807 30.055049376269636 0 0 -1
118 7 8 0.13 4.160658884930659 28.695007103701812 32.80781827561927 0 0 -1
1979 97 6 0.06 8.942997395946303 31.761928458083894 32.382244683828986 0 0 -1
1982 97 6 0.06 11.37541950658378 29.904331587403256 32.69380995395582 0 0 -1
1977 97 4 -0.12 10.933266857714314 30.87731141933031 32.47945554910999 0 0 -1
1971 97 4 -0.12 8.66425039282623 29.854185104931105 31.437089135240022 0 0 -1
1976 97 6 0.06 8.902767116711075 30.20261831773822 30.432180899112076 0 0 -1
904 54 3 0.35 13.497761825938854 29.55763669379968 25.287429410804158 0 0 0
914 54 6 0.06 9.990762867762953 26.985386546727838 27.085721587145258 0 0 0
910 54 4 -0.12 9.546516888248036 27.414598890547744 26.187635391419377 0 0 0
1965 97 4 -0.12 8.70552176199675 27.61711392356561 30.280413108909322 0 0 -1
1981 97 6 0.06 11.283324786356 31.337169253184605 31.555265767302856 0 0 -1
1968 97 4 -0.12 8.97397054725402 28.328172535953726 31.582355395762747 0 0 -1
909 54 5 0.08 12.177073909229884 27.447069623650258 25.58624761817707 0 0 0
1972 97 6 0.06 9.998446566008209 28.283361242433244 31.951919146161593 0 0 -1
1970 97 6 0.06 9.139804546045939 28.07898951449348 29.393730626899206 0 0 -1
1239 68 11 -0.8 11.27959485532222 31.7834040014747 25.457514288250543 0 0 0
912 54 6 0.06 9.900165411456815 29.50907573025144 26.247980162457125 0 0 0
907 54 4 -0.12 10.290170453117582 28.656275408099063 25.692314826864767 0 0 0
903 54 2 0.2 11.853592837313476 28.45779885902462 25.835090728316352 0 0 0
2934 318 13 0.4238 11.831200827494843 28.276442234873215 29.805870018546948 0 0 -1
2932 318 13 0.4238 13.223711589702587 29.025490519465535 29.48976128097661 0 0 -1
2933 318 14 -0.8476 12.241323679662912 29.16750080822498 29.61132787858086 0 0 -1
908 54 5 0.08 12.146937912809694 28.627556240486662 26.871077017542994 0 0 0
2536 186 13 0.4238 11.634231994015517 31.548694900928986 27.164578856832748 0 0 0
2538 186 13 0.4238 11.899418433649307 30.769963020946186 28.520944677398795 0 0 0
2537 186 14 -0.8476 12.327054256946287 31.39669115293681 27.869507363240693 0 0 0
2359 127 13 0.4238 13.977323856657804 31.013552628816946 28.00395470455701 0 0 -1
381 23 5 0.08 11.92492740207675 27.75172008762759 32.6421767060639 0 0 -1
1974 97 4 -0.12 9.374053239340636 30.769638879766127 32.51524374428883 0 0 -1
1427 75 4 -0.12 18.42234553706821 32.4479771289451 30.017792152190204 0 0 0
1432 75 6 0.06 17.60913788265418 31.723932717132122 29.966904839527132 0 0 0
1429 75 6 0.06 20.47651134987799 32.459437565614614 30.33502146890371 0 0 0
1420 75 6 0.06 20.084349121044994 28.14395500729472 31.795732439159238 0 0 0
2416 146 13 0.4238 18.72566494077678 27.412630677867625 31.73422857917363 0 0 0
2418 146 13 0.4238 17.200780142541063 26.85379013268266 32.01808010015453 0 0 0
2361 127 13 0.4238 15.31944994344435 30.553665599974437 28.682014952462154 0 0 -1
2417 146 14 -0.8476 17.787586617997626 27.365994121601474 31.39091412905652 0 0 0
2739 253 13 0.4238 15.244341331492368 30.571091249748974 26.11232981342487 0 0 0
2360 127 14 -0.8476 14.960609248680276 30.945682739385482 27.834910070856957 0 0 -1
2663 228 14 -0.8476 14.971508214560448 28.63731315684511 29.549044898127825 0 0 0
2664 228 13 0.4238 15.746717686334934 28.382130413271653 30.126940081475865 0 0 0
2662 228 13 0.4238 15.161975104416868 28.13506958667621 28.705537261786283 0 0 0
1428 75 6 0.06 20.045919935554032 31.388690993881305 29.022077998465917 0 0 0
1424 75 4 -0.12 19.75171219128459 31.707929622380746 30.021910492982606 0 0 0
1426 75 6 0.06 18.868017233754017 29.80844744650208 30.767007811673366 0 0 0
1425 75 6 0.06 19.413299917029313 30.780709394544708 31.97083760190418 0 0 0
1421 75 4 -0.12 19.687169049552494 30.503103590303418 30.952963750938267 0 0 0
683 41 3 0.35 26.66621929742913 32.48281878566837 28.103374229508738 0 0 0
2169 105 6 0.06 22.927190159158393 32.68535963322347 26.950657451280946 0 0 0
2161 105 9 0.7 24.07333750109511 32.28884911941854 29.546378899722107 0 0 0
2164 105 11 -0.8 23.687558745054147 32.207120981784556 30.73399497697114 0 0 0
1950 96 6 0.06 21.602603779637036 27.8936472534468 26.024647348204226 0 0 0
803 48 3 0.35 24.718092069167525 29.972969573764665 32.27869512183193 0 0 0
1415 75 4 -0.12 20.973649086514406 28.695139828265404 32.101473104497295 0 0 0
1416 75 6 0.06 21.723056365069 26.9446590746019 32.753479811163075 0 0 0
1943 96 4 -0.12 23.733986872063127 27.784823036781162 26.014860329672857 0 0 0
2168 105 4 -0.12 24.726456592945375 31.633165367902215 26.18461809978887 0 0 0
1946 96 4 -0.12 22.39451474547952 27.446625815333455 25.423660331992693 0 0 0
2170 105 6 0.06 22.613655619760422 31.00733891865753 26.62464676089091 0 0 0
2172 105 6 0.06 25.41622729588878 30.95325624524604 26.68469454628695 0 0 0
804 48 3 0.35 24.764094817996842 31.30955681626338 31.43193038761988 0 0 0
1948 96 6 0.06 23.558331258395356 28.77441063565834 26.43675837760796 0 0 0
2162 105 10 -0.22 23.537046072351643 31.30206734549226 28.46354445571496 0 0 0
2167 105 6 0.06 24.059516665131873 30.35226793625519 28.57774635043821 0 0 0
2580 200 13 0.4238 26.137053039912765 27.564611707935782 32.082709884615916 0 0 -1
1417 75 6 0.06 22.17951121300875 27.149480085609042 31.090242647693046 0 0 0
1423 75 6 0.06 21.87488482838551 30.53183450131283 31.25876100860401 0 0 0
2166 105 6 0.06 22.499838279200453 31.285381253339196 28.798295065318534 0 0 0
2329 117 13 0.4238 26.754655341511587 28.98183642600536 25.596572161377964 0 0 0
802 48 3 0.35 25.955052630883472 30.31641561371117 31.152062842436024 0 0 0
1936 96 9 0.7 26.478025787358625 27.500928502749048 27.808728555767757 0 0 0
2165 105 4 -0.12 23.38475990334186 31.696214518544565 26.969588902215634 0 0 0
1941 96 6 0.06 24.595950774447772 28.10921782393961 28.683857836258724 0 0 0
1947 96 6 0.06 24.493840909876084 27.901756070558825 25.24214754307436 0 0 0
1937 96 10 -0.22 25.019817944388627 27.249167178698045 28.1654121115348 0 0 0
1412 75 10 -0.22 22.116359680402446 27.672964538701862 32.04424069255467 0 0 0
800 48 1 -0.48 25.366749457150476 30.649573195549564 31.90242067371438 0 0 0
1422 75 6 0.06 21.27507613313489 29.251935443354462 30.176499258277246 0 0 0
1418 75 4 -0.12 21.075028635469685 29.81060925040797 31.090830207349292 0 0 0
1414 75 11 -0.8 24.5063128205718 27.620581759888488 32.20137628327594 0 0 0
1411 75 9 0.7 23.43460229663937 28.067842773018505 32.61718349948554 0 0 0
2173 105 6 0.06 25.194036961253545 32.59901437461484 26.37603557911421 0 0 0
2606 209 14 -0.8476 29.73291808747807 27.08951489387522 29.317738889035518 0 0 0
1043 60 4 -0.12 32.660992265434594 30.261052268472376 28.084317771882233 0 0 0
1044 60 6 0.06 32.023546412247285 28.968183345537184 29.63716916572219 0 0 0
2765 262 14 -0.8476 26.99051485307927 29.94215917639513 29.66962728232123 0 0 0
1038 60 11 -0.8 29.52196902052269 29.582887624355187 29.79920776030461 0 0 0
682 41 2 0.2 28.212163512295746 32.57438333118575 26.670263951176388 0 0 0
2769 263 13 0.4238 30.479723572130638 28.683744259983612 25.783720832446328 -1 0 -1
1037 60 10 -0.22 31.41523549210045 30.9553630697663 30.262076005717454 0 0 0
2607 209 13 0.4238 29.753538944037594 28.03748437682468 29.63547965001765 0 0 0
1048 60 6 0.06 31.71227541489175 30.193575003073327 27.551852123449606 0 0 0
1485 77 6 0.06 32.721155026682666 32.73206997144879 32.24523558248597 0 0 -1
805 48 4 -0.12 27.073809659300252 32.28276230250967 32.613116110983064 0 0 0
2605 209 13 0.4238 28.894579362273475 26.899625025123377 28.80669996106672 0 0 0
2579 200 14 -0.8476 27.10468878061674 27.57079154145609 31.83037342410298 0 0 -1
2578 200 13 0.4238 27.196620796835873 28.22079472496101 31.076002770240677 0 0 -1
1939 96 11 -0.8 26.8637153912696 28.644197995204962 27.393181287593585 0 0 0
2766 262 13 0.4238 27.0387822053033 29.586355218863105 28.736296445300056 0 0 0
1042 60 6 0.06 31.731372587533613 31.958707985566782 29.97660678519847 0 0 0
1039 60 11 -0.8 29.200483846875606 31.73412228751237 29.784060279839323 0 0 0
116 7 6 0.06 32.28220245630242 28.117094576233896 31.7035367671362 -1 0 -1
1041 60 6 0.06 31.532333898563287 30.82459763028342 31.337866357471896 0 0 0
694 41 6 0.06 30.531465176240623 31.54430750031466 25.460553431477038 0 0 0
688 41 5 0.08 28.191694488951136 31.495035673313048 26.51951189137236 0 0 0
2871 297 13 0.4238 31.084911703972168 26.849644935263512 26.661757361609027 0 0 0
689 41 4 -0.12 30.349840591900353 32.61890947454098 25.44107076059879 0 0 0
690 41 6 0.06 30.094529209581566 32.687693627376206 27.55626772167409 0 0 0
110 7 5 0.08 29.831999601726494 28.028464302890093 32.16165429625398 -1 0 -1
1040 60 4 -0.12 32.399072894553804 29.989840862039713 29.57944360267689 0 0 0
2510 177 14 -0.8476 29.40923177889465 29.163882008766173 27.10369816798783 0 0 0
1036 60 9 0.7 29.945535582872388 30.73824753082122 29.883250193206287 0 0 0
684 41 3 0.35 28.126823080339335 32.42992532879424 28.69086191708039 0 0 0
810 48 6 0.06 27.85390215421082 31.8532291442763 31.984551533645522 0 0 0
2509 177 13 0.4238 29.678945451825705 29.30525621162289 28.05622095358251 0 0 0
2511 177 13 0.4238 28.49444853014826 28.817511967673184 27.311622117713377 0 0 0
2764 262 13 0.4238 27.963218063356813 30.157393002045694 29.756555671348444 0 0 0
111 7 4 -0.12 32.3411805158151 28.21296514839151 32.787726301877285 -1 0 -1

Velocities

952 -0.006661564776611696 0.0020623392155100645 -0.003365014820723783
955 0.00541786659329599 -0.006086916330223549 0.0005683799775373227
960 0.0002887387333303142 -0.007850093306197067 0.005750949285016845
949 0.0005831374645729142 -0.012552975382299011 0.003221578026723169
959 0.000674794678966633 -0.013050908563690273 0.0016009151509722116
953 -0.014782593714685986 -0.002255864192979078 0.018857837087574655
956 0.00029992339903990616 -0.0025787459889836544 -0.006156129129801151
958 -0.02037036018017982 0.005602814278531146 0.00046629713912151055
954 0.0023847402856428134 -0.0007602402878358985 0.011657583011857047
957 -0.011726240614423499 -0.009739228389261317 -0.003271529125936624
946 0.0007967240425453834 0.003143850766711238 0.0026335732343550737
951 0.0009598868886121981 0.007722826702676198 0.0068542316418384016
983 -0.01565553287675311 0.01957412273651653 0.022633002770312955
2081 -0.011806549824595692 0.00702084898507064 0.034544163957729156
1928 -0.023749972264489536 -0.016570633574884842 -0.010681529316536003
1528 -0.005676213204887756 0.034629050067153305 0.01809593732289006
984 -0.010456121840917631 0.012121924085582592 0.003033193115314481
980 0.0054669405777539315 0.00594599238061644 -0.0008211057146196628
985 0.005617897116208376 0.005985941653025131 -0.000625538432764469
1480 -0.000743050337106806 0.00546185855230447 0.0002831271201402107
1483 -0.006103654139018774 0.007590847688137614 0.0050639167489629905
1924 0.0010785931297649452 0.0003257207698219767 0.001048349050773982
1534 0.019258453248894917 0.016559067401054915 -0.03883902771569214
1907 0.0004720501702596842 0.017178154800775138 -0.021311935432085514
1931 -0.000995948877908751 -0.013976156672047345 -0.007538327996295608
1927 0.0017840441582001292 -0.008147913383457446 -0.0007932125951535373
1932 -0.023073054923909393 0.01199417663344616 -0.0036475111227354325
1532 -0.006575743516661831 0.003514938464004326 -0.005278546855490456
1533 0.008339529469223289 -0.02059707345212483 0.004541174370057617
1530 0.004450977664292675 0.0003893875573312585 -0.004183750117103906
1535 0.018753358648492275 0.007574220826345694 -0.028049042392448563
1527 -0.003906274167244382 0.002106156950681271 -0.0026379459402685753
1524 0.0019238273581954686 0.0020234910063709104 -0.0028466554410612028
1531 -0.0002150922415022661 0.002955801179648696 -0.012132822296042194
1529 -0.02086737181018602 -0.009335923054289692 -0.012671914449751
1276 0.00023209883485438842 0.0005206449020790558 0.0014429581976578155
1277 -7.336297508320898e-07 0.000856043887745783 -0.013993135742605637
1282 -0.006698675005871012 -0.009488502435318487 0.004732297426228605
1281 0.01784386888670519 -0.006780545205476232 0.001167689095052269
1507 0.0033852016164016437 0.01282595320880708 0.00011450030365469456
1278 0.03135252219675628 0.02302981701405903 -0.011901402910259245
1271 -0.0006794053228064688 -0.0029497719108956683 0.0014588074892173464
1274 0.0007744395105424237 -0.011747619550286628 -0.004562895646655704
1280 0.0033110047582333214 0.0036274480993459253 -0.00044813526300304995
1283 -0.019862813770522257 -0.011964840817751005 -0.0009181606204027311
1525 -0.001780748204935447 0.014995484007693972 0.009549972213727057
1526 -0.009373925137165534 -0.0038206048395991593 -0.006219577417014389
1521 0.00025256969973999247 0.004501150842435899 -0.003803442075830256
1902 0.004936204800642346 -0.0011364580800275205 -0.003038499327004427
1273 -0.008369129563109078 0.005142907337744283 -0.002050911810617054
1279 0.02366474741975147 0.020923017675207406 -0.029854240631266966
1275 0.009625230110870499 -0.00022230746374423289 0.012706169219241158
1272 0.01434716370552311 -0.0035025665920577695 0.004369303866087875
1268 -0.00645909222931488 -0.0005358209246409003 0.005248321376946974
1270 0.016637004938088323 -0.007330886787400841 0.022767210612293677
1269 -0.014985214800249533 -0.0186220670321534 -0.007119118993676027
1265 -0.003287130425947402 -0.0011041598928633292 -0.0020680109369184524
1651 -0.0090928423918261 -0.0008968632645196994 -0.0005133165654025539
1646 0.002617833853299434 0.00019871018797839172 0.005660266277119274
1650 -0.008083059987597977 -0.004774033042260775 0.006950149088509028
1656 -0.006605115337114481 0.007975984674640432 0.017685546012977563
1644 0.029415881095876305 0.02341359638923026 -0.00046737470992826857
233 0.0042943235061372025 -0.003249103646642736 0.0025485358816920906
66 0.037748065191825865 0.003780064221161773 0.004341936552256235
1800 -0.00811892516338887 0.013565506706808351 -0.013343704068317622
236 0.0006033522165697013 -0.006981217333769087 -0.010238348221410263
238 -0.0005981342022340426 -0.0005400848892959148 0.015762964288655975
231 0.00765383981699605 0.019519885313917556 0.009294445620045118
1267 -0.016084577474605632 0.00591758415471683 0.024479717294038035
1262 -0.004880876573554947 -0.0036693794390088917 0.0019405963802790534
1263 -0.004571623984430496 2.975525117185649e-05 -0.0021574879749055097
1285 0.007038294026644479 -0.012395292217324102 -0.037992465654789385
255 0.017359027739007025 -0.0014772810040645783 0.00718368028322214
227 -0.0004841182016286638 0.009019683930967592 -0.002652396522166986
727 0.007710535593506812 0.012161254256387264 0.0031385267506013753
237 0.004058201590979509 0.018616216378267877 -0.009155412563704638
1643 -0.0002471135463481567 0.0018158024175638368 0.0033023057025258784
1647 0.012891017049116577 -0.0015441130842522687 -0.011451714878393436
1640 0.002818081472642007 -0.00040585785657688427 -0.00561885634029083
1645 -0.002872256147061239 0.02558316158527324 -0.0017051464226272527
1648 0.001538923484721339 -0.0003463806129699152 0.004234746262568491
1641 0.015194099080106181 -0.01809068675585993 -0.012080650381563161
1642 -0.005552586168366605 -0.0019211708739989815 0.007390485030547178
1637 0.0003005343414034369 0.007991568365447482 -0.007965450477500665
2305 0.00035192430860563246 0.0012827574791087304 -0.0030306084194881913
2399 -0.0002527487500283704 -0.0017208051991938593 0.0013016230282955539
1636 -0.0024249667355706684 9.504946722990573e-05 -0.009460989811941727
2398 0.0025640684283506003 -0.006642268968880914 -0.00015847444859838037
1638 0.002167355173229686 -0.004492238714159678 0.0018565213040277924
1639 0.003098896154470474 0.0033874750015377717 0.0021903543060305527
2310 2.28129672108359e-05 -0.006454418467269694 -0.003817815761084856
230 -0.00678488336156654 -0.00761501447889006 0.003288478356735431
20 -0.005364663024638259 -0.0051814599246302545 0.019895890560733986
2400 0.0010376634006031642 -0.004502420709736816 -0.00714688859471524
235 -0.0031178410057224677 0.009885475535604572 -0.0032058894867555057
2309 0.009667342845431347 0.005405976262465131 -0.00786243840254493
2306 0.025850790611556748 -0.020303007377852646 -0.00015081735372293002
225 -0.00046153160040468023 -0.002139339298739234 -0.003331697565308024
2308 0.012102271538791122 -0.01726500346005515 -0.006650724800041259
2789 -0.0055159750685267106 -0.0013522478888727276 0.004334412082247333
527 -0.002157452607665441 -0.003239171190370054 -0.014877476343220347
969 -0.0002541019684830163 -0.0064300899634083765 -0.001786441017674003
241 0.007177283385278436 0.005388367317906654 0.00860494153569898
16 0.017184875746821152 0.005476817726255611 -0.00389374590029044
1796 0.001473861548515135 -0.0031616359510288055 0.004012425334375217
1801 -0.0027377273827328043 -0.008771665592521698 -0.00356351606640211
234 0.0014512278706966884 -0.006255361296692435 0.005332167772361617
2788 0.007511443302092169 -0.02077537528022652 0.006464697585842927
950 0.0005464884618495541 0.00505349575063898 -0.0014757472573088133
27 -0.0032661266835836457 -0.008474347744239141 -0.001446857599648994
977 -0.003016685343997597 0.006931658801064597 -0.0008634396814929398
982 0.01089920043117219 0.0022048225413904107 0.010274089380573191
978 0.024806283877835664 0.012764661602643152 0.010008834711194785
23 -0.002541461611667169 -0.007810408747765259 -0.002083174875002858
33 -0.0036760164031435583 -0.03354624282481487 0.0006947710498871347
32 -0.009603768430899912 0.010650987502119404 0.009033551640987396
34 0.010272656395632828 -0.00148284773439248 0.014320094584955378
29 0.0034366317374036875 -0.004742215667717187 -0.0012092944976222996
26 -0.000314389618457673 -0.003531556095450641 -0.00614452163090046
30 -0.005353735897438209 -0.01277501915009061 -0.001366418967429881
974 -0.0027742742745783017 0.0010727732156819887 -0.0018197517510065437
28 -0.012094438968845218 0.0015877186114881825 -0.006017779140813817
971 -2.7395167158355254e-05 0.0005516712664231886 -0.00897382617470073
31 0.0062707391218469145 0.0077567877067816066 -0.010147034491920864
816 0.015047882553749118 0.008513432475545464 0.01683947191828686
811 0.006636866705978491 -0.006913250838639555 0.00040579602123987367
947 -0.017704972800200367 -0.013744291199516066 -0.0173254730149058
611 -0.0025047356488033874 0.008965482163288664 -0.01392442908550624
814 -0.004933207995681542 0.014026670688389151 -0.007698757526919039
976 -0.0036538994449060074 0.005294802917749155 0.015415324090875662
1481 -0.011479686599077154 -0.002154341607956022 0.006162799019940534
1477 0.001371890935727448 0.0030425354734338874 -0.003907302651645833
1482 0.0063639890610011724 0.009105907018899661 0.0020653342654589502
813 0.008417041097642469 0.006728678751047215 0.010089780708596117
808 0.00534940930402585 -0.0027118935868559874 0.0071678236031083855
981 0.002404534968351544 0.007628138624504132 0.0003892180495894524
610 -0.01817009359650533 -0.022786206415915177 0.0090266397310167
815 0.0064545282740858 -0.007747526208766734 0.00024154016517755807
2085 -0.005197152694678056 0.0055151227082317995 -0.0035535340555476413
1628 0.013543475032941994 0.0070705236152562665 -0.0019163009660764826
1634 0.01107532164306356 -0.005206680291911823 0.014402541543704357
2783 -0.002322239619921076 0.0033716422059625584 0.004629824860404264
2784 0.0006743720583747608 -0.007966665194818114 -2.9127029380473836e-07
2782 0.00034298053658113104 -0.009658481526850412 0.021307385117087133
1629 0.0005328396754809428 -0.0021320466239305633 0.003073899410430134
1627 -0.006666112129369929 -0.006080002745176388 0.004830233872385227
355 0.011700804912361478 0.00431754617948808 -0.0089106085654079
1624 0.00018541002998089543 0.00045020113368151606 0.00034559025597211433
1632 -0.012580240410676612 0.01627380064621686 -0.016924926010898782
650 0.0006782898899884188 -0.025607817414406767 -0.02107959936229205
352 -2.734930201186377e-05 0.0073661404483585284 0.0074442921917789425
356 -0.014136997875763429 0.012764354706059073 -0.016459604221157165
2082 -0.005123047113593568 -0.01931810256374939 0.014544839013698822
2071 -0.0029007217792648594 0.004703794423496894 -0.008774229239436642
2065 0.006781518414366006 -0.0032757908174763715 0.004735106381997457
1630 0.0018240153775476668 -0.0065734543507107845 -0.00016027395391862291
1633 0.0027785802240149274 -0.00035276919694975865 -0.0025373786528530558
1623 0.010290604441759915 0.009043652296651144 -0.003841258844575037
2084 0.02319567610669773 -0.0076654305348678635 -0.0018109605330393686
2077 0.0013364907403575316 -7.842317644103395e-05 -0.005704906972972446
1635 -0.017263141250648983 0.016767678855719333 0.014630370059649485
2070 -0.021349003744949507 0.003323653541344349 0.00034056031475182563
1631 -0.015300083028135188 0.001540021243506544 -0.020698034283327723
2076 0.017472760153266608 -0.011323760370922165 -0.007708868227178728
2080 -0.003171489958839134 0.002785699593978577 0.0010265858255209112
2074 -0.0024009764525137374 -0.0039379497692844535 0.001989011899544075
2068 -0.0012373135838146447 0.008555617389815461 -0.0020091888948608715
1622 -0.015181264862187863 -0.013309055280134496 0.005024099312940793
651 0.015528830933072071 -0.00985468659403058 -0.011761092057942839
2919 0.03059203212588244 -0.012175527849694265 0.0005182284284784242
649 0.02640556115599685 -0.023648588461282295 0.0019061641574938011
2918 -0.002689726268182739 0.0017709319421914719 -0.009990469044980046
1906 0.00014246292643846077 -0.009213629562723254 0.0009962550035450737
2075 -0.007488066898933854 -0.0031263105206508763 -0.0008453581061837411
1233 0.006670980097376669 -0.009272916924678529 0.010069993243200886
2188 0.0033322261757534537 0.00038737321435756386 -0.00037348054457041977
1234 -0.0024243509730676872 -0.004638354786427095 0.002928607995198236
1235 0.018676514919061873 -0.030584104627702103 0.0054334406537092095
1230 -0.001487329206214928 -0.0002577632638769841 -0.0034678983971657986
1215 0.0023874960601706005 0.00105477023522905 -0.014821484666488515
1618 0.004674386004311878 -0.002903530988506213 -7.86121717766611e-05
1621 0.0051031754027340785 0.0019729758359209675 -0.000800093970950932
1626 0.0006190407454055336 -0.002735610546058281 -0.0037572478032819475
2186 0.008744070243527548 0.0020821641178873584 0.011119673180322915
1625 -0.02447341644801031 -0.008165399913664143 0.003661378058662487
1225 0.0017278790462252466 -0.014579340544713323 0.020735796814924694
1227 0.006306621223884566 -0.00537756542122078 0.0006079495867314948
1224 0.0007460983532177268 0.003652605512686004 0.006475416647194505
1231 0.001625642833607322 -0.020979539671926638 0.014929754714344762
1232 0.012671465734462307 -0.006558888520285174 0.001204028619387976
1221 0.006287414129621801 -0.005582224888085176 0.00467651772038922
1229 -0.0018998073822214996 0.0031328163724402883 0.007351547455445874
1228 0.007229434323302582 0.019720641168312143 -0.009251710492485231
1226 0.0023053943543570334 -0.011322399457869593 0.019821908570747802
2192 -0.015925794306072667 0.004365909628205652 0.018598485139237085
2187 0.003624558034583095 0.00632824894239665 5.010752576138466e-05
1218 0.0035141149350330727 0.0013715202489824837 0.0033887171233274445
2190 -9.411330136264781e-05 -0.0035533713128856697 0.005011377769605085
2194 0.0011473176255079136 -0.0046409190768852936 0.01042109550517654
2191 0.023965905883432656 0.011445070160511241 -0.008611288274906884
1910 -0.009298898977318788 0.021127701222993615 -0.0030956238495292838
1220 -0.019938740478959785 0.009833720745588841 -0.008159774180032225
1620 0.0015596760874711855 -0.017032552654799603 0.011127188075074703
595 0.011009966923725722 -7.512551965068683e-05 -0.009232647833102247
1905 -0.001466317167003674 0.0023897000983727776 -0.005319473813681316
1223 -0.01819254571792954 -0.009467386451778305 0.02732061072224196
593 0.002859423366852114 -0.009530452324346288 0.014441106830315128
64 -0.009544754184522606 0.0066609520739806935 0.01498200091602492
1222 0.004470857222851292 0.005554134450348588 -0.0032160510658276915
1261 0.0012981296556729219 0.001301511757449828 -0.002259538182516913
1266 0.0024928066548774923 -0.0004629320903184257 0.006090057040115871
71 -0.015777937150261462 0.00010325366449087452 -0.0028494125481946346
69 -0.002454118353833637 0.0002557983090293906 0.00517836128669363
70 0.007017359237474211 0.010657803602067646 -0.0031313915938620623
75 -0.003490821100082807 -0.0018497970304416555 0.040749219619392874
79 0.0048470995086656535 0.006558208152773286 -0.024474874812795446
72 0.005977882860317297 -0.008122820621149728 -0.001644121102920968
74 0.0031867024019781695 0.0023270893535854535 -0.0058706132035371865
77 0.0034844860290732292 0.0008349224527289412 0.0032629713275142275
78 -0.0005748013024689436 -0.006381949806682522 0.014159861359672551
1264 -0.005591089077021542 -0.0028809251506143603 0.0003775250992156559
73 -0.009160854314670399 0.007338182260610122 0.014945843623003004
81 -0.012950471026785723 0.006916291305447713 0.0248242213779303
82 -0.0164733209796713 -0.017423013855583494 0.026047334166794736
1738 -0.009693953583438268 -0.0014908340363325905 -0.00437598416201907
1742 -0.00910293221828163 0.0008750839706767949 -0.03413317795896373
1806 -0.00017082534048692567 -0.005117449837209957 -0.004963879386133731
1810 -0.009611142917824838 -0.012514384652236903 -0.009677775770062135
518 0.013361851842146008 -0.0010384610866874405 0.016480238267978585
76 0.008570310627341678 0.01161222964803083 -0.014712067866362652
80 0.0004493303570833207 -0.005990250636469545 0.00757845818866319
84 0.01787505515748588 -0.013745225946615085 0.0043245530080691565
1804 -0.011999562634178049 -0.0008653661997682246 -0.023536625287849087
1213 0.00032674965886719066 0.007052141547035029 -0.006432678575724624
83 0.016990767282934402 0.010640421991754762 0.0059859687367229695
1807 0.0009787660885028835 0.0007697229156260142 -0.012715375666073135
515 -0.005450753715814186 -0.007897620576503861 0.0011001799545458054
1809 -0.013043121755802748 -0.0032105865168505147 0.002090524698760564
1805 -0.0005130224024144393 -0.0014499883538038648 0.002736262224509286
1802 6.314716657984911e-05 -0.005018601052375991 -0.005950827625190029
2302 0.002871759574232072 -0.009427304929436019 0.00676487733895717
1808 0.00838472001393024 -0.01179246486833478 0.011328723402717837
1799 -0.0023323394121272808 5.192437605024397e-05 -0.001297987222892618
514 -0.00979480203016729 -0.009244270011011328 -0.025363383249063093
526 -0.0017508610767626917 0.016705441344568646 -0.007777096041871453
512 -0.0015346306558830989 -0.0026045439762650076 -0.0036233448689086314
522 -0.003275597211996634 -0.0037797472695540704 -0.004083521714357847
516 -0.005873068297354401 0.001380941861556495 0.003988168495346457
2297 -0.01951670974652657 0.016171183181743064 0.01843828729395028
2336 -0.0006854772749431641 0.0019466700537597316 -0.00479348645370367
520 -0.001987647351509303 0.004225216899037195 0.0015844973609623913
2299 -0.0006562221631729214 -0.003091898085878322 0.0027742390193568303
2303 9.136815330042012e-05 0.011835804820882933 0.01141089187940508
1741 -0.008029241180714086 -0.014172063015609873 0.008357005934300417
2794 0.005997017181715173 -0.00014832283061708823 -0.001091641246890008
2337 0.004124423435871576 0.01927620557810315 -0.023918684613343663
2304 -0.007304724515620479 -0.0015241785107020487 -0.009778081836712589
2293 -0.006271845769867039 -0.0052092990940588125 -0.000691425637361072
519 -0.002993466665662489 0.000841654594204837 -0.0011815858717381582
524 -0.005903647391082566 0.005743026515756745 -0.006171463143192423
2296 0.004860429449707487 0.0038649069447601225 -0.0033345076370718844
511 0.003289711395656653 0.003743039038923297 0.00457138194715312
513 0.018532338322858884 0.01615946233475599 -0.0015606752317242655
2795 0.004502820981651153 0.0029408915277562694 -0.0015452738964751554
521 -0.021578664125844044 -0.0025793057054202774 -0.01321353773098152
2796 0.004219006914135514 0.0037431666260585006 -0.00025583906304581526
2298 -0.00285341353165799 -0.0121794427475709 0.0028230055096758965
2335 0.015254470091755786 0.00795854029300468 -0.012884395470646926
2300 -0.0070184468510888585 0.01870850859409451 0.007191640675296119
1737 0.000701693722527587 0.006836178071712485 0.0006530421733712884
1803 -0.007032968326303556 0.005471109811814805 -0.0013908735773002171
1736 -0.007313477572392097 -0.002757669488847149 0.002203258849084474
1739 -0.0008274030758870515 0.00019944212312147035 0.002007356503955245
525 -0.011644871042462117 0.019401220324368456 -0.027809742744189424
2083 -0.009905852818372057 -0.005550063731897756 0.02322326366773757
979 -0.006873304890991393 0.004667235908742341 0.02864175364778658
2301 -0.0008793521734638629 0.022809036881621128 -0.0037987224534195615
2575 0.002381505501133382 -0.02002187189138553 0.005355070081073144
970 0.007623858106444319 0.00410628449878848 0.016069149297297334
2307 0.0028210594638004402 -0.009290638558978943 0.006579170965953195
357 0.01028105454345597 -0.009341809626475343 0.017653024719146492
968 -0.0023826643663030157 0.0031728080659030773 -0.000870841257301128
972 -0.016739023524468037 0.031033378355843584 -0.004351889996293459
508 -0.0010305897824692768 0.00012185731204453102 -0.002117115062975641
2078 -0.0011370409482448596 0.016147540615633428 0.01680927544240194
2072 0.0016999884174812058 0.026781404235810245 -0.00380352591305974
509 0.014344470026959884 0.002368048209259937 -0.0042184349452169525
510 -0.01886381507253567 0.03715740127467951 0.004505580909753637
503 0.002449894996255958 0.026733540478623564 0.005987482942410847
505 -0.008076986405354106 -2.687545691203355e-06 -0.007014047045890317
502 -0.003193500582740192 0.005952614541411211 -0.0007247089954731997
507 -0.004452322765081026 0.00409871573099316 0.0038407109227540093
506 -0.007996572887977876 -0.0014875279865390494 -0.009357829124496508
504 0.009767056734459002 -0.0036765020812013762 -0.0233518854122486
499 0.0032691972662901455 0.0012285875427800758 -0.010053384822012627
2922 0.014357118639658606 -0.021054526538280778 0.027411238199466566
2921 0.002130150938352505 0.0028941108875930716 0.004450802003311432
965 -0.004876937988276069 -0.001043907887451527 0.00037368103526909407
2711 -0.007159784895737436 0.003948003605640476 0.0006334854087097476
2710 -0.0015861433065637144 -0.007139623540685135 -0.008641963045892117
2712 -0.000934215245634698 -0.014224813669059984 0.01353745461292652
973 0.012718157287765998 -0.0071514139391546236 -0.021251031630822596
2576 -0.0005280109900425845 -0.003924820600066444 -0.0008846536745806263
1670 -0.007124818593450141 0.019222099907727004 0.02947732363462709
2917 -0.0011526859665723578 0.007573868412052586 0.002295880054241292
647 0.011388682683109042 0.0021129299826886075 -0.004175132522845787
654 0.006834356891579771 0.01652083124186211 -0.002117816710511947
653 -0.000658810611756769 -0.00961322267386393 -0.00607539952422859
648 0.0008741613850549546 0.005581340287374614 -0.006923159105615038
1661 -0.0037700383715857373 -0.0006643902511341357 -0.0035560636640990526
1663 0.00022910598277920002 -0.005859304074765455 -0.0025657627819390444
1666 -0.006981862921656986 -0.011754101639424003 -0.005478813806197761
652 -0.00010371309175381524 0.0025944368333489037 -0.005925245558461434
657 0.014804455631981276 0.0049675850471920776 -0.022642864502691047
656 0.007805388973124067 0.0034557037515440393 -0.0031267478218945524
659 -0.009532761671307224 -0.02057117831412403 0.0006333946115318011
1662 -0.000489497912319044 -0.006860278327243944 0.0016194673532734854
1664 -0.005784966145974117 -0.001510298323538921 -0.0015792874244218377
839 -0.0025249626383757745 -0.0017586552184494695 0.00011199240367504068
843 -0.011021254436987274 -0.01584851177495119 -0.02046857740519839
660 -0.010764813696208611 -0.019894951809076605 -0.015353578766133446
655 -0.0015493932735796921 -0.0017668935549515629 0.0015046378242550807
844 0.03190177443900694 0.009456630297963495 -0.0036302074125107177
1667 -0.016521685382494312 -0.01753043458997894 0.015310680721047618
658 -0.005291472369997062 -0.00031946736917737913 0.005297121593858893
661 0.028482863756128865 0.003867037961447124 -0.0028794438999229
663 0.010090987798959446 0.01011291323864214 0.004408255316563714
1665 -0.0019878676808071137 -0.011192170639049714 0.004625090410561029
662 -0.003513430942803614 -0.0019026455757704215 -0.0014737692091512712
2839 0.0037010718789146965 0.0013609017799492377 0.009417519598674736
2200 -0.009751401085345203 -0.015269842587741314 0.013450903104630357
2201 0.0071218659914341394 0.0021471018445966086 0.007659050322858824
1619 -0.004748426800781579 -0.0007149296342727644 -0.0013834841924368043
1615 -0.003153178605174894 -0.000431234696433622 -0.001866394837511783
2198 0.013639465341225416 -0.009705180830139893 -0.015215756089959438
1613 -0.0014730274040981272 0.0028785479841943623 0.001751325744019114
362 0.026344844044087178 0.004007686520911019 -0.02038176951281889
2193 0.0019679127331475904 0.00712333748057863 -0.0032412034556344857
2197 0.003988360275281308 0.008598265064268616 -0.004521132195708669
1611 -0.003990746902925159 -0.00037688617589077807 0.0022093535358606157
1616 0.006662891122849592 -0.001471437137731997 0.010104279370373441
2203 -0.009302122043675537 -0.0017111290304686294 0.013314463464618178
2196 0.007475635296526264 -0.004181901831569104 0.003842390240306042
1612 0.00032877406406730213 0.0053246244011551785 0.0022421136088870523
1617 -0.004247531487006747 0.0194802819694703 -0.0032758640727626
367 -0.006669473042708962 -0.0015954251414413453 -0.015853508150861045
2199 0.000833650019639736 0.005417058043861171 0.0074030918552093015
369 0.0004374692977411015 0.006151508697750593 0.00327236235933682
372 -0.0036933589712920263 0.005631926632143743 0.003352697431660088
544 -0.012924077547616871 -0.010040045707303 0.026635598474838137
2204 -0.00845225994545981 -0.017586706642416513 0.0017794090154377184
543 0.035406167708764945 -0.0023173408058438723 -0.03744594038342293
538 -0.0034923685055469685 -0.017584247675325057 0.006488069694928446
539 -0.002837656891302026 0.010937587356000105 0.013992900665819668
1614 0.0007169304794855153 0.0059390274415070735 0.0027801799697131095
2614 -0.008413301815516768 -0.002167032005044003 0.027675359034644784
2207 0.009875766685756909 0.00790693091256597 -0.00706352291768771
2210 -6.876491090054836e-05 -0.005325443225630852 0.014264086975628122
2202 0.00474761407241803 -0.0059188035095906 -0.007188070270993649
2209 0.007920902382706768 0.005597401829501773 -0.0035445923371306425
1747 -0.004190657515387936 -0.008375690287298926 -0.002879358639658866
2206 -0.006615348709718201 -0.00876048900400855 -0.004145145862190439
2208 0.008920545245895611 -0.008219330760386582 0.023294634864591972
2586 -0.0031278133498753562 -0.0006635274591355747 0.015365173914733238
2205 0.0018228478702890028 0.003671815759974291 0.002007907495582367
1754 -0.014660832609531977 -0.0030354333052166017 0.00618812085411941
2585 0.002995781854767886 -0.0031089185478266335 -0.00035192511629987446
1743 -0.008072167497921426 -0.0019945728494530092 -0.0007623612543887465
2616 0.013337738156097964 0.023552415521576144 -0.018754799630280126
1019 -0.0002900209180249123 0.007128908980743918 0.018258119860516155
1020 0.0095262283872259 0.01262959743475988 0.001505666491973074
1746 0.00307611037438361 -0.0010484275847653548 -0.005800362683762758
2584 0.0035311620034082663 -0.016263494246995646 0.01757869701997784
1749 -0.0032753849157182123 0.0013937268020236798 0.005085088443546774
1748 0.005516853715907531 -0.007334251700269733 -0.005488284270838912
2615 -0.002615771069006896 0.0007140273194810304 -0.0019337159827743408
1750 0.036105573826838 -0.028765369867537905 0.018403765444705712
1015 -0.004469849854644574 0.00031100495000274024 0.005308355554615284
1758 -0.004195524541825868 0.005323632190893269 0.011556383969563686
1756 0.007856022802404545 -0.01969476109339801 -0.009326757106004415
633 0.004192062937379264 0.003324346743284879 -0.001278566893174721
540 -0.01285447168641486 -0.005928031681783638 0.009495566525362351
636 0.0020889394728525585 -0.001205624326493278 0.01570295889274781
405 -0.021159874934839347 -0.014974363057748392 0.017659660172596733
630 0.0023559862851193726 0.00717948729425731 -0.00405532253993887
1013 -0.0029907166338591228 0.0048274288035050515 0.0035291445596035685
632 0.0005442313455655776 -0.02045179465304252 -0.0021298014085047974
1740 -0.0025355333476947627 0.0005936763743716831 0.0008047300732343954
2289 -0.0013375244706040463 0.004415448651209724 -0.001921237234099737
1744 -0.0071638954477709965 0.011339190363597838 0.014686859282254668
2286 0.007053203102116971 0.004934406368037792 -0.007577677520529087
1011 -0.007605441445481122 -0.007680842239858982 -0.0026146652197690514
1014 0.000598193572785777 0.003552714794108747 -0.0049209633152555695
395 -0.009193028383424734 0.006140660235670596 0.029057557936304806
392 0.001435571816994271 0.0025879347081629854 0.0018956565504159172
393 0.003152668688780037 -0.002797842669728196 0.0017188696631662132
394 -0.015417233025129009 -0.0071371794882177314 0.008713898021624204
396 -0.010075234296791347 -0.0016398015598055164 0.010730296939726424
398 0.0042208472692691025 -0.0031815699963043446 7.574497009928261e-05
399 0.007983165799524702 0.007116572682845966 -0.012305504287428494
402 -0.013556672030316241 0.022308737263037462 -0.01692259640846434
397 -0.0057488032292070425 0.007833863625656553 -0.0009989817398106573
2520 -0.01627814121108057 0.0014222893717417459 -0.0013871215513584908
401 -0.020161075922010403 0.018083894537207133 0.04143744816193893
400 0.0035641796530726313 0.0006902091568753336 -0.00011189169782200781
404 0.008839425181730117 -0.0011595366186539717 -0.015749177121723842
2388 -0.015046134472225667 0.012990983857258566 -0.01995662282009096
2519 -0.004571771681244081 -0.004776770833775447 -0.0029704071758906337
640 0.023633865684021902 -0.006446866888535486 0.0034197485745057787
1012 0.006989332172656779 -0.007523611874813653 -0.006358623921763396
2904 0.004897145933129327 0.0051836852531943626 0.0006708848970672009
634 0.004933245061890754 0.011602135007897627 -0.006617475933549083
1017 0.015480483494043077 -0.04550726850537777 0.006089979874931253
2903 0.004702541995376391 0.003327826393964811 -0.002415776011443311
635 0.002379571972349218 0.007243655405151258 0.008139717347573457
631 -0.0014969879221847665 0.005028776677767373 0.0021974877847542786
639 0.0032499219023983126 0.009468356260009757 0.004482300875842209
2386 0.006532646089747922 0.021722327636569012 -0.010919203201283928
2387 0.0033105042049211076 0.0037005141865140774 0.0036745984907026142
407 0.001130495738850497 0.00334919271637097 0.0030191738426076243
495 0.0026750187004160233 0.002033883383432001 0.0018627564023636692
501 0.008397817265120355 -0.014037902669363861 -0.005753097622406249
408 -0.00864679983309973 -0.02557738014038736 0.020562952253097583
837 0.004661276460925674 0.007090339359507675 0.0030746505197261245
500 0.006704107194243712 -0.012168720905925716 -0.014010286646065491
403 -0.00047437963762273497 0.005371623675559424 0.003939998969310443
497 -0.02607792474041808 -0.004634869672918467 0.018541280899100395
496 0.006817598908841976 -0.019997060476389005 0.007205375643272879
494 0.0008159425602268925 -0.0005984210158150685 0.002601670272657221
2064 -0.0023462291913168404 0.006757054510672373 -0.003964418859382458
2061 -0.009974085267611706 0.0028133306679623054 -0.0006654274304243764
498 0.028654270282456904 -0.004440712845308095 0.013002648057542995
838 -0.004508643927175225 0.0032803999572455786 0.021819583727875486
834 0.004059306543436351 1.9668074876350758e-06 -1.4957975008690683e-06
2681 0.002335913100156122 -0.0006553190133165188 -0.0035688458050429114
2680 0.001388660552349826 -0.011261646525108514 0.005494835221048837
2815 0.02704877941875391 -0.015314899588133759 -0.017616567158866087
2816 0.0003165445882635438 -0.0009990177976667834 0.004002209199452994
2817 -0.013380156035227653 0.024763719974966587 0.018021775238296647
2708 0.0008404634477859493 -0.009641736811212987 0.003394710830450054
836 0.00832080694159683 0.015422483171801386 -0.004837220008802295
840 0.0014292257060478796 -0.01330831182035251 -0.012912460455181247
835 0.010727605814106117 -0.006738671824255858 0.0012153804043213833
2682 -0.029692058969275483 -0.003691443271907492 -0.02724042593013253
2709 0.014632250255412925 -0.012940092774147835 -0.006160527454535339
2707 -0.0009164956651352223 -0.0001483319533384394 0.0015371935294873702
406 0.005063031417685549 0.011860449771352352 0.003458565578017646
841 -0.027665740705539676 -0.012764476630895135 0.0015146480838409296
2485 0.005114170314602574 -0.0032881766770217575 0.015144045216630554
2914 0.014525715654528181 -0.02043492794784251 -0.010545452257638163
2915 -0.0011524223254856074 -0.005780157946303382 0.0016984665845454965
2916 0.019106461116217777 -0.01100306642545618 0.0038242645175554837
1672 -0.022819831635099586 -0.011739391267309324 0.021369409493045964
2824 0.00263665981965301 0.010310182282938828 -0.004777103855752992
2806 -0.014111757298613298 0.03435140404345483 0.01587466274149359
2807 0.0023210978951741083 0.0006734881360932564 -0.0065962327495047044
2825 -0.0011040199509281179 -0.0004808641494718388 0.0031366075518902675
2414 -0.00011527427855533858 0.00039150661024188194 -0.0017693954445561775
2826 -0.0013468335868633444 -0.000657192014745754 0.004134027365249536
2415 0.012502450306298043 0.01566107398579348 -0.0031663523134222234
2808 0.00704988905121116 0.003720912679614139 -0.027103555793904287
2600 0.0003075293168671842 -0.0016966435480133704 -0.002771803529799906
2601 -0.01328686152656788 -0.003665882176855204 -0.02251930813037454
424 -0.01347009656496451 0.0015545559076589031 -0.008272804440078966
420 0.007344282733471544 0.0012478388916364641 -0.00300259484430704
2498 -0.010651481025798598 0.0004144751202792202 -0.006454410091274248
2497 0.022582976545233956 0.01686127928079994 0.00528683592520679
2486 0.0038752326039511137 0.0021222002598018336 0.0028608553118723967
2413 -0.009945595843956745 0.012957290731455295 -0.0023155741194248406
423 -0.011534202587868535 0.0060744852823960225 0.027637672318933056
1673 -0.0036906480013096338 -0.001545814608057622 -0.010423839474980628
1668 -0.0026696893035020102 0.002825879583120389 0.00736745558345345
363 -0.00553320374744996 -0.0016464345065732076 0.0024610623577125874
373 0.005681580067496013 0.005334278141961144 -0.007106478725887946
371 0.01162193655051067 -0.04272066971829394 0.027770130827790535
366 0.0008422639593993527 0.004257670545839309 -0.002686810454091496
374 0.0006730099216514498 -0.0072472142461565865 0.0075662862352041385
368 -0.001565647208395206 -0.00013965779045580577 0.006146973786126896
2599 0.008848807052647893 0.012705248979448197 -0.008939530793210299
360 0.0009805574054240836 -0.00986157062112876 0.015226151615494388
2863 0.008519269596648695 -0.001457048878007852 -0.017777435825063095
365 0.02793387755605543 -0.0032387759701973736 0.032150150015058256
358 -0.002750912422329365 0.0026112889630633 0.0009377740254940243
359 -0.004145286541910753 -0.003929412806212704 -0.006999073946483118
370 0.007689017292792298 0.004260327114481639 -0.011253672996009208
2382 -0.007049780287429503 0.009147762777811722 0.011248258994174785
364 0.015630527429455376 -0.0013379880531186866 -0.020069105559775438
2381 -0.004826181607193781 -0.0030591745995421677 0.0030257969232297746
2380 0.004662820417560275 -0.017526344129752437 0.015129875427425625
378 0.006230523425311994 0.00924929194911766 0.010806039605666666
2695 -0.0025452847093350626 0.003859832743602578 -0.012954559480025057
2696 -0.009781405524184716 -0.00036465595471314835 -2.0048049303728562e-05
375 -0.0003863070563638661 -0.0020912305324208833 4.761069416680497e-05
2697 -0.006526200466529946 0.0030273824111595442 0.007273876040877517
2644 0.008347660822829055 0.007094363062345405 0.002489885012623589
2645 0.007343192890653024 0.004555432247883996 0.0030578817781634978
1763 -0.00305772277357323 0.0005034703721064864 -0.004387203929513259
2864 0.0018853279896281917 -0.002510436243220285 -0.005451241841106361
379 -0.006773101701577254 0.010302978567686786 -0.023785355547114355
2646 -0.014226997972844484 -0.015466582282624031 0.003031061614713181
2354 -0.003717599548385537 -0.001046359534801647 0.00841560858503688
2355 -0.019176975421364286 0.02748594139505573 0.005904485084057216
2865 -0.0013130752757654978 -0.01231794511598684 0.004136497201644335
361 0.005538175969340801 -0.014629718714486914 -0.004946898310064303
2760 0.01946629033960944 -0.012487653966343538 0.02235680439019012
2701 -0.01661495478341168 -0.0009731380362953092 0.006585938914055173
2583 7.779827826919152e-05 -0.00997817927058113 0.002688369941201843
2353 0.005644205228363364 -0.0067394505634546156 -0.0008315637502811235
2581 0.009914719501414473 0.024456058953175885 -0.012408627178218305
2582 0.0006167501335911932 -0.005563227090288263 -0.0011846140976558323
1022 0.012635231336400314 -0.030780376672057137 -0.021245255651778715
1018 -0.0025233867066419167 -0.006198798323301191 -0.0035197069601758343
1026 0.011870468402428941 -0.020966106972812183 -0.01053589812826002
1028 0.00705931883593328 0.014854325795739216 -0.013118890356428516
1032 0.013685355368943001 -0.0007260509123884259 -0.009911783493865742
1027 0.00115184449053637 0.010317273943956031 -0.0013398183277054656
1021 0.0017307357211503581 -0.0010009741929941798 0.0008195542348384351
1025 0.0018709153940327636 0.0032742628591564777 -0.0010295179276905689
1024 -0.004553658078686266 -3.9880030380598175e-05 -0.010094569205240824
1031 -0.005849621007500537 0.01687265267879561 -0.007787693182173399
1029 -0.01580562509103605 0.004860500784531924 0.002342182886492038
1023 -0.023595630715907236 0.008572281372953698 -0.008854764113684854
1030 -0.002355411484694724 -0.0005700241098166432 -0.006354830297612703
1034 -0.0006346488289529222 -0.014143063274208365 9.621504637324701e-05
1035 0.01888696178760309 -0.011940049306642733 0.012902932111367152
1033 0.002183359771949851 -0.016842438935281992 -0.019874880422123445
1772 -0.013486840136930339 -0.009998368340763585 0.005457060495819912
646 0.01671323894377387 -0.016390763859593427 0.0034687576738336116
491 0.017080160702644034 0.006540248032505372 -0.0018503227132621318
1016 -0.00018232022144694547 0.0003466723756900554 -0.004810689503097122
2518 -0.006754135373460019 -0.0019978350059152244 -0.0035205328139972275
493 -0.0006642128813934341 -0.006892503248479998 0.00035363009118104824
492 -0.025603716403283492 0.0013099048276799094 0.019854488623224524
151 0.0029015698514169293 -0.005218197584479918 -0.004042939240326344
488 -0.002262063384396202 0.00019268829791032723 -0.003797859114475906
2902 0.005167323354975754 0.010613824330140091 -0.008128340939170076
2347 0.02865628984128036 -0.01596852567081909 0.0009046848549083882
1314 -0.0039325355410783375 -0.0019401641601211 -0.0018564377756604164
489 -0.016678472441488557 0.00807178788096823 -0.006357701303141318
485 0.005861094380039608 0.0017924496307255315 -0.00028429184583420665
1312 0.004644883207794818 0.00032975060002931635 0.00043767871918042175
1311 0.013008660516998212 -5.512235815644778e-05 0.003503350841895164
2349 0.021050800748046408 0.015105991538530431 -0.011625568376294897
490 0.0059027839604116035 -0.006319405382752374 -0.0018803272053812925
1315 0.002277937952734096 0.005679667447203282 -0.006747195547220248
1317 -0.005690743727371285 -0.013732124991083549 0.009668641769461642
2530 0.012448991575974587 -0.004475909821857953 -0.0015906846941156907
482 -0.0013298473580434559 0.002833131505483492 -0.005346747933691755
487 -0.005793458343393281 -0.018434295341119598 -0.003382600255844859
2749 -0.007790809582073536 -0.005994818526432145 -0.01373025810607845
2348 -0.0013648740609769376 0.004091518483329297 0.0015970725224097031
483 -0.03416230875348639 -0.0226052878362727 0.0076913174741362
484 -0.01675815478339906 0.00416310330334424 0.0017622942776936836
478 -0.008394537571067966 0.010469833281379851 0.002513984867001916
486 0.013883843849866996 0.00442336329061219 -0.020954273145118156
1319 -0.007711354395125333 -0.0010775478245283502 -0.003427073625161845
1316 -0.014499422744896935 -0.02889776103372259 -0.023953384996348675
2750 0.009768486576218429 0.00031308501867299154 0.008399136135077973
642 -0.002658312167131203 0.00719793219083214 -0.010414971929904723
2751 0.013333042527630661 0.01281052510474272 0.0028445751848123727
1086 0.0033335102355586603 -0.000780999145922683 0.0033071908252541417
2723 0.0010435087404424268 -0.0006285235502147303 0.0013200262301174084
2356 0.01034264762467979 -0.0028002323889286087 0.014248058988865164
1313 0.003179195648040652 -0.0003997996139076269 8.902088102892252e-05
2894 -0.004999270716226345 0.004623935652916378 -0.0015702342147582559
2499 -0.0070866003640085076 -0.010470192975860325 0.017407164951852443
1320 0.005155396705145129 0.013478590723138603 -0.002259227019836821
2724 0.01870197334344845 0.0036599473692577418 -0.0007546014114598651
2722 0.003065354765656616 0.0016797997713188522 0.003442170131790138
2357 -0.0018315500464133748 0.0033207733716400303 -0.0022081228486661485
2487 0.008938475261855558 -0.001809933015465859 -0.0103366070019468
421 -0.01127007555881137 0.006772273691990601 0.003794121613236691
417 0.00029951735242338026 0.006198813129297818 -0.005190781017949438
2358 0.00565347108768541 -0.0007719658729985375 -0.009980847934545676
419 -0.005710364902384022 0.007297651258141044 -0.006651037858802148
413 0.007497342106592268 -0.009121219271515999 0.0055617910664230025
411 -0.024446034311628242 0.0013188407074867234 0.01303829776340579
410 -0.0028362078236885747 -0.0002414250895015001 0.0052965367683945495
414 0.0066700113374729055 0.0007202339845595927 2.1829534058520894e-05
415 -0.020604324845379114 -0.004319527245318193 -0.014084357266372948
416 -0.001538840438592198 0.0024342570880738546 0.005246611533144139
412 -0.006766707780456744 -0.0021483220475823593 0.002840617222963748
409 -0.003392890957018256 0.0030983263180731566 0.0012207962693248971
1089 -0.0024780799582119163 0.0041043234859529844 -0.0004431087072648116
422 0.017963215512088272 -0.0004393152787618617 0.0028125831236611018
418 0.02256405399959081 0.005305638567868574 0.03157093432293791
112 0.018844499503675796 0.003695038891393953 -0.0016628134000757227
105 -0.01971608445943159 -0.0014672137372579834 -0.010613770877752851
1322 -0.01885720668238782 -0.024434976115314734 0.013811510144184386
1088 -0.001999596540810566 -0.006936107466384775 -0.008000702847226567
1092 -0.008303479034618179 0.011925316286843022 0.010393653607325326
1087 -0.003240590610811627 0.009597688705508978 0.001636822362321434
2452 0.0019369659304259957 -0.004734567994555334 -0.015325246025692985
425 -0.009098570171844894 0.002689671699429334 0.00876857979867154
2792 0.003617496414460236 -0.005338899852560043 -0.0006717756810526507
114 -0.003580279704668792 0.002029569114011588 0.006748682928435495
2791 0.0038036158368092115 -0.01735767608551967 0.002937465393709081
2748 0.004347891239323284 0.009869122255680029 -0.017927756953658926
119 -0.007327326267241525 0.00493289748360587 0.007310662837901099
2453 0.001686378018201749 -0.004797263610326827 0.000616874918127498
2793 -0.00028360770515814304 0.013249593621302569 -0.005257551828670171
2454 -0.02430058628507451 0.014239163722056409 0.001428024571458375
1514 0.004291449966365804 -0.007263448902596735 0.003407409626103093
2803 -0.03683754831381412 -0.00635941938909779 -0.008720491135991677
1484 0.004580633453271159 0.017367691882141708 0.027409535186292713
739 -0.014077510715945145 0.024444482723778225 0.012813970466427668
1522 0.0018898407116353375 -0.02527505422511117 -0.008330136938858989
117 0.003051943486704999 -0.0021940606136238955 0.03234582616720485
382 -0.003142500328743388 0.0018410573077225255 -0.0001789230557166499
1767 0.027193828809059562 0.014930268487101299 -0.00212459833978599
1762 0.006869235545386228 -0.0024910523106288916 -0.0032372714560962522
2747 -0.00041389572791568406 0.004490118294790713 -0.006101968175404107
2746 -0.011977385490337512 0.025522786662171608 -0.009617936638703938
384 -0.003145822803436145 -0.017202906273895313 -0.00692129805635206
1766 0.0028161777220082206 -0.0021951925409813026 0.0015532609232745958
1761 -0.00635922783884155 0.001865922272213959 0.005852876900246876
1978 0.019249393613149566 -0.00122720413401629 0.00445795494141498
376 -0.0013503603807055386 0.0033035594818395806 0.006421302559705253
1984 -0.011928289637522968 0.007985073168433453 0.027177396966655977
1985 0.008592497403565236 -0.009559996587225053 0.0005809066272280908
1513 -0.006941704197938177 -0.00023253889282717262 -0.007771831655810189
1511 0.007263170162831882 0.0066755685137985625 -0.0011412010447678735
1980 0.002398134374349195 0.008628802016803251 0.0041872119300315706
1284 0.004340690441172186 0.0028170247079312 -0.0015245847188743462
1520 -0.0006768419193733996 0.007301554704812336 0.0021962271918785983
1518 0.0028550438705279755 0.003976649302240732 0.0029625727995706876
1523 0.023649421992241248 -0.03371391064117614 0.007861649469382786
1519 0.00018573568504748155 0.00870365133134955 0.01179205239977339
380 -0.006091577485734395 -0.007609687897209605 -0.0010635982561405697
385 -0.0005301405673994505 0.002742705217098821 0.023079007377635925
1516 0.032599353064320324 -0.009797584957823818 -0.00789417406568496
1512 -0.006674891418630507 0.007884704605439451 0.005012730371449596
1515 -8.051817491501086e-05 0.0011896173250711937 0.0014017051848434433
1517 -0.012620466871763837 0.00032774654234864203 -0.009656457520628417
383 -0.004885367919644461 -0.0009345773770935564 0.0022151386641590803
387 0.009958608083898009 -0.016860635400020925 -0.00917333570333864
391 -0.007857337567429148 -0.016612617010854473 0.007251605402056267
1983 0.002790133783045099 -1.0836730873136139e-05 0.009181446826848882
386 0.002463556890451989 0.001966082330109215 -0.001096724665344797
390 0.010505487663501721 -0.0076119159720602824 -0.011918562278178169
388 -0.016957194632711173 -0.017419875958444964 0.0025906534925948846
389 0.005342371158018598 -0.013844299681290735 -0.011619902869526971
2346 -0.021673070348876403 0.017345964917872637 0.007847583401295918
1654 -0.007073234956873324 0.020662432827831784 -0.008850642331274737
1652 0.0027669882464617422 0.0010050830243128071 -0.0031478046899350532
1657 0.0063211668870673 -0.01800018448272082 -0.0023659074121020287
1649 0.004318816929957228 -0.0045659759260396025 0.0030886432868283834
246 0.010496627597173909 -0.015173523537856993 -0.0042529912103934624
1879 -0.018646547953544767 0.0012951424494541954 -0.00801361774219448
1659 0.019666921811035423 -0.00034297137500687524 0.020111440267671823
1653 -0.006040793392901224 -0.02199830943050238 -0.024028851463770012
1870 -0.015376613360972069 0.005205936950575864 0.008666083466495193
1878 0.01695994004320779 -0.022757830215290886 0.0018885207297493012
1865 0.005578583661771479 -0.008224705720602514 0.004487121245380085
1872 0.002508038115588945 -0.00859730402686172 0.0038455403711095864
1868 0.0013371362614273269 -0.0013887837077739074 0.0014994365814604749
1873 -0.006401967224009084 0.0037665661783191245 0.0003680043627576875
1655 -0.008605342584714662 -0.001933305845469971 0.0004386084340040739
1874 0.005893512389711014 -0.005340525152518759 4.6734442958619136e-05
1871 -0.005395510209186872 0.004025328026992403 -0.0024525295196474884
1660 0.02034784485120938 0.0006091124327823199 -0.0023643054223419636
1867 -0.022612265636789995 0.014438134624520153 0.013566411527704571
1658 -0.0063821151798630505 0.018078086991636974 0.0006532015355079819
1770 0.0006118773054871275 -0.004378019880375498 -0.01854779790394776
1869 -0.0007709316474662977 0.008289565505093618 0.002685235831424353
1862 -0.00029999512793930813 0.0019445360870386059 0.0003790013612755221
1765 -0.0009989810018430588 0.00037582255681134063 -0.0139024942175757
226 -0.01059523537975143 0.012988158136853936 0.018370263108614105
1413 0.004500600440735803 0.002790136808887523 0.001857280454203745
2667 0.00812427624505551 0.003541942972446396 0.0016001583263016673
1866 0.0089873331994224 0.002480392560016829 -0.017926233579410266
2715 -0.0048383046280109955 -0.0038696309826003437 0.0028775811831539422
18 -0.0048684387962648285 -0.008768067734656314 0.0006029681550887746
807 -0.007660968877141561 -0.0032108794172754527 -0.009864444665069994
2666 -0.0005621488718764355 -0.0007364650899081466 0.0021398774906643356
1863 -0.0064769821140781125 0.004769218954666362 0.0033134511240463633
1861 -0.0007925520198509209 -0.0020231429811425217 0.0017934221663109444
2665 -0.010025572283804558 -0.012892792934047477 0.008492906113256218
21 -0.010886791960064772 -0.0030646674324316075 -0.004515437454416325
2714 -0.000883673874137709 -0.0032840675500047257 -0.00402592702185938
2713 -0.015289592675425024 -0.0020692705595865327 -0.015091307227847243
477 -0.007895577368012838 -0.0028268944763726804 0.0018304539089729467
479 0.0010861147724331452 -0.015966655258837236 -0.011147508776911851
480 -0.01675794560619159 0.003798669529122376 -0.005777979556683068
2740 -0.004171485324560428 -0.00509058254243935 -0.009901874786998402
2741 0.0035900334145782657 -0.007665616502071447 0.0005933925264274175
2742 0.003094873947229415 -0.005765337413660821 0.0007968754608771888
1864 0.0018709228651688896 -0.0020452491049919473 0.0006622212451241144
2560 -0.0012155181587538125 -0.004595873545312388 0.0192471282447791
2561 -0.0018340109453449092 0.003985753253360083 -0.00132260261589632
481 -0.006095594975373634 -0.006933300312416044 -0.004303700476850006
243 -0.016682876735708094 -3.0665322826596385e-06 0.013484374647617935
801 -0.0029148384430213265 -0.006867660850354233 -0.0016698584015330674
806 0.005594698290383712 0.002184248022116936 0.009280252221104436
22 0.03604978081177306 0.01276840004504462 0.0279769609451621
2562 -0.0016365454446514705 -0.002484849367641081 -0.030950539125612596
1419 0.00801786940242947 0.0010644277972774404 -0.0008750885082052333
104 -0.004993901768974524 0.002813185117719048 -0.0016439692296863202
108 0.000304218333693297 -0.0024556895175521713 0.006450766918970162
19 0.004084618546404303 0.005788666003941249 0.004742393471749604
1326 0.0004886323523419436 -0.011746301391494312 -0.00567149323131453
113 0.021647349463810354 0.020007568869537543 0.0031531183934861
1479 0.0017061048553600922 0.0063610870974725705 0.013223367682003238
1474 0.00018645269492066196 0.005642982286675924 0.0018116093007625783
1478 -0.01747901532668225 0.0060647600962582815 0.01797568970680599
24 -0.014420745262904482 -0.006586830353620793 0.0159359215381406
744 -0.01627838478018966 -0.009859096374800253 0.017587307806625554
1464 0.002568377007341932 0.002638826162481399 0.0022795722392763276
106 0.016603108778909612 0.01114808128876487 -0.0002941266471092411
1467 0.0067802878080802905 0.0007103281430501837 0.0018226030372448523
1461 -0.007208009643454738 -0.004368471543057483 -0.0030958872476021903
812 0.02310773911459643 0.0013350095993950677 -0.009718654945554111
1476 -0.001075190764281549 -0.0006195178119117685 -0.007817270261290043
1463 0.008383913782760632 -0.0009903961575594797 -0.004912451959080028
1475 0.013370914519796363 0.010837014955993741 -0.009711928555704432
1471 0.0008713608704420028 -0.0009381939979297482 0.0024267377423724265
1466 0.02185476220952596 0.020555198891891446 -0.02587895342051342
1470 -0.0013082884799654664 -0.0027685648189528815 -0.0070780037896186485
1472 -0.01806004129440784 0.0035442592976969046 0.009326844593893083
1462 0.0025738163538081378 0.00424030655535077 -0.0017637870293833436
1469 0.0062902360020464145 0.032038248604399716 -0.02343410291138822
1465 0.0002246981692889388 -0.000362612590865828 -0.002505443549147739
1468 -0.0035355092895677813 -0.0012353098327054382 -0.0032453148531654645
1473 0.006918596246659762 0.0073430479374656235 -0.03552972839309965
745 0.018563786616508406 -0.00011465748675730669 -0.004865963324733257
740 -0.0019808451538503562 -0.00013286876333240053 -0.007483467063765794
109 -0.003916746678184763 -0.003352199631550704 0.009029259045958308
107 -0.006799848848815276 -0.014742576364745035 -0.003887554097858612
103 -0.0043566200624721605 0.0032284858107628333 -0.004391876173556019
115 -0.010684956890295694 0.00041557668075882336 -0.01214424929449276
934 -0.00643093010258008 -0.006746481193306367 0.008406766664890332
1349 -0.0035720187971807304 -0.00582673109508055 -0.004939222293099955
1359 -0.004318599433319541 0.03574676167142976 -0.014131087472477953
1343 -0.0077649038588726415 -0.0014878694629067097 -0.005766928681691988
1347 -0.03261478448028061 0.01417523738965888 0.022048727167003505
935 0.004130832795076595 -0.012001400394196265 7.798223034059256e-05
1346 -5.330733493956203e-05 0.0024568107783186823 -0.0001302133901565161
1901 0.0206159284109548 -0.002150506019225504 0.0033133542345381
1355 0.001613645308729312 0.0025394120548538107 0.0046407933951471405
1900 -0.012770062223485631 -0.02156633550259906 0.004235842063593377
1896 -0.004109780403460434 -0.0006811395606325012 -0.0083873369753189
1898 -0.010154393772090993 -0.009022382938840019 0.004943921535563003
1893 -0.002009002275826679 -0.00681884877414381 0.009035965611572177
1890 -0.0008258118819610375 -0.006294474728620608 0.004143996476761221
1895 -0.004185796152394783 -0.012930519864582483 0.008083935440928489
1894 0.010783263029024562 0.026441866467543512 -0.008784970032073302
1887 -0.012697764814270315 -0.010446033376171135 0.0029617894734244947
1892 0.0016892495745675317 -0.002990460688750154 -0.0032081722798156216
1891 0.003284994439446273 0.01731178720317566 -0.0045079546377064
929 0.002841119899986466 -0.007745184131999882 0.011563688273850679
945 0.006328372281483062 -0.011973052954470167 -0.00713516094158681
924 -0.007498175289430131 -0.006236691254279954 -0.0011600511061115755
944 0.007879282081416656 -0.007988559993246588 -0.01141991967177577
940 0.002000277552402887 -0.006518397139173729 -0.006417860556378098
1897 0.00404503981846941 0.010074357966121248 0.0033169469449481613
1899 5.484859203275112e-05 -1.3204400841270711e-05 -0.002655529059576707
1904 0.011756041865428729 -0.00018625621246502736 0.008097675241900396
1404 0.0037081776894095945 -0.0041763485237210725 -0.012801303518849155
927 0.0034492653056023693 0.012192366069828537 0.003571913491060339
922 0.001949634966414452 0.014486767452017955 -0.0008164787260757339
1886 -0.0028453091894879733 0.0012978976868386711 -0.0005796863980838064
1353 0.0013494454577878063 0.003925599733206458 -0.010655836749622352
1360 -0.008463990853393078 -0.008041308994175232 0.008016324465071467
1351 0.0024515556399277542 0.0022906438781984772 0.0009064422451661782
1357 0.0029443082790170357 -0.007842151072035588 0.004134061525617438
1903 0.011083821563569022 0.016207648705152726 -0.017886139577286818
1508 0.014618010329934749 -0.00038638118903810026 -0.02173943289029413
1502 -0.002788002688913377 0.0005457822732779246 -0.002032985616517529
1500 0.013426307129682805 -0.01891101952486941 -0.01986967754881244
1493 -0.007692309224264762 -1.6917640268602494e-05 0.004591206304284152
1496 0.008169892035949049 0.00022706836722954883 0.006379998213763113
1501 -0.003489446335403852 -0.00017528281829892314 0.025687602945227983
1503 0.0017300102642982657 -0.004834824718199115 0.010415751922954507
1499 -0.003486621738589464 0.000662343269119968 -0.0016319465161456007
1504 0.00031056703939777 0.00824317567661353 0.003096752028854469
1498 0.0016552229997587975 0.0211674160196815 0.013136830623825868
1494 -0.005413212031989527 0.00711106767647956 -0.014816372796867275
1490 0.007323286928529185 -0.00037239061277094586 -0.0006445867546306159
1495 0.0022519070809212446 -0.014766582856390976 0.0003678384767505983
1510 0.015696044792255337 -0.006494605491406934 0.0035354834173193287
1505 0.0024947140866101603 -0.0031454945555449343 0.001623721118158414
1497 -0.00510507866505103 -0.003303331826145521 0.0068938415308182925
2366 0.0020754284370757756 0.0020051517800519533 -0.00026324324170310444
2625 0.014962689833959113 0.01181203897847361 -0.015480016792352398
1352 0.004327970078178422 -0.00740011121507144 0.004714577452909254
2365 -0.009920003245807016 0.003929669350639381 0.014797094796813319
1506 -0.0024782744896374672 -0.01116823340411106 -0.03279041809557052
2367 0.002656143719629246 -0.001199335078724245 0.006618628716682341
1509 0.010564352576521658 0.0036490274676695142 -0.012080017400907883
1356 -0.009025933464845946 0.0023810652067420114 0.019649903066237706
1350 0.0006236964280654891 -0.00695513599156481 0.0009933402143877227
65 0.004795116105517296 -0.009773971819827997 0.008232633884580546
63 -0.0006004149635824804 0.0007188357434357904 -0.0062360769479645976
1842 -0.04128713207933365 -0.031526524535240685 0.007227152469822698
68 0.010013085145785477 -0.005574714856350701 -0.011132026836338703
45 0.03023716114682872 0.005304042160127451 -0.036207416025960275
51 0.009658714471048692 0.0311538851582471 0.019584847388010276
41 0.00268378079036271 -0.01480623210864965 -0.01166941154440613
50 0.014260369631733905 -0.021913342610813447 0.010726924427616094
49 -0.000522071882965895 -0.007091614390138115 -0.01850094805539458
47 0.01839800533977555 -0.0056828293563669086 -0.003781745366141113
48 0.01110732854616778 -0.015663079730435403 0.005320026971422486
46 -0.0013688248125228574 0.0007670913557350576 0.0004615633918711338
43 0.005795903984429166 0.0012386746431116257 -0.0036991164968347445
40 0.005088393394527525 -0.004840673891509517 0.00694779818839218
251 0.004091128814457037 -0.009036265314140798 0.024130782122611657
247 -0.00019279935745493838 0.004765908793502849 0.007697375418366771
253 0.00025518370118393944 0.010836345177557227 0.011703314976715683
250 -0.002375267144778388 0.009104326853512978 -0.0031238700669983517
254 0.012691071452415756 0.006811991108620893 0.002040387110517812
252 0.016118195715610295 0.0014422197187899202 0.015339733119008363
1791 -0.00278282786259913 -0.0011726695214918465 0.008025573726638893
1844 -0.0038186663096579014 0.029239733092145965 -0.001815441059417919
1837 -0.010328704298824687 0.005247428596443334 0.0077866961878150604
44 -0.007889654586028543 -0.005234492692572296 -0.0023624723316236387
1881 -0.008473464673040346 -0.002457824959732489 0.01822302609411344
826 -0.009754709196523683 -0.012300327948228891 0.008388059234290632
2156 -0.016961552239379146 -0.013714735705595235 0.013212317248913473
1794 0.010039709714385505 -0.005237036293062605 0.01751554859441666
15 0.01809621452821219 -0.034512310243954486 -0.008372987165246867
1795 0.002104667071052728 -0.01822284432961742 0.032105615686947
244 -0.004360091186240051 -0.009462723335621582 0.0005434122789294944
1790 0.0016565845125070685 0.009422983894570452 -0.003202641089524212
248 0.007585438930967704 -0.016467099497624482 -0.0034274534291419104
1787 -0.007121663798522921 0.006018235741541398 -0.0036480964016955735
1792 -0.010045493667708405 0.001850744143630593 -0.009699274355152958
13 -0.010352760666904989 -0.017746686625212747 -0.007258660737643536
12 0.010467440941912253 0.009562299555402312 -0.001667741103117498
9 -0.006818617461568909 -0.0021001305001066167 0.004738254465900542
14 0.034845109531520584 0.023167128761384076 -0.002812849563861454
2148 0.01550280204578922 0.003934823077464311 0.026471214438433085
1788 0.004371761854722147 -0.00713946707561239 0.00019709761169566057
249 -0.010009433818345072 0.02424715220450661 0.012301216303365557
2141 0.008580487320219142 0.009717942870257942 0.0026755099295382658
824 0.010181008931616262 -0.0033623110416851777 -0.00013422269608676397
6 -0.003063703298241077 0.0018829980086786022 0.003168478223485291
7 0.011011838529238037 -0.01989992924328287 0.006531855284992993
11 0.033434206787330244 0.006599142837398688 0.023735658766552117
820 0.008625189010893361 -0.009710460632656976 0.003473041640769361
17 0.016153797825660742 0.012997532597727676 -0.0054692633733184155
819 -0.004162372242741312 -0.012462507154835222 -0.024326141630964537
817 0.007667318989229376 -0.004167663559600451 0.00397050079948145
1786 0.0035742075247850893 0.005644967115483382 0.005535104148117
2142 0.0024771532963766066 -0.0015655076612589146 0.0035228658481025253
25 0.008435871953705954 0.0008912605976482944 0.007130437597269719
943 -0.00397485159073147 0.00625253578542167 0.0020398083868237347
941 -0.0021516847127624333 -0.03763204210269844 0.018899263810335312
920 0.0013686296946764489 -0.0020681245029066206 0.002204831988793122
928 -0.0024213779029835674 0.008868073427066315 0.008392176742792712
919 0.0018524334854419836 -0.00104003323463933 -0.004190278608301901
948 0.01712309306104495 -0.008750367261687443 0.025038783551468817
942 0.02949296995488064 -0.009593089253370532 -0.02689258681309031
937 0.002485952577694017 -0.0008311809677459418 0.0038717530114934897
2 0.0007937433108163789 -0.0006656339697507064 -0.0019364611557016501
10 -0.0039624051197561586 0.0005918074707211085 0.0014279192747776602
8 0.0029575919942085235 0.0013141484088799837 -0.0044924598956342845
921 0.03399124032869979 0.029943591158697384 -0.013060167776964627
1 0.0007542785332265767 -0.004544577760228613 0.002725831742499971
3 -0.008682964938831764 -0.008450456032647484 0.0063819695184612855
4 0.00010082362331274291 -0.006613641633218535 0.00147315796115057
5 0.008242994892533197 -0.012953557449660626 0.007386438699295548
2699 -0.001512999907506561 -0.0028156453527274136 -0.002818416350414645
2698 -0.003807113056208499 0.009410771238808931 0.0018820441084828365
938 0.004414419958131834 -0.0025920154093431796 -0.0018436076832016987
936 -0.0013532044174168003 -0.003185911175348724 -0.0008322059732921633
939 -0.0017337297403945534 0.0035773710820190267 -0.008459203304332003
2743 -0.0014959724971272666 0.01408624359390603 -0.029054457650276668
2744 -0.008987350200592626 0.0010201178444808217 0.0026601353120924557
612 0.005120269464641213 0.0038771366750704685 -0.002517627115771952
2700 0.0011032815518674966 -0.003368108033294311 0.003093715228483655
2745 -0.0036643903824189043 -0.0038009793531835405 -0.012329009819059183
1398 -0.031448891503983514 -0.022579414519253483 -0.0016593710551990593
607 0.003676380038730675 0.006017774062737209 0.0010189176467669061
1389 -0.008027603535566342 -0.0007944599457858893 -0.006661945204116604
926 0.008888756846976976 -0.002662899024389423 0.014329524590237511
1391 0.016975566642220035 0.0019336969849420417 0.042653109425606135
2157 0.00833538889831693 -0.0432930244269492 -0.007054466536141408
1387 0.006066317819250922 0.007094938856530211 0.0006431370417244427
932 0.02087633871780024 0.014458165509093112 0.02457710423343341
1341 -0.00038878101393537227 0.010096973869871621 -0.0012093077838813537
1337 0.003835442274716057 0.0003903937286275948 -0.005041386715904051
1408 -0.005996735204195061 0.009348637061157957 0.010491310729884936
2069 0.0008601173583080278 0.022730434593280342 0.009751753919214939
1400 0.01663356479513456 0.01565684464314787 -0.0188465421469094
2776 0.012026701474448257 -0.026261822548398688 0.003355661555942178
1407 0.011601214580648537 0.010320750632668572 0.0018296430599305771
2777 0.001369598167881779 -0.0037514319300154227 -0.0011887853975829361
1406 0.004469841115822855 -0.016352204750349906 0.012677164515321377
2778 0.0075261085369479515 -0.005548829063251937 -0.007964636052402446
1409 -0.006126815972556151 -0.00448109645710713 -0.005329712381354922
1402 -0.0013477117707567014 0.007847516488954391 0.009437598172096846
1410 -0.0012077249818951534 0.011707784101784203 0.007422366448990479
1405 -0.00046210529137640416 -0.0014640811321105448 -0.01197954022973924
1336 0.0054167602926027845 0.007459492317431141 0.009725957688283413
2505 -0.01839054617947349 0.013436192718565705 0.022294662197540224
1339 -0.0052632733449248965 -0.0025971975304350378 -0.0006556495749655615
2503 0.001346412002593653 -0.012562125362996513 0.010978156494669197
178 0.007900037474494666 0.0017475404709953626 -0.002081069768250436
2504 -0.00862292620318335 0.0016071940587897397 -0.00788893095538138
180 -0.01963680608461774 -0.014307612675999691 0.010409400682455355
1399 0.005384307679927562 0.0008678433818078513 0.00012773411413884525
2907 0.0048602313479885586 0.01814075744063378 -0.020725007509167306
173 -0.013223208061405948 -0.007178135744588485 -0.030922013909154347
176 -0.0005773709736367575 -0.001354510242035551 0.003759734387834854
1340 0.00592742386831457 0.00382603967395189 -0.005123406246541787
1345 -0.0017505850870065034 -0.03499294174429119 -0.019052989003253938
172 -0.00047715753994174905 0.0042649069123346615 -0.0027417487830358037
171 0.0040345352676102834 0.0025388612748788895 -0.0034273135357763915
2079 0.0038381153600852767 -0.0285771672262959 -0.006132084673802422
2949 0.004271811566661143 0.008419758274511165 -0.01581417491574114
2424 0.014792488115828159 -0.010767384434670537 -0.02506444101348261
1338 0.006420235504523786 -0.0042687968685228865 -0.0051986803362788605
1344 0.005248349593286023 -0.0004953042856959811 -0.003994359861283047
2195 -0.00987931333858727 -0.0010345555113230535 0.006996927838628007
1908 -0.019000163901945453 -0.014968923019198284 0.009485657431750267
1909 0.009569711375595638 -0.0031856396821184707 -0.02308566038659494
790 -0.01033148817181732 0.009005666159182373 0.0016138889420093928
1492 0.007416575534928589 0.012214705568864385 0.00261766800202629
1487 0.0008063657369823926 -0.006065156962109708 -0.0010110492731638338
1491 0.0034762031636468046 -0.00436938904096025 -0.0050664457444813595
2189 0.0007132308451782398 -0.0009927141160063302 0.000681144729833981
58 -0.019585619868363508 -0.027575535785949425 -0.010789223360042179
2860 0.008520557435786115 -0.024206073091185276 -0.016897535648166994
2862 -0.010632129355149131 0.0014235577966925667 -0.016690140212510564
2861 0.002088279852455911 0.0015446573212147634 -0.0005265450882457214
2905 -0.020282290565537972 -0.01910228051409849 0.0025398678589697403
59 0.011322829959146938 -0.014002335765892883 -0.012554477369551325
53 -0.004242902693629041 -0.0008672297240070493 0.00012788665950956316
1486 -0.0026299230752208753 -0.0003960374995918845 -0.0031713986422609347
785 0.006784037307846206 -0.0018897836323191058 -0.005524191666769064
52 0.0052487573760097725 -0.0006831646961099984 0.001250302541115052
54 0.024199598540384788 -0.013224805265698962 0.0038310513551280006
56 -0.03213750727890702 -0.0012083903833357058 -0.00391981406873582
55 -0.0008558172397127563 -0.01521696217017935 -0.0006119903671000904
1488 -0.0032106982816977226 0.0037506596756386574 0.0022683297191700594
1489 -0.009725853038684396 -0.006122701398313583 -0.007023102311605994
783 0.0016826027427086785 0.0021847088372403105 -0.0011172089205180333
2906 0.01170788252611187 -0.0016173552292072534 -0.0018722222677259757
784 -0.0050248956520668915 0.0028688091087114825 0.0005462559128039719
787 -0.008740954511214228 -0.02696604421749013 -0.008336592990000596
548 0.02714646988165544 0.0040091912500899544 0.02539987272614381
549 0.029600329727682177 0.0004093683920450867 -0.010553454726968637
986 0.001564104578856919 0.003279007832382775 0.003695234925909423
989 0.0031177949280412256 -0.0017202488194515433 -0.0017164187338273007
37 -0.004842071224519154 0.019879644439519343 0.014815405420063925
789 0.008826228674245559 0.015811322212576924 -0.009517125576314463
786 0.017260293585449896 0.009458127267615522 0.009003325202886311
547 -0.008411542999878164 -0.00588609250184134 0.02170791698273528
2427 0.008300784629590023 0.011189558370341357 -0.014372968265458775
768 0.006336671887521027 -0.006280276279062776 0.004301964994180579
60 0.003839732760059955 -0.007926547546267261 0.0017968660114153364
67 -0.0016087987795771774 0.001620686284841204 -0.012105318278142405
2430 -0.005323679241617062 -0.007294729422076481 -0.004815597929611861
36 0.003340565517140464 -0.0017181005629672609 0.002238411010960827
57 -0.0010862277032826575 -0.006179910643368272 0.002326404801316031
988 -0.0012587452592788307 0.00037324783768757187 -0.004188572070274172
42 -0.006313673382225086 -0.0004707081146676681 0.015293858184769282
795 -0.01304520949429681 -0.01353926993469903 0.018856918094938068
61 -0.008833342686748584 -0.023179794120910358 -0.008244562309393001
38 0.0031579365859287774 0.0011483687101340656 0.00710314258618125
2407 -0.0034837866053120036 -0.009378646293713277 -0.0010186349373067932
85 0.005624170809003539 -0.03789601292858535 0.008957787544124796
62 0.00171537658629728 -0.008439465041437357 0.0013985225049756354
2725 0.00474687229545361 -0.0070932241512046855 -0.009588120148996427
39 0.00928363598595741 0.0017872289306930943 0.010347555098366386
35 -0.0005236203214265136 0.006420421943295423 0.0032622609323365768
2726 -0.0029770888387783715 -0.0018600841482384932 -0.001045736004296521
2900 -0.006978715971311268 -0.008352777929590589 -0.006827654031511223
2727 -0.0027145688379907537 0.002352327819826189 -5.2526858783903126e-05
2901 0.00396106557417385 -0.006720952034096811 -0.014344218363130046
2114 0.0063559919209746005 0.0033699514638662643 -0.0007531127362756417
2111 0.006497639263881329 0.003711376259557898 0.006075567881633089
2116 -2.7113891437666755e-05 0.017745795564800743 -0.007287903401532241
2112 0.007957369701909451 0.0015650168047968225 0.005812262862746047
2117 0.009037484848348432 0.002091779618418952 0.006920488714414093
2899 -0.009958830908358888 0.010278873977683177 -0.01145063603402533
1798 0.006333096924020386 -0.008947294699155822 0.01648632598619865
791 0.003624979590153291 0.0024324208343516024 -0.0009640816096073275
2408 -0.003690935868573523 0.0011500645764273064 -0.00035040522676666944
2295 -0.005968167560770901 0.005412949786417501 0.015928906054069755
767 0.0022855713454841002 0.001639530793150547 0.0020920098761329684
821 0.007630809116454651 -0.011002491014748822 0.02092387225796527
770 0.004797201374848733 0.006066008616169789 -0.01996441160581855
2459 0.0020598443975773195 0.0012566953674271217 -0.006106906555797404
1793 -0.0008078426181696125 -0.003890525040644985 -0.003002103501163629
2113 -0.0017886039731686274 -0.00024171782311897564 0.004034562448336502
2291 -0.005597903001881192 0.010441027091818617 -0.00425106440681948
1797 0.006371235504616722 -0.006067375497145684 -0.02487599972734146
2290 -0.007131111664896887 -0.004476567498626454 -0.00205966301112923
769 -0.001082687851672854 -0.0032428678414393973 -0.0005110547853319933
766 0.0022814093936690026 0.005056598825877651 6.313524357373758e-05
2959 -0.0023149314324762372 -0.00194243848523041 0.006223103440417713
2694 0.015076756093410942 -0.00993905822546175 -0.005774258884802934
2693 0.0043881009427767115 0.002703432186376326 0.0015457746707833314
2476 0.01685014813736289 0.02601363070666995 -0.009200560751720495
1789 0.0009747121926105301 0.0020884089722342 0.003981392679456082
2961 0.0022705734951446004 -0.011810278567614543 0.01236668732221679
2478 -0.008951719261966813 -0.007821973594307854 -0.012544913040218075
2477 -0.0009638900953704168 -0.00019103244787350407 0.0074810498868113666
2716 -0.021535056180395227 0.003065005911208702 -0.0066260319753315205
2718 0.005577511375344226 0.0010176212106659153 -0.014482343439854812
2717 -0.0033890254900190366 -0.006620047356523149 0.001702652845603067
2543 -0.0026411502546246995 0.0032900640225665048 -0.0001910646985795436
2294 0.010789053444280753 -0.002086868461688277 0.001485523493013512
2692 0.01406597326711015 0.013470534282649665 0.014049467337817452
2960 -0.004304656669252535 0.0008439514262768215 0.009316198532703174
2287 -0.00575050442173117 0.005667085957164694 -0.001964562624771706
599 -0.001459695948750797 0.009802155386171496 -0.016404806077039275
2544 0.005714443238458419 0.021645675940640936 0.004788040547050759
2292 -0.0010236190896101792 0.002871136891088984 -0.0016299669829915172
772 0.0007960745750443897 -0.01754631727197455 -0.01631517699372562
2374 0.016086732091614587 0.0008641661583011561 -0.0024297262274496044
1395 -0.01355556406833891 -0.012187976965591499 -0.013366862494458632
2376 -0.004228398488133662 0.0021099912626233743 -0.011043996560579434
1401 -0.006783127663570893 -0.004466493808041666 -0.008311339273049397
1396 0.002845449667748055 0.0009572183792559688 -0.0028958787827454446
1386 0.005679051704696814 0.006520051793346428 -0.0013310910102053532
1403 -0.005115249618933621 -0.0046526833171937395 0.012755344416843173
183 0.010742113877387377 0.01105336516302009 0.017088592783654277
2073 0.004403718523812549 0.04501120392984901 0.010338277137655543
1393 0.004387806336203089 -0.007820131062922607 -0.008977654960056848
1397 -0.002577132080465021 -0.019634200449453982 -0.00028072842599306065
598 0.018528142470388684 -0.003149863713890508 -0.0029328279644455545
184 0.00011259120576830434 0.019589181110193397 -0.009227110842718052
179 -0.0025969412816104678 -0.0005912798492119375 0.0065778812488157395
609 -0.0004924659651399941 -0.00025083613110527664 -0.0031913380428322084
600 -0.009588450768165295 -0.02526039735378964 -0.015522267453382515
596 -0.0009392313179583732 -0.002202525671836707 -0.004047411988679807
608 0.013456967301059166 -0.021923886090302724 -0.02292361635947333
606 -0.047149675376415345 -0.0023667655277535555 0.017302357126108954
605 -0.027007419688012867 0.02446761978568878 0.01982704738535165
602 -0.024417048324592502 0.018572476999122758 0.011282913882202835
603 0.0006822684661201166 0.012068666473332414 0.009292617913343862
597 -0.008168215258106643 -0.008199542660815936 -0.0064796903182954835
601 -0.003697417045434439 -0.004292989332424623 -0.0011409446234213034
604 -0.005161668293390949 0.003094847729079863 0.0014333381497788642
1388 -0.0020275339221190215 0.0016843762291882326 -0.002816949026926815
2396 -0.0013330534507982176 0.0008363923828579421 0.0008472899311894452
2397 -0.0023701361872333643 -0.0013901310765405143 -0.0002613588870645728
186 0.0012846838478843372 0.00840667934243754 0.002363282839420549
2813 0.004999987382039974 0.0063706150150253235 -0.004590196849892215
2327 -0.00025902112258424154 -0.001528954882472345 0.008363000209603986
2328 -0.013931955368685743 -0.0061056269556916 0.01507283888159743
2460 -0.005148689192432882 -0.017651093579855205 -0.009373886865813929
2326 0.011443465226190016 -0.020191340249716687 0.0048013534178914866
2395 -0.010351243533879608 -0.0149233612487301 0.017465900238257673
1390 0.005777617344699149 -0.00865233342534443 -0.004959535680937586
2422 -0.0008760332979188731 0.013552361409848597 -0.017660377835889706
181 -0.0038276282154115363 0.0040670838028166924 0.008205142209323052
174 0.009300000030386411 0.027798468120600328 0.008551892114360126
2840 -0.006216489157147184 -0.00014769280391044366 0.0026107236115439922
842 0.003998429515226912 -0.004222155719558069 -0.00018526922545211556
2841 -0.013590100753100529 -0.005893583615641271 0.01135902045290949
848 -0.00019007561531540925 -0.021402948569873535 -0.01041866415008393
845 -0.0029065684807797875 0.00017706367414963082 0.00243309301533313
175 -0.01797868239900836 -0.011944171252746001 0.03346629167557373
2947 -0.005858309162263131 0.003428233985068781 -0.0029475973797435974
2948 0.004013784484707862 0.0033686420364267182 0.0018807913275902422
2556 0.015352184669631046 -0.01181662281334336 0.03262631575502619
2555 0.004307730227776122 -0.001237260348801556 0.002471784672318339
850 -0.016505679047273368 0.0025118312494979344 -0.013151302837499915
866 0.003138780312042535 -0.03229425702477542 0.017849778003398094
177 0.018821154648978197 0.0077260795828313815 -4.3814432884404176e-05
862 -0.0008611053555270793 0.0008627926230679709 -0.0035119587887490603
867 -0.006083087521279483 0.014361135796457784 0.0028804970538194715
558 0.00532209895773333 0.0096426612571075 -0.0037523004045395976
865 -0.0033716984354468698 0.0024335118995555995 -0.003485026480248909
849 0.010325464629350056 0.011479458343364647 -0.001432927225965753
846 -0.006614153425620784 -0.0005489819410640084 -0.01215177202279899
2968 0.007142172481613047 -0.03845265110753342 -0.01670419494527276
2423 0.0018423940921167635 -0.0027318295292157887 -0.004205839694010771
2554 -0.007725770293309869 -0.009139069134107914 -0.0005879120293729165
2067 -0.01757702701553528 -0.00013200239189244757 0.01215680226003593
847 -0.006300058301324795 -0.00938006718115558 0.03588643399502575
1063 -0.007775462788909726 -0.0022164075644100284 -0.0003067265773878166
545 -0.009092769679127454 0.0027741635604306004 0.00879399070042649
561 -0.0005246720749958899 0.01088138526047473 -0.0035948662035816693
556 0.0034658387352104764 0.0016143560096054828 -0.0011394536844591071
559 0.01021150623582212 0.0006273543553438876 0.01880044457890867
788 0.010630499840649633 0.0010249008113748773 -0.005169868788628718
554 0.01944488365684959 0.003210270696852668 -0.019988608380769185
560 0.008508748498658764 -0.004926974032460961 0.019055295918545264
553 0.007837724680082498 0.006444263041465602 0.0038888908595729383
2969 -0.010301021049357394 -0.00031392609848034027 0.0038409438168401124
2587 0.011754930426912032 -0.000978072516130071 0.0018707677908788743
552 -0.009466328256992874 0.008101930153428551 -0.01780159781661374
557 -0.003907459646649842 0.0079346316759751 0.009584506855901894
2970 -0.004496536127898901 0.0007407276414536168 -0.006199736143526159
1062 0.013565458553236669 0.002310831329832962 -0.010474531444521411
551 -0.0036179331798236584 -0.010323937252947406 -0.0016955718741057382
546 -0.00491611388808402 -0.0018173636794683173 -0.005343741892525213
550 -0.00034563603062171005 -0.0011724543251253362 -0.0046425838230631416
555 -0.008896041066710611 0.017676874132871466 -0.017633696814033605
994 0.007607995114393062 -0.01643057287956582 0.003481264912016743
1000 -0.013785721172718028 0.013882215453270692 -0.011148640488061346
996 0.005543134520777667 -0.003458714495550548 0.0007753077975234142
1067 0.005629703683911672 0.003848610373368108 -0.03092246026780094
1066 0.00922320892373171 -0.010092320501913114 0.0004643078378998294
1001 -0.00508364365783386 -0.019409576745479506 0.01205176799741794
990 0.0003787623163102671 0.004326184625635158 -0.002462778915621396
995 -0.013194633136958735 0.017004458599328944 0.004801684587471774
993 -5.906663445396219e-05 0.0065610659826947065 0.004569522523095375
987 0.004326282733311551 -0.00043745665925612253 -0.0021446202214452145
1061 -0.0031026917254938055 -0.0010532699434395484 -0.0008881785051445022
792 0.0008800861949145315 -0.005729667959782018 -0.001142005035482068
1065 0.003063647458562379 0.005907627258035151 -0.0043130755166719366
2588 0.00023794476357559479 0.001154561214524838 -0.0031782153904118386
2589 0.004432268957559757 -0.024121771966747956 -0.0047897732427525114
1753 -0.007160131480694207 -0.010776208471077107 -0.022207267909852297
1755 0.0021700117068919078 -0.0031725927911097408 0.00942955494852984
1752 -0.0009676575846370838 -0.004761455735425006 -0.006585892188690779
794 0.0017713400980067723 0.002464954031061845 0.0036474625614582048
793 0.0009839978708919735 0.014570940699048322 -0.004104339644788664
997 -0.027825164877445147 0.006492659559991158 -0.012333073672442785
1759 0.010352486648768913 0.0006401532057495309 0.02099311719412536
2119 0.015295720349855397 -0.00022538501572040418 0.01225992385381377
2115 0.00444048075902985 0.0052067183079193185 -0.0033486840170456945
2120 0.010830779544313895 -0.003905086930328695 -0.012529157175294084
798 -0.015404949621382346 0.007179542304666056 -0.007493122673965267
991 0.0065742614449936666 -0.03204838897117896 0.00811343055071833
998 0.009588429751657421 -0.0031010753333825416 -0.0017723514119148969
1751 -0.0026552929232887654 -0.01106763881067043 -0.006024287609200718
1757 0.0132205734690376 0.006471520292109999 -0.00791663971916694
992 0.0024052447069701755 0.02012067612154836 -0.0073171699275218875
2118 0.00376081652252547 -0.004429474986225569 0.007598278589062441
2121 0.001927088750178303 -0.0011314333446349571 -0.0024949719630931013
2125 -0.006347487012374746 0.01121457019713507 -0.008430061369297973
2124 0.0008116058784567384 -0.006132834659335115 0.003147162319336814
2123 0.0057947524272761765 -0.009583742438208467 0.004725176021533007
2126 -0.021265897932067176 -0.001971226432548937 0.008814508383041417
2122 0.005603332574119555 -0.019365257622232995 0.00034437966710037035
2129 0.02277481796091398 0.014246747677531294 0.006748074352079447
2131 -0.011333716754233353 0.004682082468049117 -0.001251073783312441
2127 -0.009641289050997199 -0.000467561743455914 0.0002858121993997172
2132 0.005451206496910206 0.016428541173483326 0.006143908955867184
2128 -0.00341773522584631 -0.0042550736365445044 -0.007109315514531528
776 -0.015674709872354357 -0.004077206617841267 0.0036814183753837437
2133 0.005826852563958252 -0.004828092244388356 -0.002102634619488173
799 0.0007801386071180038 -0.0004174078990957825 0.011934571543863152
771 0.0017486496822819283 -0.005496535921269762 -0.00032981600963508876
1745 0.01376129802405111 0.020856759557097714 0.0074832032817688954
2531 0.008694629921612119 -0.002180605159795843 0.004232462485539389
2611 -0.011200714380083873 0.01817182400300437 -0.015875205386290833
2458 0.013147903903786638 0.004309055497623608 0.000419615715936528
2288 0.002062991632545338 -0.0033603620684609058 -0.0007201718158140015
2881 -0.01720100602381604 -0.013379510457397619 -0.006670081556950167
2883 -0.006282894768735098 0.009835660386119903 -0.025984140841205504
438 -0.0068146099121126555 -0.03622742132501683 0.002849512178422282
1375 0.0073124070206676325 0.0032627695744230243 -0.008649403834595948
1371 0.0033590457877072455 -0.0016741972664510094 0.001817436483918746
2542 0.024300704563662862 -0.00816660413850544 0.0002981134343785505
2882 1.6727581415350067e-05 0.004540701956381622 -0.005001728452908475
433 -0.00801241871528337 -0.021649465640646515 -0.0019172587062617954
429 0.0033816256241348663 0.0016421235061285144 0.006269163558910387
428 0.005763566569169241 -0.004367348814789034 0.006596490986916584
426 -0.002083399884496919 -0.001784541579785302 -0.0020809807203695093
2656 0.022948438558824318 0.015564338374376738 -0.03473354613816028
2657 -0.00222531483108901 0.0019772532674586056 -0.003016808418396111
435 0.00531188488505369 0.008642703295356744 -0.0014356681550595572
431 0.002691605127069161 -0.0037843576750597485 -0.002023056230833851
2658 -0.003003038757821846 0.01457975878435869 0.009501367468920318
430 0.02212070895623529 0.0027601097896913867 -0.011528567792854934
427 0.0017857881504999371 -0.008447368729246101 -0.002285442059398368
432 -0.006401875976277467 -0.014133243650119861 -0.03205569822088162
1364 0.00043724038807723656 0.0047548543686004915 0.0013364346962153033
2448 0.017658248122514795 0.0007592340291834614 0.013301917332805342
2447 -0.00026748940066171934 0.004774309561788201 0.0023451332993832097
436 0.0003245213840629297 0.0033898280275631346 0.007329431936866742
2446 -0.013579431315220361 -0.01962288113990032 0.002808615659004603
2613 0.010551283040610475 0.00460214268648191 -0.002233677142515822
2938 0.004291409200992278 0.022955997105694716 -0.0051428035137852
434 -0.0001469585366057237 -0.00029392711253009454 0.005347723551371906
2532 0.03070341804560464 -0.028137201205665065 0.014710992276555186
2612 -0.0006020650769963775 -0.004136027110853942 0.0010946537750239718
2220 -0.024563583275672245 -0.01604254490878775 -0.019170361947015532
2063 -0.001069426938319619 -0.0007219192799541034 -0.007266568012852467
2893 -0.038689300072167074 0.0014879126528043551 -0.0121607081700115
182 0.003230672143064826 0.0017262770243413976 0.007235520145081441
864 0.007648751675594717 -0.004085586350015165 0.005290931498786461
2213 0.0011815372034321005 -0.0013786061926779813 0.0005318480452097654
2940 -0.020736641649561464 -0.015049836275083979 -0.0014556414453090385
2939 -0.0010519794634943017 0.0037584635040950657 -0.00035467281101005934
2800 -0.0029219102577043928 0.004818537509410911 -0.013252869825579118
2062 -0.0036112527102092093 -0.007645791306882198 -0.006419781149313304
2802 -0.014196837117316249 -0.018730637487852392 0.006734538253170161
2212 0.008679699641245809 -0.002485077034377715 0.005685356864456339
2814 -0.012033646147685132 -0.014292871069080481 0.02030364456065783
2812 0.006107305003705708 -0.02543260104183511 -0.023037204361786502
2066 0.016630459367359563 -0.006827576117248979 -0.0010735345642948738
187 -0.00454247686227989 0.012976185111277759 0.0064714349833227105
185 0.0017035256650420668 -0.011263441985790717 -0.006499311094350805
2801 0.002535965258815272 -0.00044384792391326597 -0.000288273841037749
859 0.0011659911495521817 -0.006383733420542355 0.0016539735839001014
2217 0.016412766617937554 -0.009099912718165638 -0.0017138228662722398
2211 0.001653934491595843 -0.005441435740970301 -0.0044436945234334856
2214 -0.0011906204277364189 -0.006522669821485183 0.001160982285928957
855 0.004092057943285464 -0.005597970855877725 0.0020371449541616063
851 -0.001962075854368463 -0.0030067120463246554 0.0019402512717266052
854 -0.008346290994683524 -0.0044256071098197755 0.001888161270104411
856 0.0003580960106765026 0.002405017573443029 -0.000735154096232556
852 0.009716969592343127 0.0006925858274624608 -0.004282229970740582
861 0.00315142791144476 0.030353304794263677 0.014294638178729007
860 -0.013482542130264511 0.008322669784044914 -0.007315671083753403
853 -0.012319322690857098 -0.005220139574873195 0.02801698424422939
863 0.014361873052315918 0.01592782739557065 -0.0211057940193833
2216 0.009074929058015624 0.009626037486107413 0.00039607250341547616
159 -0.0007284482919825113 -0.002935211901189691 0.0017069934306673759
163 -0.0011773825078869175 0.0012036208244891528 -0.007457046142988081
1578 0.0005176025963856176 -0.0181654895274354 0.01730584370062088
167 0.002680162416941901 0.013865316357986256 -0.002072171685888286
155 -0.004942195166122237 0.004166773904653621 -0.0003616863298483575
156 -0.007925592344774657 0.011450192783126542 0.007795634718657109
1579 0.023504939236102397 -0.005696718017505142 -0.0035898482067863026
1572 -0.02865968331046701 0.023831663989215823 -0.03323330843129697
1574 0.015361001741882258 -0.004361563730668406 -0.004602757753536758
1576 -0.00287283632718732 -0.038451413914972615 -0.0012504303816141193
1571 -0.006473851764166279 0.006354991248033491 -0.0011176313437945731
1575 0.005936279643476165 0.011172806044558808 -0.022367633401276354
1568 0.0031476354791843994 0.0015212076793546918 0.0019081776719307114
1573 0.0047646704522609565 -0.002599621787995508 0.0012519391133720306
1577 0.00336346133107629 0.0038503977711300597 3.4697237388812217e-06
154 0.0009704943974867539 0.0008151572779647156 0.003175177525589315
161 0.007197253344627284 -0.002577664879092807 0.00989210951995201
158 0.010817791605775982 0.009655793973218706 0.006212474573931467
160 -0.002547865726274739 -0.0013743775806092913 0.007616814621909009
1581 0.00682722692674971 0.00511873784849953 -0.0018590215153175477
1570 -0.023126173475065757 0.021297419880268866 -0.004226235194351074
1565 0.003113723154603429 0.0014919956743868034 -0.0015876126622869314
1569 -0.01345004412876622 0.0039353885070006174 -0.0013375763123093312
2831 -0.0035131951523185725 0.007615145352999966 0.0004179075720672014
157 -0.0007501723962968741 0.006023113947808378 -0.004009839175925611
1075 -0.02490195367835524 -0.029618882851620232 -0.01974048991950578
1073 0.0007000075127072296 0.014701108516334145 0.002777514775275235
899 0.011918285775531877 0.021157625362215934 0.002456231170981126
999 -0.00666510491160978 -0.000881585646048128 -0.004650227394699529
1069 0.012790142521325725 -0.016534806474962808 0.017078704139277107
1070 0.0026796722897272944 0.036087601495759875 0.004808578387322947
1003 0.009196499577173424 0.025708447626185654 0.0066848879694893755
1004 -0.02032270738524977 0.01728685104192545 0.010139575778131687
1068 -0.0025821230272678984 -0.00033041769579364693 -0.00015338174448284737
1583 0.0057798106217340555 -0.017186655907693464 0.005336239357153517
1072 -0.007562403571278285 -0.01042009494651345 0.0003269390893957053
1582 0.0023483028750856476 0.012701636257701014 0.004997562187047443
2832 -0.008191504292601584 -0.012481625297933036 0.0036691235085640596
896 -0.0027568585345381733 -0.0007470441467678083 0.004893212691159572
900 0.02368646666645427 0.0016651462549695164 0.0007056048749273953
898 -0.026421337474031713 -0.006792994579329986 -0.027158327015469143
1585 0.00040977115190195094 0.006042999718291705 -0.020750898886948716
1076 -0.0029809081250631174 0.02082250986821251 0.0009603433484786718
1071 -0.0009614979662113068 -0.005242044967859996 -0.008216861860282568
2759 0.0031355704312009914 0.0037647771684991525 -3.0433642058060915e-05
1584 0.008957883219707122 -0.00014561908585593894 0.002062408018771852
1580 -0.0002551088293227988 -0.00678168461092466 -0.003410878368317032
2758 0.02378386046679365 0.0380739496913829 -0.0024246995294081304
1007 -0.017583642571105656 -0.022235918907201564 0.01720174216978492
1002 -0.0019757916277835996 0.0021961361420260892 -0.0033274339023953593
1005 -0.003818463749096611 0.0011237739330832671 0.008770139002502796
1006 -0.0011264358565058882 0.0038966239110113845 -0.0028561021907061207
1010 -0.005221179768664447 0.0022967716026819243 -0.00014740721338125706
1082 -0.003916032545252497 -0.00236384776327304 0.004219614967636292
1009 -0.005453131599386589 0.020358312388915046 0.009582188063467528
1008 -0.002753219592384422 0.008845988635898524 0.006082289142753035
2655 -0.006122027662196146 0.0021608021421866885 -0.0014452330685365757
2654 0.0026780431320308044 -0.0007566038674193152 0.004220232367453544
2653 0.0012377301122763725 -0.02695541233362072 -0.017370830756876423
1081 -0.002019200976230803 0.03196637832423268 -0.01737747019116525
1077 0.0012634340813817491 -0.002869970643914744 0.000789484722680041
893 -0.0005178542481014116 -0.005326367904399263 -0.006351789898051989
2103 0.00838182686657662 -0.011054365301459845 -0.0024619196810675313
442 0.0016900986983480672 -0.005210547339546098 0.012703763764325034
2130 0.0021333531122860135 -0.002829512754185061 -0.0014383516091032932
1078 -0.026267909194046483 0.004218417245713452 -0.00896148240083089
1074 -0.0006388349338868785 -0.0003374241580541381 0.004204715857063887
1773 0.009040177499750189 -0.005055403304441944 0.03727607327941778
1083 0.013397804612477337 -0.003584173532176567 0.005284583710555373
2135 -0.002420697980585652 -0.0005077423833395248 0.021844968886216228
1760 -0.009131558958470518 0.0012093462526639176 0.00014890161057487083
1779 0.0022796073608685008 0.00546050194668671 0.005552260274736108
1768 -0.007344579524274527 -0.002497387282213255 0.0056734390638371645
1080 0.00365124795559659 -0.004499993162525764 -0.0003430485634966863
2134 -0.000344881687772369 -0.010219302614404966 -0.015214640232900381
1085 0.004991257703321671 0.010883933362966393 -0.0033397766243422186
1778 0.005992196226742273 0.006831692512414856 -0.004224975442786489
1079 0.02271915746744649 -0.0014564779745359277 -0.010833918715096539
1784 -0.00885874533280263 0.0061178926684019455 -0.006974687430163511
1777 0.0002776663868552674 0.0023463253895830223 -0.006379214138772103
1783 0.009066427624714952 -0.009204987429198647 0.007469356397791195
1774 0.003574089312338479 -0.004027211312842176 0.0048517073223641296
1780 -0.0011813887902068646 0.007709990139071929 -0.003569229622955776
1785 -0.002633609022550056 0.01730470149811672 -0.0010045354154045172
1771 0.01052705848713347 -0.00456018847514056 -0.004270781900276754
1776 0.017529154182121788 0.009850323131088311 0.017581223015457025
1782 -0.008695941414883166 0.013889805143856708 -0.0157399952065324
1781 0.008393804016600961 -0.0023093852225868346 -0.0023195667858148315
2108 -0.0024363845819338377 0.004713028015030869 0.00027959224492793563
1376 -0.00135443792100154 -0.014811386593397537 0.008086035298359794
1369 -0.004464589947368204 0.0009110509605666172 -0.0015125891177531973
1373 -0.0022640699907544976 -0.010548438841141672 0.010829901243352575
441 -0.018884044862232986 0.0005803117827438084 0.010886518928066751
437 -0.0007867858223620369 -5.15482704482267e-05 0.0054939782675321736
440 0.018343089540314928 -0.02224118503417825 -0.0037857363685472835
153 0.0067220285728442335 -0.0016657775636932264 -0.006218472336660945
147 -0.012388075547184497 -0.005020700397162595 0.0020011710692982958
148 0.003151289983780006 0.005171129990404643 -0.0037326747554298143
149 -0.002432964019136791 -0.0014654297046936312 0.005264245171627453
1361 -0.0038960341705034716 0.0018627715520107327 -3.3337892472595226e-05
439 0.00673905869402182 -0.021112908866260115 -0.009921399442863287
152 0.008409508459128598 0.01601800006363498 0.0009293541479262169
1372 0.003012915878879709 -0.006821058334849063 0.01049534237238326
1368 -0.0008336950073906867 9.296474760456982e-05 0.0002063562285322066
1365 0.0003574216821148607 -0.0020503401415538003 0.0021755304677472196
145 0.002540494212900223 0.004842188662932776 0.004595080736452722
1370 -0.0031057778105577903 -0.009716583013195272 0.0071056173942235625
150 -0.006988789959297749 0.026921299160260436 -0.00025939894344467084
146 0.021072216481785606 0.02369385396983832 -0.006510784302456274
1366 -0.001500705404442735 0.004575878673759671 -0.010887630182682599
1362 -0.006765549909818863 0.005306257790008969 -0.0067106226925930925
1367 0.01917420146205116 -0.003715945142612938 0.009776850049495772
1989 0.0007745356544556126 0.002613765295089972 -0.00154748665542525
313 -0.0023237449036264276 0.024716869924477535 0.015164163169697403
1991 0.006088158155186993 0.006467588537038758 0.0020161610373289804
2848 -0.004747572365764809 -0.0016713863252617476 0.02060965415176323
2849 0.0014367246493986706 -0.003787070066313662 -0.006939650657790921
1335 -0.010959537962500274 0.005993111051945439 0.0039764248720779195
857 -0.010729490415710481 -0.020416524757629062 0.020078248267442072
858 -0.013997218244310876 0.031676276254696635 -0.0063424495997351825
2908 -0.009639295761460302 -0.0015036158162151808 -0.0010444680885519015
1318 0.0004054057080773707 -0.000944163261542735 0.008427887728691703
1323 -0.004919152961203742 -0.000740598269658333 0.005999015461593762
316 0.005571416400017504 0.00019015693207636891 0.0023452977428633504
1321 0.00123442569646707 0.0038528186497025886 0.004130288050163013
2895 -0.015634383853108027 0.02487862443108714 -0.0204545820920618
1363 -0.007594067850864205 0.004050735223914863 0.004583111129807499
310 -0.0019291402742930759 -0.007848901784056493 -0.005540970173975367
1333 0.007090013420354254 0.005975984401141939 0.00585822722848676
2643 -0.003931208279890325 -0.020552327345437355 -0.01195269349380724
317 -0.003972969332922706 -0.0004199295371785412 -0.0003350190871274055
2850 0.01662373449087929 0.0019049763480147408 -0.0025861092825593002
1328 -0.01582501651090581 -0.018546552438017574 0.009619564320879457
1567 -0.01471500353682602 0.006512899057700922 0.013351296351823888
1562 0.009971891416190733 0.0036447683339772786 0.00318274945191166
1566 0.008875090320997184 -0.01804489443985965 -0.005688076127403748
1324 -0.00043731245356439966 -0.001534481095128077 0.001728195587244027
312 0.004478862720857541 -0.0009542447525612203 -0.0019214628308560177
309 0.013065938872288825 -0.01421917837865769 0.0042687599600211385
2642 0.003107562427270267 -0.004421919288617146 0.0021874090340017137
308 0.003003623894485039 6.0109267669806645e-05 0.00021928325974308625
2604 0.007979416876861491 0.013427188643489487 0.012017639692799696
314 -0.006070526805777655 0.008910904020136659 -0.011721979110188638
2641 -0.0018443875844361755 -0.006517648735219505 0.0025658185757930514
307 0.0010891097503324572 -0.00433488598178019 -2.9293202782013985e-05
2603 0.002435193345036356 -0.000731261500383907 -0.0005780941292898798
1564 -0.002147602420235902 0.010988811823647929 -0.0012772420067678886
2602 0.0012203912904646737 -0.008309255068803232 0.005501368124689456
1561 -0.006663486243997669 -0.0006438918455338591 -0.006258155912551941
311 -2.635965587453978e-06 -0.00904456476680032 -0.004023339644683739
1563 0.004667726520073866 0.004596442899288358 -0.000498222103283003
1329 5.9105713562648054e-05 0.017791107461629357 0.009838222396742265
2880 0.0005110017833729783 -0.024418043911718545 -0.0016678463093791505
2804 -0.0016322379725847334 0.0020693455633383775 0.00035224675333060576
738 0.015249427820564678 0.0013470728818414104 0.004063506378934448
925 0.0044898889288077165 0.009039402479379306 0.013052427960242636
737 -0.00925935196870624 0.0002865635316660383 0.003350248323519763
742 -0.00846401867611858 0.0020294864040163 0.00442640738911429
2830 -0.002954295009788321 0.016111863507305774 0.00418506029033262
2963 -0.001652986221095967 0.00040391238809935634 -0.00544875220241379
2964 -0.0054847788712037646 -0.01559160495376871 -0.0004744524732851934
2379 0.03256243993358255 0.012062947553262857 -0.004326344346885907
2431 -0.005417300213746138 0.0020257928950766415 -0.014687929943022992
2805 -0.013040633515542006 0.011126946994656122 0.011825913082111783
741 0.022834035742598142 0.0027596299393230083 0.004926383143203525
1888 -0.002497055081096226 0.0017554248777880636 -0.002574630887286192
2383 0.019790279954943445 0.007406815220548411 -0.0013689674314563036
2385 0.0018905265987257927 -0.010562177455595465 -0.001494807119301988
2384 0.0015395980698075995 0.006095573540726746 -0.00704148367175713
2507 0.005628865614763788 -0.00042482909063889374 -0.002436308579836922
2962 0.0008024628179659401 0.0024111449989993655 -0.02636837557621993
2508 0.015264053751090566 -0.004832160701365044 0.018239343724922686
2378 0.0050909964356115845 -0.010176224357501977 -0.0003378677140207649
733 -0.005190677750315541 0.001669662586794196 -0.000898919162517823
736 -0.007508958419421549 0.01015884824115465 -0.021569026939957544
1889 -0.0018136762732098334 0.0038538368990422684 -0.0026360536709731813
2377 0.026378189116253843 -0.018224361505791997 -0.008617486558575482
735 0.005134638537429729 0.014686709947695782 0.0013863840305221688
2432 -0.000611693091420579 -0.0012093234214794128 -0.0017642044021575604
734 -0.007356208404020543 -0.0006438540897042509 0.004509187263755044
732 0.005207044624911506 -0.001890541204799232 -0.00011435890424601667
2574 0.012154454122855873 -0.0016570277015521301 0.0010036754254387488
2433 0.0016007166149009746 -0.0005850574713474443 -0.006463813114936986
2887 0.0007959949019076341 0.0012010802481277794 -0.008703660965820228
2573 0.003926551841509464 -0.0017767298791380732 0.0011058384625142025
2572 0.001846330982354297 -0.006857100556883775 -0.0005902775316620132
2888 0.0023695578512587315 0.0012252860418791116 -0.006478411766425834
2506 0.02023642245120848 -0.019558969406816992 -0.0181748554436343
2889 -0.0001884186686264501 -0.014749595217165202 0.017281824683576905
2624 -0.0058876816550656385 -0.0009567005735860316 0.008823105358141606
894 0.001390654750518765 -0.012410444303762662 -0.00559174087007047
2811 -0.015856630611557898 -0.027429901332312257 -0.0009417416425304727
2810 0.0006489881629826163 -0.004634233796966709 0.0008674101165664326
1883 -0.0014873865128933194 -0.01053319610513746 -0.0012288264319315902
2879 -0.005444275469084158 -0.0021146638320098166 0.0017119381962834995
892 -0.0006155805922210441 0.03528305222041394 -0.00402853745940539
2345 -0.0005752504570826325 0.00614644458340091 -0.002450878478949286
2878 -0.0039923770659689205 0.010799736150079882 0.016255353785457817
1764 -0.001955275851467441 0.004168935111117924 8.021788842047646e-05
2344 -0.002055392226124637 0.01328704171716141 -0.016957814555100814
2661 -0.0021760230202906455 0.0023699829664011094 0.0038964658486851126
2660 -0.0018231531574969106 0.004811692847228151 0.0026594309311634957
2659 0.004037247863648635 -0.002355493726774796 -0.010404924372733522
2937 -0.002364528966008675 -0.0072005487083136675 0.016750380596417834
2936 -0.0005875063130015553 0.0004743900530818723 0.0008890577581724493
2935 0.001640187141962747 0.0015347298294352968 0.011003661716370107
2623 0.006846164456925386 -0.005376328858327837 -0.0036718813367516635
2924 -0.0003061472736915497 -0.002439651484856287 0.0008432266944247449
2809 -0.008356972624160344 -0.010897300176974985 0.028811864895465663
1769 -0.015527582515264112 -0.01096984234243747 -0.014116295602130693
2925 -0.02776794192940076 -0.004406091343936577 0.003562564921900872
2923 -0.016621922292332173 -0.004308663380156249 0.00787881878391446
2097 -5.385633897557605e-06 -0.010500900438912277 -0.0037274462375743596
1876 -0.009608872124566426 0.004889867907726894 -0.005989008038265496
1847 -0.012708109656924036 0.0015151360440176724 0.003117525918651099
1845 0.004333827819586837 0.007774596651326434 -0.017520501588732185
1840 0.004243881447784487 -0.0002107290260503905 -0.004198634993770836
2091 -0.01512485653491285 0.020113915500444283 0.005341252002902939
1851 -0.005424866702205572 0.02150675605763762 -0.00944372476435551
1084 -0.0019295440169300525 -0.008357275274280008 -0.01766575355654356
1875 0.01800397584735875 0.009860712883920033 -0.020200392881263754
1775 -0.002694459473288279 0.005050201323278608 -0.013251896195421102
1885 -0.0064970816893291814 -0.013797573325521803 0.00032059188602507466
1880 -0.000683947990737544 -0.014598350674494751 0.0028487007684823945
1884 -0.020774596364403815 -0.02082784210256448 0.02505547520679711
1877 0.0006156136882397734 -0.003811958760432661 0.0030861045714656037
2009 -0.01584950263176237 0.006332974114790881 0.006365262624704359
1882 0.03607898269611497 -0.012806878794610094 -0.01926849806652049
2005 0.0026396070674355836 0.0019446395625269271 0.0003613889264623094
2002 -0.0009370820197699882 0.0005327671814586399 -0.002127978461336525
2010 -0.015957227644396218 -0.0064863828641465405 -0.0005543465022764591
2008 -0.0003785138964254504 0.0007006236957096191 0.004056774319042812
2006 0.008770115688716343 0.009302183884312375 -0.005580778643414371
2007 0.008142446587386252 -0.005496215678384368 -0.020759932608977405
2000 -0.0027301914317003576 -0.007174649122499759 0.00446155336112501
245 -0.004371880949240077 -0.004508192556627629 -0.011611527829003246
1999 4.232159318005601e-05 0.006029748870435009 0.0017879440712723759
2004 0.027528345306517907 0.02158126027283028 -0.005154367174588542
239 0.003833821630368762 0.005635864048593576 0.006133684641019372
2143 -0.004706243147415086 -0.0022573457843858393 0.004121384010564363
2147 -0.012768952472741877 0.004315752768020355 -0.0035553933203667453
2145 0.005876796507731043 -0.004877248604460048 0.020664197815727144
142 -0.005320661029058974 -0.008557022658552741 0.00539265319691129
1992 -0.016785101480422004 -0.01787184344194923 0.009917590401226362
2620 -0.000760696729003545 -0.00220581265742479 -0.004092343774799292
2151 -0.02007611144705809 -0.002978065134560093 -0.014625465150987633
240 -0.0024258740547677465 0.0015729178270665009 0.00443409842895188
140 -0.012785342988155993 0.008604575901904866 -0.006276356187161368
1986 -0.003788815372745902 0.006907822452616619 0.004010618313201916
1987 -0.0020561951305754114 0.0014279045027269575 -0.004506300179339098
1998 0.008012345964483919 -0.00907032422250537 -0.00573756458875558
2003 -0.0019042255755084966 0.016364674279186385 0.005676506416059137
144 -0.004618510252287096 0.0008363236026398423 -0.005133843942286114
242 0.017235592943118192 -0.0054561542902765905 -0.005955694317062331
2137 -4.760588340200458e-05 0.005064991836105232 -0.002736633993097219
137 0.0020558656711692526 -0.003118704659716696 0.0006750273488665325
138 0.0049760025313286315 0.007356367399741955 -0.0010347035548426652
2136 0.0035716538594817407 -0.003314664517928931 0.003699238014739517
2138 0.004729378778625855 0.0029362691681250087 0.0018681829203871893
1994 -0.03608407736589947 -0.007141791550154703 -0.0046324892993153954
139 0.005967870612623501 -0.021727425886396604 -0.008707981354543357
143 -0.013549302518289253 0.005139367763398015 0.01280672497824117
1990 -0.0011943468531433487 -0.003913225573815016 -0.006545111337984908
2144 -0.008518724261027262 -0.005336029539582941 0.01859269630797568
1988 -0.002170392567126257 0.006880712530362303 0.004070590476822683
1995 -0.011952413160520177 -0.004306760943447608 0.005233022541817539
141 0.013089705496475106 0.003287362052591553 -0.012686880516909457
1997 -0.005638478963319336 0.008120603989348572 -0.010378496098339829
2001 -0.0066303118232399275 -0.00436696796332093 -0.0011817594459170326
2139 0.008142907521019108 0.009693249415911489 0.010181527294979197
2146 0.00030089285628032375 -0.0019116475773266806 -0.0002858430075718188
1996 -0.008413586916512915 -0.003888481197175276 -0.0024939294674028866
1993 -0.0008712578809892654 -0.0003361298980949339 0.004436421795078099
2140 0.0021739611066744872 -0.001974099208355506 0.0014824066367118615
2622 0.011289801125091535 0.0009163304660116094 -0.007500655950316829
1540 -0.0014352300070058748 0.007652884489576113 -0.00033862385331156857
1542 0.006386975358994452 0.002329651305070627 -0.001771138731349526
1331 -0.020740447889944377 0.0009835684837714064 -0.0037357924591175165
1541 0.007962566797792748 0.006462819412798746 -0.010272130043612633
2495 -0.0009711239104288339 -0.0017954420389851144 -0.006703883633583455
2910 -0.004074187915538203 -0.006253397127139662 0.018755508338101454
748 -0.009161343360889088 -0.0031108045076379902 0.004792844490753291
746 -0.015051955480421625 0.008966343128181734 0.010419194187682168
1334 -0.01847196933509256 0.00804243758517786 -0.011315433861836286
2621 0.0013868258057116551 -0.002498090970904932 -0.0018993479625075173
743 0.0016129445142992911 -0.000256293643664178 -0.0014199856865825182
1536 0.005603614839534561 -6.135930070522436e-05 -0.0037665391509807055
1547 -0.0023252770859670245 -0.014754488247286054 0.008306484632376121
2496 -0.01774552793423008 -0.008508114006860312 0.021433925841628877
2629 -0.006761522777933736 0.01638652268480231 0.015685449608183834
1538 -0.0019980271474895556 -0.002052366493942727 -0.003946511130037261
747 0.023259799467269627 0.0029633018057920388 -0.000750641273386856
1537 -0.005624506172839964 0.00012661209532712614 0.0009146562867280438
2630 0.002045493348130602 -0.0009873606248165217 0.0049228058877806916
1545 -0.0009718611720546897 0.006065706929891788 0.003347670003199726
1539 -0.001791488488133408 0.000460000984499114 -0.0003426329957388122
1327 -0.004549113213439959 0.003078019371704843 0.006009801279562662
1330 -0.008145979450040686 -0.0019920743101239026 0.0015026882576433173
1325 -0.005851166571153051 -0.01447216225731948 0.017444866368345562
2631 0.011626883233154412 -0.021426342199557687 0.031141157203757684
1332 -0.02790776178023286 -0.0007213358999392462 -0.0018946312459716674
923 0.024335187927022047 -0.0039115670284940555 -0.025044648109467844
2494 -0.005383865790438134 -0.0002634045433825761 0.0019496918021249636
2909 -0.0008964822961192296 -0.013553703692289427 -0.0014514866557469187
2150 -0.0020674623154893173 0.004324164685126965 -0.0010879683896422338
449 -0.02525966380315949 0.0032340842856299003 0.007317903644169197
2954 -0.0031476888298522555 0.0063937196431977285 0.003406678406799906
2030 -0.0035471160470703276 0.00018755537721556675 -0.0024373187706593965
2027 -0.005906532701565901 0.004930222744728112 -0.004392081701503218
2034 -0.0005912883199324352 -0.009775267903374565 0.01887387246740582
2032 0.008552181517349579 0.003965643119937723 0.015309363759412793
2031 0.002781495677121819 -0.0059687863904598 -0.019855580191726997
2955 0.009151901807860184 0.02142633074144905 0.02014094220788871
2676 0.008467354679724605 -0.02336407417206145 0.00718774200996383
2033 -0.002844281373135337 -0.0106481712791867 0.030798212141881734
451 -0.005052603960264146 0.0013962888052356703 -0.00554580920281193
933 0.0030577601788367935 0.013092730522376321 0.000150925340253078
2035 0.00230894316333603 0.01795210183346791 0.018386841888626965
2024 -0.0007141223145567076 -0.003228095041852908 0.004695059188684344
456 0.0019570046516698978 0.011356158629086406 0.02625290038718363
2029 0.012598374208670313 0.005397796912430872 0.0023046007179987676
1358 -0.030047560966213343 -0.03040836781957615 -0.007809965199429045
1354 0.02044758864033053 0.012253614917768245 0.00777947045050484
2953 -0.022235558735673414 0.021059337850753847 0.009335439049624574
1348 -0.015249245419266222 -0.0008404894050005676 -0.009151691342605364
2021 -0.008581687238214227 0.001605373966971172 0.002355624506580149
1248 0.005512383003424723 -0.019161487788112705 -0.016144513043984832
1245 -0.031657926264273675 -0.005332633294592911 0.009635226744255319
930 -0.005060971632467897 -0.00394375128257099 0.004024744731027728
459 0.03108845083485805 0.00306342144979696 -0.0024836063993613575
710 -0.018501343949052885 -0.007203711558310085 0.0026556841494805397
2774 0.0025013723029317205 0.002862029830676529 -0.004461163656471776
2873 0.0020066263136723273 0.0037863336038977324 -0.003458629293372218
2773 0.0030561963247795975 0.010036357365261718 0.000831838739028706
2775 -0.003063365745159274 -0.005164450893650153 -0.015744624082500606
2617 -0.024562759358621632 0.0007961384447404634 -0.02861050195394517
2619 0.03552337854646584 0.0020326079526354294 -0.009618991002584896
2618 0.0013080455232553003 -0.006506075558049257 -0.0026712285338355594
2402 0.0009843913606943215 0.0005724898629280624 -0.0012122854148943743
569 -0.00904384366544265 0.0012224502761590877 -0.009986119282948352
2552 -0.0027909541480155577 -0.0008207056247372645 -0.0028554386366057244
2553 0.0006272493461911702 -0.0072418154022415296 -0.009040369831230112
2557 0.0034597134293932997 0.0015320891872575453 -0.00410592791820658
2403 -0.005939595839182504 -0.005214371777733904 -0.0015750314090238944
566 0.008640500754832168 0.016024340474751958 -0.007484138400043279
2401 0.010264057280271993 -0.013603103522259283 0.03791750633131538
563 -0.004066150520874506 0.01153497976123516 0.00080227371544987
2393 -0.0043330915214571785 0.0035393265012870065 -0.008248705756744674
2392 0.0007804663199851408 0.013895134852859205 -0.018756661870784376
1244 0.013115120585722685 0.009691708264028364 -0.0040321780081222554
2502 0.0038404314357705677 0.008463138778444063 0.00993887751773812
2501 0.005337569000964901 0.0032851861168615845 -0.0013739357315169078
1241 -0.0130733447060955 0.004723300729057233 0.00928608008145898
1240 0.0012231181296478324 0.005656783127946512 -0.003635423525160863
2394 -0.008760336313811406 -0.005504108615462097 0.0025567433700227652
2500 -0.02644686841459237 0.019595891983097993 0.0018736635148796858
2874 0.005267258717308268 0.006096210660351881 0.0034360374395335774
1838 -0.004055626112469685 0.0017932507199392288 0.0020530726319101518
2558 -0.0009816854387977739 -0.0023237175483045895 -0.0010128768900336542
568 0.003341851544983439 0.010323984589258385 0.006875384242599382
562 0.000306156329587781 0.0051174725650440026 0.002066279008057268
564 0.008228211925730937 0.0019528088609095846 0.0073071740817686765
565 -0.0024447156213942907 0.0002455796218778132 0.001057432106629712
1839 0.00245021878526647 -0.0034316357018037234 -0.0014684375511701275
2526 -0.014487994812900898 -0.014512972069257273 -0.0304320667562422
2525 -1.7665024194715304e-05 0.0028115163170887732 0.0044029661769042685
2524 0.0025795925130639216 0.006050508575347159 -0.018511069355628393
2609 0.008401192552490902 -0.003386341278559518 0.003518246540271068
572 0.00446365910678619 -0.00896770097476818 0.0007801521814149012
2610 -0.00450459787577176 -0.012236558277524429 0.008722264685829999
759 -0.005064987275951165 -0.006933826747192055 -0.025522368608143282
2608 0.007281487130395672 0.007333643934087599 0.023786484881334283
2931 -0.019001824693174157 -0.0204484334328831 0.007657829134250436
2930 0.003034397574036051 -0.0014016642221439319 0.003906530019507664
2732 0.007393581015601875 0.0036619557876089582 -0.0015166882983912854
2731 0.011038100645827059 -0.005117304936645281 0.0001714244455148046
1836 -0.007097173949074103 0.006388091906098117 -0.00299441525169974
757 -0.0052789728965820185 -0.0016591373485424544 0.0026565896762457616
760 0.002375207355059401 -0.002888612528743523 0.0022890925989500236
763 -0.007253818293589641 -0.01854695872551753 0.018251264787999495
764 0.0010206431465525382 -0.0049135271977368234 -0.0036880988072104984
567 0.007221280554334785 0.0006192731823293793 0.0010858122054196858
754 -0.009005282328426057 0.013293135054018981 0.006621414535350814
761 0.009270756467614598 -0.02793122169618003 0.009509830977648298
1119 -0.021578106491906262 0.006298449667131598 0.004099936071640181
1841 0.0036079599701858726 0.003660760670523429 -0.012457922189489476
571 -0.00048460982784895773 0.0044271073465094 -0.011145359365585424
1850 -0.009634589555178447 -0.005276961743577046 -0.006410508272415856
831 0.0049776998810712025 0.01799924045346813 -0.002362235276273372
832 -0.006863172977894083 -0.006164844648841885 0.005196873419685517
2277 0.006673722047839901 -0.0018778172605374655 -0.0009736464498761542
2282 0.016644171792828177 0.0029000552981252566 -0.010777454959338755
2281 0.021842623417699127 -0.0048154984974572365 0.025004347715420074
825 0.0016938736807515591 -0.0008680736080188415 0.005571469536420155
829 -0.005428363985782863 -0.013325626416543852 0.012763680181745504
2274 -0.0003153894242267407 -0.0007536262701545087 0.0017377744379985574
2279 0.015779392233055998 0.0009568900062289286 0.008924567221662724
828 -0.0028557398288955953 -0.00238145931246963 0.008585503288264353
2280 -0.007668569126350528 0.0027409202608701063 0.001112658551173005
2278 -0.026454995942735024 -0.004231338561855548 -0.006934783558384086
2285 0.0012962976763049795 -0.00995228865880963 -0.0045836420885680615
2283 0.01425309772671634 0.012356136136312559 -0.012182115982265066
2284 -0.011593867449030505 -0.0027457716961975217 0.013413995081110502
823 0.01268676074535982 -0.0036513766896068963 -0.012755494841235296
2159 0.005245407294401916 -0.007786258683952398 0.007641592681123015
2275 0.019157968672846255 0.04106080719919733 0.01600420904073239
2271 0.0022436633535153645 0.0003391444542729601 -0.0025469645539086864
833 -0.013082731953015665 0.0034143896365959685 -0.031568070680116696
1134 -0.02175220046905532 0.009769618642461573 0.01018653577898894
827 -0.016154771660282674 0.00842762283902456 -0.0028364086198487963
830 0.004030483042325179 0.00857329340970536 -0.012882562282371425
1856 0.018765746845950424 0.008994528109238835 -0.018615008603456464
822 -0.001926307952134562 0.006330901082680814 -0.0007792021121005804
1852 -0.0032077264500840683 0.006571976996976431 -0.0007519014935564311
1859 -0.0016135732621716707 0.005826828524829719 0.002868047453909627
1128 -0.007769350394373031 0.005488718162280429 -0.01848223397933612
818 0.004749996524711816 -0.0019627872979521587 -0.005141024796480214
2028 -0.005318590428215778 0.01571524435543116 -0.013965232961487078
931 -0.022356350421864773 0.035606327091476625 0.0020040452282231885
2152 0.0019359343945274201 0.0021302193420498425 -2.3520009912858562e-06
2276 -0.009443134076587718 -0.005739881501794838 -0.0010639976390625725
2149 0.0015182699812709246 -0.002168872464361403 0.0024219439106912223
455 -0.009016758470264431 0.005791285506388288 -0.0007186543548639129
2160 0.015235314383284406 0.027272509164088073 0.022841507705976285
2155 -0.0035012245635915825 -0.0076770147507806506 -0.002554983973875021
2158 -0.008572110053585285 -0.0021455049778052997 0.018810594872476858
2273 0.01166672984340899 -0.016372698712994342 0.006422755175818094
2268 0.0023993784030711955 -0.0070497643378288856 -0.007049416110522385
2272 0.007894360282935185 0.013798587713246166 0.003697666814305489
2265 -0.001847053602791347 0.0003513484500364523 -0.0008000259324680854
2267 0.03331119252872003 -0.011164252244790406 -0.014000774534119952
2270 -0.013183223702209399 0.011704900154076698 -0.01685020737170803
2262 -0.001125894627008315 0.0017262837652515567 -0.006618615904501858
2266 -0.005184492779079263 0.00014119843501105177 0.015673284449550955
2261 0.0026659901213421273 0.0015407104068087827 0.0009788650338845716
693 -0.005039502824470356 0.001964776212132655 -0.004553712804205113
2269 0.00652729314527111 0.010108718738342761 0.002839712420082526
1392 -0.005840749261154448 -0.0024158286961586256 -0.0008396150726892722
2264 -0.002057677987886629 0.00529631344611273 -0.002600106581566351
697 -0.00741946023711713 0.00839847341408164 -0.003964170583207234
2263 -0.003112795738615286 -0.00118284488053969 -0.004110627866935592
448 0.005650866055274529 -0.00537799467751559 0.00042975906409280646
444 -0.006938499983357957 0.0027702473353029247 -0.004403213501325007
1342 -0.01827321720035492 0.004037753499799542 -0.0035541101407936056
458 -0.019803662134226813 -0.0004539468528210735 0.021863647841011424
454 -0.004188025041369657 -0.0010687138541860062 -0.0018341653805231443
450 -0.011417440588507658 0.004032836631556063 -0.01903458171659426
446 -0.014096419007347358 -0.010747317845288032 0.008898607072022037
443 0.01004845322621007 0.0046800869759994436 -0.001667485919544616
2679 0.03192142681277194 0.006129326757895962 0.024932787765490794
2678 0.0028498063417200475 -0.0032286048985115715 0.0032432542989571404
2828 0.0014565452791090625 0.001921825004354083 -0.0078426411524796
1688 -0.00017955332915290325 -0.0020833181676762442 0.0042290858631757735
2677 0.008288685155513674 -0.002733081511688385 0.011051581714311408
2896 0.0010830812395062992 0.00759336614033034 0.012251843143039889
447 0.01939546018395535 0.004680412309452152 -8.736533289134187e-05
2352 0.004152438095798187 0.001415197339934998 0.006758453340031063
1686 -0.0024611624533877165 0.0074759141384344655 -0.01098259790098271
2351 -0.00011247199514582657 -0.00488051912638833 0.0015152224348243268
199 0.0067815992434748324 -0.011454160551299533 -0.0013622327081035854
203 -0.00022773621259317703 -0.007147569048255118 -0.010484937906362454
2827 -0.009604745412919445 0.02199945149342694 -0.0279112745145471
1687 -0.002466572355210854 -0.004862917376825453 0.00025240893325657773
202 0.0060445789271074 0.0029801502705114145 0.007009962277514561
457 0.01076260237809118 0.010332951242802814 0.010890261220023977
2350 0.014993359895640044 -0.024259493932071583 -0.007417041155772701
271 -0.0037262451802229216 -0.0034422407596999987 -0.004398673807626446
204 0.015392648489409093 -0.01432033512688578 -0.003188067713416115
201 0.00857299671774903 -0.003911610029454283 -0.006909445731625726
2898 0.022283306570160196 -0.01619822569057505 -0.006820889914984592
2897 -0.0019890707021724733 -0.00046758847947768283 0.0015977774281742102
270 -0.00174725189298875 -0.007873322034697018 -0.0023466137963979836
272 -0.005836802037435895 -0.010070362566570797 0.009930800347167715
267 -0.003647475918856781 -0.0005245187482746067 -0.0003192147616845812
2829 -0.01752140263722461 0.0028865569994990957 0.017258074133705375
1691 -0.0031931898948827342 0.0038011332277983253 -0.014425727688340313
1692 -0.003769990613406411 -0.01759712384503186 0.003501603828042854
2688 0.014820804997981543 -0.00042602067696936744 0.003794382509832151
2872 -0.006794824368125761 -0.0063041326162552105 -0.01187430542457623
2551 -0.012245121107170017 0.001870044967717374 0.02705040029793475
2426 0.0015268800004525 -0.007264502809360306 -0.0009797193098507995
2627 -0.0010681446093597732 0.003112127181187259 -0.0027592022961645812
2626 -0.011304976534643903 0.010812258850378419 -0.006830173760893119
2515 -0.005487425066735938 -0.022050389939528046 0.0046975489394177495
2516 -0.004875787456743651 -0.008635406856650409 0.0015065715373938416
2333 -0.0026764377388938396 0.0019235787046760406 -0.0036240998555030508
2332 -0.00013512911427983324 -0.0005920042301490647 0.004694033527545283
2517 -0.022497963854611176 -0.015051704358807837 0.00038822333732031414
2373 0.012369485974915153 -0.005852211809987547 0.005563705380782255
1589 -0.002962906955520788 0.00019737258483040822 2.679534199783501e-05
1588 -0.004082378762809335 -0.002942673493822055 0.0010906062027181513
1586 -0.0016579188430176387 -0.0009057643912067179 0.006300291284937703
1591 0.014792095419245822 0.009492854992563695 0.021240291121233393
1587 -0.001516254189303359 0.0025724876465221813 0.007945148687512907
1593 0.003389289130785552 0.0021674838661985144 -0.00297620122719564
2334 0.0012782433882786931 0.01282051393135316 -0.0019566607519686673
1597 -0.004708768461531784 0.008864896213768163 -0.004428059672482415
1598 -0.0062527475713750206 -0.003001378585964419 0.00614500079246768
2466 0.0012665516165041805 -0.00021833221550303047 0.035398952657179496
269 -0.004581734293325819 -0.010431624748169683 -0.01424615331628428
2371 -0.005257717508927835 0.000300442461084378 0.016161580494913567
2372 -0.0021207160972555017 -0.003575788962107271 0.007608172221341481
2632 0.02369017528830902 -0.027770581842058936 0.020964038216784085
2633 0.005472566918382905 -0.00714585524045911 -0.001227370658471148
2628 0.011411756796210216 0.011829472561465907 0.0031442597593846753
2425 0.000659970984267431 0.006939607824634471 0.01599788335720066
1590 0.00444761474504296 0.0033041066553731934 0.006620348426499502
1592 -0.012011200089001233 -0.01177592969962336 -0.00035001752986431117
2929 0.006711667161787057 0.003244212830093255 -0.00894746097696517
2465 -0.0005867257626351883 -0.002223978072216969 -0.0015900983807607676
2316 -0.016773462875215712 0.04105205499381059 -0.007349104871431367
2733 -0.014422730870376124 -0.01251833629839566 -0.0026478021974408006
2464 6.308780465335609e-05 0.004215491378272756 0.003039180714657279
1594 -0.01930192862315494 0.028862482655966207 -0.022828912529656385
2634 0.008645724739004558 -0.0018090763964175385 -0.00922931333803141
1595 0.0008492745958371325 0.0010945175439682352 -0.019505893281552666
1163 -0.004365145105623536 -0.0029009261472793175 0.005434029161610362
1164 -0.004710814672757734 0.004803266618394087 -0.0051400540736903965
1161 0.004751914744177502 0.0024383030707157763 -0.00310815336626361
1166 0.009167321864011055 0.03078822319522348 -0.0014650858037927508
1162 0.0013134981591672796 0.0032949651029522986 -0.001611353808179649
1167 0.030466028410838807 0.006020303264479935 -0.005626859609355049
1165 -0.001965972095014607 -0.006398762285990253 0.0029545588940720472
2428 -0.0030822400942929306 0.007259364473635976 -0.022920217137065012
1168 0.005279981959663753 0.006778729884249786 -0.00851673263769388
1169 -0.0044646363673899936 -0.017099969396532466 0.0025428338580059037
1170 -0.01473149690820373 -0.03122210603254374 -0.019494111281787886
1172 -0.0005425044371541593 -0.002458766813579439 -0.008735127481877068
2429 0.0011323060051061191 -0.001067548437036232 -0.0042960208565481365
1126 -0.0019097158718164007 -0.006252729059402948 0.00042301222728980423
2409 -0.0016113005253096647 0.011042136455552624 0.006419561241350591
1173 0.007163129371213788 0.016078300436580893 0.0017485412757779623
775 -0.0045409665174295875 -0.004533031299764843 -0.014197369960871722
1123 0.015338944441300706 0.0110846041793358 -0.013795783542244863
796 -0.018480485247391282 0.01258243930351647 0.004100198909213565
1171 -0.0013420100159968282 -0.005093294353923273 0.0011320784866671425
1175 -0.02160943753337544 -0.008540763454555346 -0.006330784446993628
2535 -0.003863966844854081 -0.007715170031619813 -0.011962083841768018
1176 0.005229081803239064 -0.004337918360647922 -0.0009689027772082677
1135 -0.002991176871969308 0.014149760938071637 0.021455675171025493
1133 -0.00976163593387994 0.00806248844129809 -0.016319891541112047
1130 0.00031445567564022513 0.0022215411679670223 -0.0065588968975904376
773 0.00466967202634291 0.011740278895251597 0.0062961205248977265
2534 -0.002556060334056769 -0.0004975747587133932 0.007746269542095207
1132 0.004637239926826233 0.0028862718596293527 -0.012395644615895644
1127 -0.0023703340697643497 0.0020292379869585836 0.004550659738249736
2797 0.007948047279447687 0.010708120166446167 -0.0024847232683430248
2798 0.004440837731783846 0.0016843665449757792 0.0044820844974781966
2799 -0.011590754581415548 0.004646748982166554 -0.0005765121105901278
2533 -0.019476716554621434 -0.0047677419830888575 0.004843440379427511
2912 -0.005013443453791733 -0.005147415011857743 0.00012238334976530493
2913 -0.008037959551301686 -0.00998401922262741 0.0042109376784602
2911 0.018082037073050273 0.03449863446361548 0.017243348278776844
2461 0.019194948070111042 0.02295859731045211 0.022240090436178177
2463 -0.006993342268178497 -0.018422295185499336 0.010232463187072277
2462 0.005596217753613514 -0.0013445526852738452 0.0021572950901904836
2234 -0.024707927957765847 0.016419658680718447 -0.017110229220767527
2340 0.009114341321640492 -0.029945241518309202 0.02620912014934614
2339 0.001068587649810761 0.0036005630611431125 -0.0010441599267101674
474 -0.021944466268897615 0.0013312925643022997 0.025145349948182783
1131 0.008756535366205189 0.010476549989882228 -0.03138441100000915
2734 0.01064644514091566 0.016609679780838292 -5.3873245683014166e-05
2233 0.006074827542726263 0.009888340796134591 -0.00015474068112153138
1182 -0.007914485753334036 -0.017037390671717854 -0.03198255301453814
1121 0.0021044328085975104 -0.004033120869702709 0.0004908024867195884
1124 0.002639201776265776 0.0013369263283124165 -0.006753684878627708
476 0.022033974129043815 -0.009631729815810574 0.0046937866910748815
2375 0.002281204410557737 0.0008345697394481479 0.0012456280404574318
453 0.0036120829181693764 0.02312238920166433 0.0170711808548874
1394 0.013324602918830496 0.028977989473842322 -0.0003194747085838333
2369 -0.0008217727309619149 -0.0025511235485117137 -0.00047643336994067484
445 0.012845367428490491 -0.01718295691725126 -0.021622206665758092
1689 0.0007329982075592213 -0.0009052851626192437 -0.0006804972236765265
452 -0.01672749143232154 -0.005249782090230737 0.019607109262205012
2235 -0.013815371675648103 -0.014243966988917965 0.01888624276269941
2368 0.0035440316988237797 0.013706261794065824 0.0033163838226438133
340 0.007872277332624505 -0.005406805963408348 -0.0023368748343106874
339 -0.008340978902678103 -0.03161699173609418 -0.01837526325098564
338 -0.025147017910283165 -0.014578798475554962 0.0009887720840339041
335 -0.00048011272864301695 -0.0018094164234467454 -0.003987382048520847
333 -0.0010492685910917041 0.0035593973053128433 0.02396364290665933
337 0.0038947476807800587 -0.0061627751621232945 0.007100499992946486
336 0.0026839298646776553 0.0016262709552387652 0.013062449588788126
332 0.0027514450852248328 -0.003390914514646921 -0.007169488591033761
334 -0.010081052026778297 -0.00021119337094391936 0.0037421716255018568
325 -0.0029803394064489637 -0.005119135757503998 0.0067208831003866135
330 -0.006212709360929429 -0.004566350241497131 -0.011398168067123404
329 -0.010744424820422517 0.0012409255550045125 -0.003345508995577833
331 -0.020603147380223768 0.04908524209202497 -0.011415737980539655
326 -0.00707526665975277 0.027660341421141425 -0.006916106777046347
324 5.356845810858518e-06 0.0025672344772486836 -0.011103394078540656
328 -0.0024926850366954897 0.0020182543527183933 0.020705898692471206
2229 0.0011859170559161477 0.001405965638226346 0.009355874926894337
2230 -0.002877070689507845 -0.002988213111532036 -0.0019005808558694387
2370 -0.008993817738204866 0.0029971253567307983 -0.010291995090161926
2686 0.00122147794008568 0.01835990172013102 0.016573102365994852
1139 0.008982115472638377 0.0033656806589827106 7.47567311364452e-05
1136 0.0058308303377211145 0.008356170494476527 0.0014298875593135453
1141 0.013290990092899952 -0.0019171025107616437 0.010250417985342597
1137 0.0006305857341182313 0.0032655501253060003 -0.0034014095949321055
1148 0.010674507156484105 0.008596596400163846 0.025024831614650373
1143 0.009153476583394637 -0.0008095733186307325 0.002873694608109161
1140 -0.004117688254993495 0.0029016583560980275 0.00569619701776902
1146 -0.002787475748558289 -0.0030227277479750983 7.855742296518675e-05
1144 0.019081365791484582 0.015495204706313579 -0.007935135885052421
1145 -0.009536331252368779 0.001009108713077174 -0.0034355702975968037
1147 0.018687052757330184 0.0062843185649790485 0.023894820516729337
1150 0.0022949879578083973 0.006448346805537503 0.008697126780740493
1142 0.024130116661307436 0.005333762865861185 -0.015923640919412656
1138 -0.0068811815127690764 0.0072660182750342705 -0.004560615271722814
1151 0.004621725989628357 0.003325017875878077 -0.00512219151058012
1149 -0.008688191495943009 2.1451322610323294e-05 0.0033729546021957053
2652 0.001868291659898876 -0.007619807694402948 -0.0032051754582834422
1690 -0.0023369311615988927 0.0033256477658360185 -0.0026460249472245517
1695 0.0018071732973221758 0.006823063202731287 0.0228769611577995
1157 -0.0012197061790588922 -0.01051632645084591 -0.014959797991070212
1154 -0.00218400935927061 -0.023894418578528368 -0.006457927331580491
1703 0.019679350129743884 -0.022784487376664515 0.0348204257627419
1709 -0.0004206784631063164 -0.020238861957129622 -0.00028127817957036377
1153 -0.005989319401372069 0.005797033722917573 -0.0018504591001673413
1152 0.006320495934790414 0.00026052198113496407 -0.005187870197788673
1156 -0.03517677528812409 -0.002851111617810911 -0.0024220569797137495
2687 0.003691853396692526 -0.005327340939224414 -0.003057763225758826
1064 -0.0025780455875107845 0.004229828558764304 -0.002117866181863613
2651 -0.0029934470822141276 -0.00018968420722084424 0.004118299075387056
268 0.0015001567116425967 -0.015451584053437694 0.011345466709430213
266 0.0023282068329684475 -0.003274539022942588 0.006121256893922238
264 0.007441495240302839 0.009235031721395738 -0.0011529761864487896
265 0.004796426680901803 0.007280090191096174 -0.008966820615598626
258 0.01159469453556796 -0.0005196343432101745 -0.020921024494035528
262 -0.010139075055531832 -0.016416726085547943 0.014865790823145783
260 -0.0088197745554674 -0.0035506526250333108 -0.001953668041747606
261 0.003276016431292833 -0.004118232925556503 -0.002556727099557019
257 0.014349591934926501 0.009091499368018553 0.0014572553751156516
263 0.009693674124324668 -0.0004446444687564746 -0.015017727139343625
256 -0.00048709167682025434 -0.00415985105348838 0.0022668590275100736
259 0.005799715777456498 -0.0145915959424146 0.011082449630095756
1814 -0.008056832916561563 0.001737733260299398 -0.004892992647292369
2595 0.01822491886144893 0.002920349457394607 0.009350306993821524
667 0.0029800958674037754 -0.011643030750047755 0.009137670952003173
2594 0.00019108247389540084 -0.0027821767192299273 0.0018977524579036164
2593 -0.0039937544759918306 -0.0006657194158509152 0.0061805955786078705
2550 -0.0170892534178858 -0.007020359439190192 -0.015163979396857803
668 -0.0034146573530298998 -0.009145165050085866 0.011439203197790428
2548 0.0019290102048701069 0.0015715416622480774 0.00861165009138302
2549 0.003379763269362687 0.004492760959811802 0.0052582619973139035
1155 -0.0012091899279301392 -0.0037402755822738896 -0.0016562883348463621
1160 0.019251558148806733 -0.009048945432898966 0.005318677600938864
2650 0.00486260270355654 0.010789422868484376 0.009069327736899172
1811 -0.010192852748628703 0.0009321969590357339 0.0037424419787748337
1819 -1.746920739629979e-05 -0.012507207797623638 0.028180868438889638
1159 0.005790913407572916 0.0004995019199076939 0.020066008621861642
781 -0.0013574187821012752 0.009863299657630093 0.008297232675118251
797 0.0005022404548168831 -0.0009746103673785606 0.003707372615162116
671 -0.012577237980843625 -0.004323206536953211 -0.016621379596070032
664 0.001992043578648848 0.0008420073624058223 0.007466302147193225
680 0.019841873027477964 -0.0017344626831239463 -0.02972659243644207
665 -0.0003505984128849228 -0.010135001201729464 0.008767594014217731
677 0.003999174936451946 -0.00854257537882456 -0.0007403878313641852
673 9.34546773509048e-05 -0.007657690487371857 0.004916536015414143
679 0.0059384357011484 0.0015214271872504854 0.0019063438349784523
676 0.00043202395274685935 0.008150523991273178 -0.00015695291347355385
670 -0.015452451976569243 -0.011643369828101227 -0.008632891737745152
666 0.011622905306229855 -0.004687507440650796 0.014788690140497331
669 0.0036562908377077204 -0.0024488305683544108 0.004657422940053465
672 -0.00583688718070797 0.0008997304499183939 -0.0007795390367844861
675 0.004476713087176098 0.004448748196679113 -0.0008924013773852443
674 0.0009575590938820305 0.003875335726163696 0.015126958709711683
678 0.007947940954828633 -0.000474687291150996 -0.006925625710038485
2672 -0.00019007768660424162 0.006332350049943141 -0.0005044414560716886
2640 0.008392338833562862 -0.004646339995520216 -0.007384158350880323
780 -0.013108373760792668 0.0036596426377187618 -0.001986279238268514
782 -0.0020874264583305093 0.004969276111585198 -0.0017169196684345956
2671 -0.02133566026184564 -0.0012447410986554687 0.0023740810281093444
2639 0.005827242537534513 -8.51725484097339e-05 -0.0012818272208530905
777 0.0031945748358994477 -0.004157416566505237 -0.0018853503080043083
2441 1.9422375450904617e-05 -0.003957360232810085 0.0038711387937986385
2442 0.0014992007236707121 0.004987094295519828 0.007533513740806851
2440 -0.005029890657728358 0.017408335885546685 0.0024847282879200427
2338 -0.010932573892606205 0.01081987910225661 0.01245118772294104
1179 0.027462691297403304 -0.02413773099099585 -0.026351380171626762
1178 -0.005860972227128637 -0.015081984811717514 0.004297610783117991
774 -0.0063380857114629765 0.0021282377964684696 -0.0017702355557660063
1181 -0.003472211911756483 0.022956311967607106 -0.0007502269056792604
1177 0.0001510221411268972 0.00023138594048182083 -0.0027638242117596808
1174 0.0027400270486511095 -0.0016844219275677114 0.0052054512116332
1183 -0.0007244702897539047 0.0006352627499162476 -0.0016858102268717731
779 -0.0056738323636504875 -0.00046116132223135436 -0.004017081103025246
1374 0.0003905290073418695 0.0007149068602390802 0.001232895705753953
1381 0.000435450186732227 -0.002606215904224901 0.019328288530267922
1377 0.00029489461336489037 0.0030714386242712568 0.0025884051772128032
2231 0.008742456959724799 0.003128840361817543 0.010735913146498648
1379 0.012080822724339545 0.011454429485523403 0.004130530652111944
1185 -0.009104358898738818 -0.005971409981392849 -0.001647667074946138
1180 -0.00459889956448813 -0.004092978489868014 -0.003751747378772625
1184 0.002049796171228096 -0.02707675268551974 0.02384776867457814
1383 -0.0033324708532898152 -0.007141756373816434 -0.00012585151566986297
2227 0.009243152210526977 -0.0012771717930878444 0.009553519834582698
1205 0.0058953098865613595 -0.004326047070696322 0.002503836832435645
2225 -0.0018998904902867752 0.00026926961076019317 -9.537833986906524e-05
1380 0.0005585539890405211 -0.00430341606326715 -0.0007681705966534633
1385 0.008564052918312966 -0.005661241106612468 0.003796166131081442
1384 -0.004919185929433679 0.0017187040130134219 -0.00857402088171899
1382 0.002114224906082914 0.006804034027779835 -0.003253914962118298
778 -0.005719494601069632 0.006979468813357546 0.003414067589000598
1207 0.00594875329034243 0.025301832336293476 -0.0006190883700221017
1202 -0.00790939163144074 -0.002517145876546159 -0.0006867993386755835
1206 -0.008634075692731667 0.0012394411128092626 0.02350845968690331
2223 -0.006049389919197458 -0.0051652486481663555 -0.0016614470250972306
1694 -0.02997730111031428 0.0012488087712780728 0.0076971907168829415
1208 0.0002233406396847819 0.009058784032097578 0.004591197646495552
1698 -0.012438147980491225 0.008959162343360546 0.01937710587993689
2232 -0.0010527773400371347 0.002506008979756976 0.006779507552143283
1697 -0.012621455493862073 -0.025232233694491582 0.006297668320523391
1693 -0.0034092701755357537 -0.0030364023177308816 -0.0022451641957939653
2228 -0.012123625839227742 0.01937840333667401 0.022788721168360653
2224 0.001922948735804014 0.006973500867633124 -0.0009800721448322827
1704 -0.010720740808066306 0.015386368077106388 0.005849842893817964
1699 -0.0077439018521991785 0.002082560025160905 0.004321665878182316
1701 -0.0043488601241581 -0.02709558818410729 8.57971253468253e-05
1707 -0.005893854936269903 0.01816308693804225 -0.006033845785212573
1702 -9.614674994382325e-05 0.006611375107545656 -0.0064031394685243395
1696 -0.004118920783658125 0.0011778589692800496 -0.007000116529859923
2221 0.0016791819838560106 0.0012256834147699716 -0.008559658460322335
2226 0.0015075705642181322 0.0004754237174644246 -0.007261743384246089
1706 -0.00521456337680135 0.016801799893685614 -0.019640173090714603
1700 -0.004469597072228923 0.0015858110833923216 -0.008095480515501333
2218 -0.0005287102846232106 -0.008025150541148393 -0.0005271809866674018
2222 0.006853756574450442 0.0020473939226001315 -0.008556597461100563
2219 -0.018376088965549875 0.01762601307271321 -0.012134861198655296
1201 0.02099848538594048 0.031140582155652363 -0.010603939622201353
2215 -0.009808750478120925 0.004725542949354469 -0.001509398914445095
162 -0.0016455267922660603 -0.0028059107521939417 -0.0024395598889770938
168 0.004370539721745107 -0.0007314378015852006 0.026316634647656344
1831 0.025628092772671356 -0.001210835684035379 -0.0015301645834204592
1835 -0.005163649421289548 -0.006022752129686399 0.009971712971410134
1830 0.00026935612967575093 -0.001854426141287091 -0.0009706925500242522
1827 -0.0023961638921661823 -0.0005745747849371101 0.00011663905979058709
1833 0.011273629749107722 0.015635059999987898 0.01218685280060336
1834 0.0118522056467759 0.0019400994692053333 -0.002129609729280243
1829 0.01782568490748205 -0.00925531428456596 -0.018316882467402807
169 -0.0187580504052787 -0.008352966969577118 -0.0029224683677619304
165 0.007441026435445655 0.0015133379870268212 0.0037791236245063114
628 0.005285940636034701 -0.0033742252337000834 0.00874843558007212
166 -0.024821412923152417 0.008549737917433046 0.003642368323552232
164 -0.0011678131468606803 0.019257556275259862 -0.01896604587727673
170 0.019328521272439367 0.006683534460616775 -0.01594551487167146
1828 -0.0053111973876428424 0.015178939316257568 0.01703856939769321
1824 -0.005821169342684786 0.006626512501777406 0.008028882466000007
1708 0.00845297224753522 -0.0022715467267487672 -0.001281554768013479
2567 -0.004798409885614488 -0.0013608103967114973 -0.007669509644266899
2566 0.007579730022423166 -0.007296750650981358 -0.016127958139616712
2568 -0.002480274293801479 -0.013287531656405125 0.011126374899494642
625 -0.018756585389763766 -0.003989558578715364 -0.017702089642010612
619 0.017182292050995238 -0.010331341628064932 0.006528711657522547
1307 -0.011600311347545031 0.013599111904470036 -0.0021572482460255524
897 0.010777486949825289 7.6873598008069e-05 -0.012445241409520651
1832 0.004267841194711019 0.006276750757887733 -0.00822813718213182
901 -0.03942081143150344 0.02090486234497482 -0.032300225842600505
1813 -0.0005797216917160675 0.0026136709228296424 -0.0006590709725900832
1822 0.007168325206775137 -0.01610800767185123 -0.015170222411213694
895 -0.007328735334836034 0.01009685586729353 -0.005089840586658156
1823 0.010248434350588885 -0.00923270252367957 0.0055519343418450355
1825 -0.017662533692870446 -0.0063661871643801195 -0.0036957422230905522
1826 -0.018680203681839556 0.02741091197699251 0.015565316008891385
1821 0.00027984289328780466 0.0014304672195502564 0.0015798257026043026
1820 0.007397502024884967 -0.011328336011486277 -0.0053340336078660155
1817 -0.02459926321903113 0.0013951047817052143 0.009547902837531715
1816 0.01115375037141755 -0.013074189131786183 0.009660942798858327
1812 0.0007258616962613642 -0.0019577311814249414 -0.0005997918821901349
1815 -0.0033328028089000044 -0.0033939507986576246 0.0014654911919145855
1818 0.007467780519460638 0.0032761595345321285 -0.0002911385465540358
1444 0.008584606319766108 -0.006167505806689461 0.01551868472447353
1440 -0.002157738390207653 -0.006820116158439188 0.004999927570414
1445 0.006554803616618127 0.0015327587741600724 -0.006415304126948223
1441 -0.0013884702409838257 -0.01713582778127257 0.014839243261725206
1448 0.004048046745225082 -0.011711335320876263 -9.583172515067044e-05
1443 0.007491184196779489 0.0015163515396000842 -0.006327163579633816
92 0.010910321489185644 -0.011776282272646668 -0.014374521941484399
98 0.029013777066472613 -0.01016962951769094 -0.012507670687514419
88 -0.0012372909001481937 -0.03368320733000064 0.010653632920894376
1450 -0.02804496121903318 0.006850648614864393 0.007489232975103365
86 0.006914862748716009 -0.0001103195366216959 -0.00188154868976958
1446 -0.0006215862189703193 -0.0055429845372213515 -0.0019426549058259835
1437 0.003501734166758976 -0.0006748655206997449 0.0020088881588448573
1447 -0.018612803115558324 0.00898857415974277 -0.01194472531175197
890 0.002521052630390525 0.006860209308508493 0.00011201498012729778
96 0.010007442637861439 -0.005107033374005151 -0.0029928453090323774
87 -0.005671400429741572 0.0006170622996838228 -0.001992804727709437
90 0.02560631764491923 -0.022171768956531602 -0.024413482756980874
2673 -0.000284700821390769 -0.0033013241509022226 -0.033910423729856455
1451 -0.0019340561205897415 -0.008602568566192542 -0.0007204741606182789
2038 -0.000783750028516733 0.0033244530446668724 0.002506722179792494
1454 -0.012376380367032869 -0.011906444224022433 0.012497627921528372
2042 -0.00014655594134243869 0.00755709898796104 -0.014456906618008093
2041 0.020061268215870006 0.021386226238807086 0.021174490986868476
1460 -0.0149035347806174 -0.0053672721458257865 0.003990286370639082
1456 -0.010309041942932484 -0.001729873423715673 -0.018173769486301027
1457 -0.009200685377144469 -0.004853374012492411 0.0022038245934927433
1452 -0.007039471880054837 0.003177754230346648 -0.0032030032824263825
1459 0.036618107472927916 -0.011541054846209155 0.0009652010999927752
1455 0.008177178114353555 0.008383821863165197 0.002085676144635256
1449 -0.0019876869904242784 0.00011715678701246007 0.0016315387066300118
1453 -0.017894673112183193 0.012065644691934852 0.03344477613477816
1458 0.01072881640907673 0.006691068033919061 0.0003626889201599017
2037 0.0015500523321356854 0.003156327006657777 0.0006622962638127888
2036 -0.0014339356907058108 -0.00553904545737428 0.0002968508042862572
89 0.005867824022253263 -0.015465399838372586 0.026147109703120303
2040 0.0011624133992763166 0.000364648160774923 -0.000516758142249813
2472 -0.0046369982234395766 -0.00952589097058106 -0.006823205963190421
2039 0.0009821004220037486 -0.0007724703424513404 -0.0015630744936672566
2868 0.00208177607458605 -0.020719578542606278 0.02386410085598833
2099 0.002781874755115873 -0.0028364834703002327 -0.0006083978465348669
2048 -0.02248511639705288 0.022800317986586688 0.006132922049954333
2100 0.021859860284922886 0.021902573368718824 0.006793662501570395
2096 0.0020546033655817397 -0.00041057430383179856 0.0024336233406873904
2470 0.004656487509368933 -0.002217625392363278 0.002647134925758436
2471 0.0035692570442096834 -0.002715882199242792 0.004959177898515886
2098 0.00010243109002923168 0.005942418456920624 0.04301187862668117
2104 0.0056438619286058095 0.0011206794291573048 0.021828036299944856
2110 0.0072321598142919725 0.00651112915520121 0.013755480921961593
1209 -0.013967712162352743 -0.00424129286746862 0.008581747935942614
2105 0.0007994006525026315 0.0022267255196096163 0.0006501234757795415
2109 0.004003465881883003 0.01116513651798878 -0.02072951092865838
1378 0.014433986232530343 -0.006438620314861986 -0.006965799347307229
2044 0.004917213546568194 0.021852337413958388 -0.006741563375797681
2107 -0.017677851837837884 0.014403463416142993 0.013434817197855557
2102 -0.0022002370827690267 -0.002133365286506751 0.000690600280918321
2106 -0.009104531225498386 -0.04125477942237206 -0.0028681695498382876
220 -0.02877113040496644 -0.01539362087634065 0.004139226783118757
216 -0.0055042749110377 0.002473427282487383 0.000837369307393917
221 -0.0061416920619003475 0.016288597472480876 0.012103116428055729
219 0.02327603890676739 0.01562276237493168 0.01011353566895967
210 -3.394521210688832e-05 0.002955387271964932 0.007595240979871094
214 0.00807411111479417 -0.011341856054917923 -0.006584059798216008
213 0.0016018060773980468 0.0012506400029600648 -0.00034518477760789323
217 -0.002020253927986272 0.02445100757582858 0.021698064399964558
218 -0.028933871360511093 -0.01363843600586655 -0.0014230377284409235
215 -0.019103124124124564 -0.01950688938803978 0.01130918113939777
206 0.0008930489005130309 0.0010070608939861932 0.005162506497467964
1553 0.008939043535999268 -0.009247670114676265 -0.005320451654808774
1957 0.018389838940613877 -0.0008668576253804756 0.013556814361985954
211 0.008505875714400533 0.005634943312698458 0.005380361908282183
1705 0.0054540077586043715 0.003256143538249198 -1.4800246642903221e-05
322 -0.012135156155597189 0.005209490415079455 0.006687336827530785
319 0.011225647758999499 0.011500303782228046 -0.003140795516989909
2545 0.007241241659463433 0.00598826145765092 -0.004700243506587582
323 0.0035912624694399847 0.0052272581011752976 0.00636583788472033
315 0.00925068141020767 -0.006907335105559749 -0.0011872995057980586
321 0.013412197979335128 -0.02391999892303085 0.0017019582276608823
318 -0.00044210202943389097 -0.0021713595694147158 -0.0005511316332148908
320 0.0005909740542669071 0.008766200683281 -0.017745085293011824
2474 -0.0025016755716599625 -0.0015507822177655436 -0.0044493986840308765
2473 0.015010065246072615 0.006791801964752586 -0.0038863173162158164
1710 -0.014268681908768573 -0.00879203600894437 -0.0055087376408183425
2491 -0.0036003628711135964 -0.00368003246166248 0.004804383911606724
2492 -0.003543290484390932 -0.001591478818727108 0.0017934485704101065
2493 0.010022645616088325 0.008933572650047242 -0.006023047427793519
2475 -0.01027996564960574 -0.00790883910624355 0.007927710428685422
2490 0.022790639542787348 -0.01871054252082009 -0.04370177273249025
2489 0.004021746897031827 -0.0017182772026682707 -0.002450394433540746
2488 -0.01518790647823863 -0.031196003818296913 -0.025548130044423436
2822 -0.004632840460858158 -0.001499407532965018 -0.0012659326507826912
2757 -0.011409950082456469 0.007299641088090814 -0.002457855427444332
207 0.036495861408947665 0.015773715913078648 0.007910392873110942
2756 -0.0031871528280918915 -0.0030703369360000343 0.0006428936357528259
2821 -0.02738589110676385 0.0032525295344241418 0.007411674647011466
209 -0.0035132500921676584 -0.01716758883864778 -0.009845849676622396
205 -0.004702414998268696 -0.0017465231153981184 -0.004832009048698997
2729 0.00728861161958479 -0.0027207652428178 0.006100407199937736
2823 -0.00397763660221648 0.003942576836895261 -0.005351685146710063
2730 0.010836727480985195 0.006512954769025785 -0.00037062417217598084
2025 -0.020978553563947885 -0.004345158404721964 -0.003375893931089146
623 0.0005154904090323338 -0.010999766431995052 0.0016672470419404634
627 0.0036022299494208833 -0.009535497792542846 -0.007241522817785788
624 -0.004218193492115237 0.001371877308913692 0.002474550347978311
2771 0.004891154625538323 -0.0015406239649981013 -0.005766329317550747
621 -0.0057288431330063385 -0.0026110547436973765 -0.0002335631428030075
711 0.014735334298780588 -0.014401022875301962 0.0008526434259010509
2026 0.014369795502772955 0.008269549863024028 -0.007663065381610735
626 0.014560188577013945 -0.011476134183629768 0.0031820845250533324
629 0.004561751603334803 -0.0023112912279237762 -0.008621443665444976
618 -0.007606606069355541 0.00016201391250904721 -0.002986862752096297
622 -0.015200255170652092 0.006732729386424238 0.019713329178577186
1059 -0.026428327155556895 0.013300885593994005 -0.010602163683931494
709 -0.0032065058122111778 0.0007784942697136106 0.009297024458263565
712 -0.00938704169805781 -0.008794529837498448 0.0009462561507157044
620 -0.013793378207573127 -0.017188868101088016 0.006447447629793066
614 0.0011613228250704963 -0.006387305375508675 -2.1035537383873475e-06
1060 -2.7069853734781276e-05 -0.002678101244957958 -0.0015511442204362215
1058 -0.009251984088569814 -0.0016860035316846492 0.007792568519324344
1055 -0.0009748254584981844 -0.0026732403450958507 -0.0027425536568027515
706 0.007904236787342955 -0.010973458608469346 -0.0038349214452568863
714 0.006910427495126234 -0.010876473684913963 -0.011460128895475966
713 -0.009008745676992768 0.004291797477490836 0.005968671551372375
615 0.02320504509118163 -0.01082462422602761 -0.00951321303850242
613 0.003976897664480441 -0.0019819770774004188 -0.0038526282049444805
708 -0.00470219933762773 -0.0006995866872132462 0.000119489116717746
2770 0.014465047441786625 0.01594226017429823 0.029564153989861
889 0.01912197661505687 0.02379333495299168 0.002748255567403626
1238 0.0002706795695669403 0.0021048481111943145 0.00453443051394206
1236 0.005849374747577314 0.015439220454663498 0.0075910536871880195
886 0.0016316044169500203 0.0031307411204730255 -0.007895141504174962
1442 0.02176283751083758 0.02067387591131599 0.011731521524076076
888 -0.005032061924700505 0.01618908523975146 -0.006446667778342356
707 -0.005459623041861359 -0.02670381729529343 0.00423830447968203
703 -0.0014856951129586424 -0.0014288020912941591 0.0003821800216009879
705 0.02492628060815768 0.0004407494351791702 -0.005866977183518187
2875 -0.00234482346113691 -0.0020033632890271674 -0.0062909265869111
885 -0.0018849358120827918 0.0064986062843888845 0.0046761798628218955
699 0.006221613443319954 -0.0029394399515423626 -0.007319750277274355
704 0.0153781913188792 -0.009481792771460178 -0.002840758422486347
702 0.010209309741801731 0.03755242857387621 -0.01989371649467448
701 -0.0008169699233167669 0.0032731041417651497 0.009524802806878981
698 -0.004844570272696242 0.005944546966690442 0.004580522562364012
1438 0.0034307522287864082 -0.0003882829707390721 -0.0023070581353655186
700 0.01582045175430905 0.0021042277841565836 -0.005337955429463197
1436 -0.005438498183897685 -0.001336593692643884 -0.004644053801873434
887 -0.011817701601076095 -0.0007871828860169875 0.00025081111251778923
1439 -0.002767793964763502 -0.0008539186471289567 -0.004449558647819692
905 -0.009506598603469854 0.014179963123063744 -0.009970432051948567
911 -0.02504808410408087 0.003951319867866737 0.003082958080672297
2522 -0.0030318257357581048 -0.003016711023851272 0.0023253216313853715
2521 -0.0055410972503135226 -0.00017041835859737237 -0.005941003114253146
2820 0.009041895172089729 -0.010671487640858323 -0.017866479519899375
2523 -0.005281331765154851 0.006619317309928693 0.017721184586674342
2876 -0.0010951902933505917 0.0027492578940735484 0.003553266062809141
2877 0.00337896284415109 -0.007940345759122783 -0.00962656445372775
902 0.005544876656183731 -0.0057809187774435005 -0.007114137912237013
906 0.004752918319028225 -0.007468763031964338 -0.001532560733813678
2088 -0.004649622495496602 -0.003472392982686187 -0.006580424886596248
891 0.012488916911839325 0.012610758510196702 -0.014354977863878118
758 0.0016137774629556517 -0.011511362463889542 0.011187722878037092
1853 -0.001407153873702934 0.0004369450188245712 -0.002071884284968819
1846 0.004004366152186248 -0.0012528258264515727 -0.004650191232524487
2092 -0.022238248805994794 0.013900735869428615 0.003593365510556451
2819 0.011403121911280855 7.569559387946055e-05 -5.291584196640422e-05
1959 0.024028182985698903 -0.01803065488031481 -0.015609918547164385
2093 0.00010034042450361561 0.005474508327808323 -0.00013349475550639676
1960 -0.012803421814430583 -0.003684701984961252 0.00020902908199404982
1956 -0.020112548770223667 -0.015939406753574595 -0.03644865936514309
2818 -0.01741629231552293 0.010419884136241769 -0.0018886833483722917
2094 -0.005389977145763823 0.006690888961249689 -0.0008457620530914739
2867 0.001046339061017529 -0.004747753258657906 -0.0006615975528483412
2087 -0.005748443708242489 0.004552860505087261 0.004956833310513346
2090 0.002092474125968668 -0.004442379568222528 -0.0006964966935313425
752 -0.01825786123748112 0.001827117217989885 0.001193852180670275
2866 0.013590970761011489 0.013062415427942542 0.003668419350475245
756 -0.02224799989568873 0.0031407234259461965 -0.004037433312953393
749 0.0043057861272643595 0.003791760019886156 0.00026225201369802073
753 0.005304315692870211 -0.017263171749496514 0.03349962919690465
2089 -0.0016044902465754554 0.0021811859486511906 0.0034552692781719386
751 0.02359045639098613 -0.0038311747464264832 0.02039388775762997
750 -0.00293217269011149 0.004555329884558076 -0.0022996021288059186
755 0.008299814614047787 -0.011870085814624001 0.00885611405685395
2086 -0.0035493277994911115 0.010722397262087267 -0.0019145377069377354
2095 0.004951889398691327 -0.0033411498175898217 0.010846912350216002
1955 0.0009532042213720153 0.0022634561361217845 0.0016655200133262483
1848 -0.04575211268639811 0.0034390691381334343 -0.03342505002795212
762 0.001097572764434796 -0.0015095306301855281 -0.0016749325711161323
2854 -0.00933588461356847 0.001876208073202601 -0.0041327996274771175
2737 -0.012459059016801853 -0.011030469468264966 -0.0035918737461010826
2855 0.0005286161710028884 2.5746192339236965e-05 -0.0024194825781792034
2856 0.003873687505025416 -0.012734329299187771 -0.010138479741301503
1854 0.004344277671710042 -0.017252402554613314 -0.001309872756090816
2101 -0.004024958637715863 0.006870181953530118 0.01316390222566775
1849 0.0030693150757765044 0.0011239194317006463 -0.0018549373471316289
2738 -0.004120509855162245 0.0021301710198417404 0.006334925317731578
1843 -0.0005061834592040439 0.005027851626449795 0.00024592599086916463
1858 -0.0077014756757724035 -0.008013775152698207 -0.0282979635447867
2154 0.010752625861798164 -0.016520511832495432 0.01056562368173431
1860 0.014737350106378578 0.00239175748819067 -0.0029334527008319637
2183 0.023625544906289566 0.00024807222317331577 -0.0008582246444595406
2182 -0.015450370088518125 -0.005219897323999277 0.022736064590561527
2181 0.01471971902288769 0.02847707479667521 -0.012306587944835325
1855 0.0014623053582226713 0.0043735449444994535 0.004889064762832106
2179 -0.003499626984736332 -0.0009087383346527709 -0.007665374913653327
212 0.016201787248653336 0.014426028355693461 0.0032125194392128107
1958 0.0006144762408024203 -0.0241793769578658 -0.00630131341961238
1952 -0.0004088191846052679 -0.0018644788992402098 -0.005333099107909909
1954 -0.0034619867118754377 -0.0002872501241680723 0.007218699514761933
1949 -0.005441243244417512 7.687680283716119e-05 -0.0013394829794274247
1953 0.0024355165332292238 0.018842197005114292 0.009327745177549304
1549 0.004420242520456495 -0.0039963390926283406 0.003559107758218168
1560 0.006207009696430471 -0.010877152947049568 -0.009632873581425264
1556 0.023198519094719247 -0.0013859347328158533 0.01076760416606035
1559 -0.01330059713654138 -0.009297560111699688 0.022023194309107277
1558 0.010423710133009106 -0.005705999555011376 -0.01608670756799656
1557 0.01130976456265232 0.013883736117573884 -0.008647230946759994
1555 -0.013010148574937212 0.00521787526061665 0.0027271553792968316
1552 0.0013147849601124059 -0.0038113328099404664 -0.0005484674345373396
2174 -0.0056212550946046205 -0.0008712124468279309 0.0029402101101505527
2180 0.004197888790004947 -0.0031431244544262555 0.001057468187653707
2177 0.004731097414320502 -0.003404316902810888 0.007407428517817948
2176 0.01178886942435637 0.002883804588474818 -0.009328655175615715
2178 0.0017376325788812702 0.009955609934440978 -0.005140076915280117
1857 0.01791259999053419 0.025677756879665045 0.00525437914707169
2175 -0.00048123650836478816 0.012075838261477474 0.00864828847254817
2171 -0.0008666182735841779 0.004337163273650096 -0.003639079589234558
2184 0.02189764764426187 0.00394593230936465 0.012786166151043526
1554 0.011167020238490002 0.0032548769471787984 0.00013681465242677588
1551 -0.002587192195147266 -0.011105282830292612 0.017974377754229182
2153 0.0004897886111772276 -0.0030630616767398206 0.0030142353544534103
2022 0.023801477511829715 -0.004537747526556992 0.029352998417177787
2023 -0.011433355846399519 -0.0183213822570872 -0.002622906108890405
2018 0.001293036582428637 0.005437664189546353 0.0006673066344847602
616 0.017134392120918815 -0.006203030275009963 -0.0041436752378354895
2185 0.005851210810267811 -0.004924195898569302 -0.0032306122393809477
2728 -0.020668317266448355 -0.0024966947765693755 -0.005051288492313183
617 -0.0017174626262191589 -0.014312737428837739 -0.010468911813139529
2017 -0.020287008782119708 0.02654613941405958 0.0016446419150173905
2016 -0.003779252941152604 -0.01692580931543869 0.00911650249152259
2012 0.0013665896896353738 0.008313917717423572 -0.005726271291663512
2014 0.00023495792875400336 -0.0005852129780579735 -0.0022514546383269104
208 0.002084294060063295 -0.003328766032352714 0.0014239762403223338
2011 0.007602038317387368 -0.003006586520195263 0.006869756583653671
2013 0.005131433029179779 -0.00014312169896353838 -0.0011094313332270336
2020 -0.006179089231233014 -0.017202971825857054 -0.006193129858012504
2019 -0.021749611031427994 0.0009728234472304793 -0.007752178290999033
2015 -0.0031828134456672852 0.002650513392361733 0.0007890984946898581
2767 -0.0034618555862886385 0.0020399935780196056 0.0034491078298556892
1550 -0.020981532838885743 0.01776166152945169 -0.00037446622562946477
1546 -0.006097332244189995 -0.00353461304578766 -0.0023241692401725434
1548 -0.03663342204802033 -0.00017471932583848731 -0.035509939602073874
1544 -0.008360036434748454 -0.005636122650544248 0.004862849341303618
2768 0.0012116055830682687 -0.003696215355585815 -0.0013431945065787414
2772 -0.00022857686674442195 0.008700106719686306 -0.003040852752650049
1543 0.0009657623591804074 -0.006254830384107641 0.005494693854311482
2330 0.003920255271713405 0.00162919686416605 0.005324062862892605
2331 0.004890570133198315 0.003009195630234348 -0.0164539136168831
2675 0.0022951860841824304 -0.003268071839019143 0.004352004244338955
2674 -0.005120243464022459 0.009818168576508938 -0.004212587624303382
1243 0.006237299530366344 -5.782334002883186e-05 -0.008239113136733697
1926 0.023066449320822493 -0.00399247926422661 0.007729541059522647
1916 0.001704038380794237 -0.0034854076353991147 -0.023339066316764606
1918 0.002993876440594972 0.0031884546362007556 0.0011296345910986314
1913 0.0004229970782048971 0.002293004974780572 0.00667331097162738
2325 0.0006662602919445626 0.05671820213590308 -0.012135560988099151
2324 -0.0035973927951530836 0.005378331299982333 -0.010579375110620765
1923 -0.005504108780333395 0.008261922994877272 0.011278743615822106
1912 0.0069690889861726436 -0.004018284323786447 0.0028192225203199518
1915 0.0008508277712302664 -0.014121830224036628 -0.0010077231589634185
1911 0.0036814161708849987 -0.0027266146826399637 -0.0022479882898249317
1917 0.02167721110971355 -0.012045253755366308 -0.00798283900136518
2443 0.001465207048671377 0.005568663401590025 0.0015510574920884678
1921 0.0026504525675640806 -0.002214451252029682 0.0021640713370556404
1925 0.0021201405480917646 0.009990433001915067 0.001599332159830097
2445 -0.02014262450202265 -0.020359847406035192 0.014238083821794666
2444 -0.0006466322252447075 0.0007567570792203924 -0.000427755810075706
1250 -0.013535707097124365 -0.001024760458306671 0.0016310043767195723
1919 0.008011388982720002 -0.008304924841887962 0.013013716492661141
1920 0.011071063553977318 0.003706784371494229 0.009678873754115141
1914 -0.0032122046484605532 -0.0009003967224107794 -0.004488069864672163
1256 -0.02032571729720663 0.0018745637385461917 -0.00804796311632238
1246 -0.00639983167961225 -0.0021295562126620584 0.0020238352382077186
1922 -0.0021726261415151646 -0.021347932053985465 0.003076370698784803
1929 -0.00664410652636636 0.0005115978785182847 -0.0005212058505857542
1257 -0.01679888096619178 -0.011315055691421078 -0.006817351225249747
1252 -0.014932778709915146 -0.00021021723623747385 0.001995657574458238
1254 -0.003808142276833786 -0.00524266068549256 -0.004425419512070752
1249 -0.0032601615617386327 -0.00038987356224079033 0.004102983111386487
1251 -0.001578194271341315 0.011294137622778307 0.005351695717031429
1237 -0.007832568891423995 -0.00031959791277694894 0.0017136094726610258
1933 -0.005080520484712482 -0.013790101212361043 0.012425428407886237
729 -0.02406879143804757 0.0007628479517827535 -0.017392605482684995
726 0.002948787223827015 0.0022945677227157154 0.004104278601496176
730 -0.01765738215967456 -0.007565266624157543 0.0023445031284580393
731 -0.0058668288387331066 0.007431253751937578 0.004847514254525604
2559 0.0024426080529503895 0.0033901942524741146 0.004341853854382157
1242 0.014140149404838265 -0.012617811479267084 0.0006903506851437779
877 0.018570238369455417 0.02811525552131826 -0.00010024177956789237
873 -0.0023741771901398985 0.006530396192432771 0.0064625968705309565
878 -0.03550683016607621 0.00731282665537316 0.013585117324203195
879 -0.0040944408230007825 -0.002519665137356071 0.005231542780892898
881 -0.013404076183730141 0.005076710402736325 0.0009300519906347659
876 0.002866004830242025 -0.002696342621345348 -0.0016124927718594
882 0.004777046606943109 0.011139383187980797 0.007145321887539224
883 -0.0060329634123815245 -0.0032413898499654326 0.007448681360281547
884 0.006475208959775249 -0.014444410692171134 0.03521306267166391
575 0.003044956730964346 -0.011277015418737744 -0.017154708668627786
880 0.005285897021341736 -0.0010434653419404295 0.0069368388449602405
1934 0.005574574811691571 0.008255597586140525 0.005900017780348457
1930 -0.0031554875450313796 0.0007402465369770994 -0.006194300974558419
1935 -0.0010942778738476829 0.012012503364466916 0.014956343439875846
721 -0.02455394296072439 -0.0032011786447968334 0.000549735119268562
725 -0.01650904807287008 0.003143314087301914 -0.00255605398674222
574 -0.02844128374324111 -0.006266603418698407 -0.0014689846699560453
570 0.0064334706577823895 -0.007915733330954461 0.00014542760710825148
765 -0.0010598066032557975 -0.00820251179976271 -0.0016652313322907055
576 0.00208028504215407 -0.0029764559654497764 0.0008265408628781012
573 0.0018074496929937332 -0.004823539269921597 0.005322767151930463
723 0.004304380597087552 -0.0013247928371574404 0.002705424557543197
715 -0.008837684219005545 0.0035020181975874893 -0.0006655652127745983
718 0.0006497787012953608 0.002709780287327311 -0.004185103981360504
717 -0.008265825740769098 -0.006835465538267285 0.009336741392014434
2412 -0.0037709436659161487 -0.008462817146421053 -0.007854574394289635
724 -0.020159432722520822 -0.019575427673071518 0.014287642771199299
577 -0.00976717238474291 -0.010910160960107931 0.03774558474971213
720 0.004264574935880004 0.008197436349526502 0.00941818140038955
1120 0.001691293230894063 -0.00046185566543054433 0.012994877225994027
728 -0.010068508969545536 -0.0006961091385067831 -0.009609395879554259
716 0.007015794112976213 0.0015044310269599055 -0.010112099504610096
578 -0.010874864337075402 0.00276485834409151 0.002840401735217279
719 -0.01470067949409054 0.024845832092354095 -0.025061908507506874
722 -0.015030625827007467 -0.013507978236595653 -0.013868072507312819
1113 -0.008615333448957796 -0.0032546477018758615 -0.006131257589629233
1430 0.007949314307173131 -0.0032016948288033104 0.0011848227113476024
1433 0.0060104332379416455 -0.010018741278937216 0.01292977859891175
1434 0.004249596212251789 -0.0008082747912177222 -0.019021588596201434
2411 -0.006428826298969469 0.0008412060688787997 0.0016156107027289427
1117 -0.010922806407232758 0.002689706598365145 0.007480982820197994
1111 0.00988228874065828 -0.009683183667207575 0.0011775297487583854
1114 -0.003049782226357156 -0.0028267782826241934 -0.001942587068701133
1431 0.00972460527390404 -0.007002537579280022 0.003385803534138406
1435 0.008235444185449232 -0.0028681338612751585 0.0010246792872245793
872 -0.009071523770056435 -0.009666102839387243 0.008663699268936296
2410 -0.027651246425983565 0.0004510858847187798 -0.016322007856417593
1112 0.0034642553189441704 -0.00025987569089781483 0.006181102462072106
1115 0.004339236686733352 -0.002691969158673397 0.007192957573519196
1116 -0.006958580928863585 0.0009355282773160752 0.02328501039895403
232 0.0024682950977168603 0.014888798991906132 -0.0033825279818240988
2790 -0.01727582784931302 -0.013139628926011913 0.011048561239384783
809 -0.0023674155253822055 -0.0032263644587336845 0.007568053920804935
223 -0.0007913154265427164 -0.008743792057789303 0.0014269492110756538
229 0.015745172407682705 -0.015236311071390375 0.008397943283512526
2311 0.014366444404164501 0.0025793380947289994 0.030777487717849942
2312 -0.004266163543787492 -0.0010156187700114617 -0.00026645386645983443
2313 0.0003748401573825621 -0.003388837405977396 0.007925163786526336
2570 0.006376056604381493 -0.001594284250307612 0.0007556053531638631
2571 0.013097091536694645 -0.014136016608742107 -0.015914285035634124
228 -0.005959675451282567 -0.007804726123283541 0.005795847286705341
2569 -9.529450991376178e-05 0.005591289970508487 -0.017911633887104823
2163 -0.0019932948878897175 -0.0018825229400983561 -0.005508157205769664
2843 -0.008689756925574327 0.0028606565141619774 -0.001746401154965096
2842 -0.023264764277366554 -0.008890422680138408 0.017992127514846187
134 0.0036281082432174814 0.007864185193205255 -0.0024124768015813423
132 -0.013585760035396193 0.02314104780343709 0.00810637023440112
224 -0.015134671857869542 -0.025878846923667362 -0.0043379639801038325
136 0.0028543481941939717 0.012924909423842014 0.004931877032527722
2844 -0.006515526672171548 -0.005719800329638747 -0.004377189012160845
2847 0.009968693520367644 -0.009954185793474913 -0.0016826123714618235
131 0.0019167382661576748 0.0065969613750089095 0.003144631799874968
222 0.0014491367454877195 -0.006933763965493404 -0.003966676704908058
692 0.006060284800917093 -0.007160514879555378 0.0037686000974463435
695 -0.013354697364327772 -0.009315658502794186 -0.013750239183324776
2323 -0.018067685292908316 -0.0006105442949738423 0.011688881152012573
696 -0.0029809299803899517 -0.0044229822302533 0.0144506698345171
2941 0.00010294962401412346 -0.009088192670841337 -0.007385106144281586
2647 0.022405466335430273 -0.015436945587830224 0.008439844598244848
2648 0.0010035962158725085 0.0010232402333858466 0.002053620962071793
2649 0.004570022067665596 0.01216182956844597 0.010382780596569214
2944 0.0004307521614437712 -0.003996494453974356 0.0005878062627780919
2946 -0.010854829088786858 -0.013739443465664827 0.030975323853641972
2945 0.0032025590363545593 -0.003130977672716886 0.006062873507657029
2845 -0.01002456135766405 -0.003372315094499453 0.017143483712102215
2846 -0.001076598172603248 -0.0013309434628798154 0.005914845726753748
966 0.013312596620385597 -0.0024084707093112306 0.02072768754232281
2343 -0.020438708542018163 0.0027570653557264088 -0.004758317341834088
2341 -0.011307875513490872 -0.004736535415959891 0.00408680767616262
2342 -0.004872780219284022 -0.005322179268896065 -0.0036115196103283435
687 -0.014985003641920276 -0.00023655529293440482 0.02136694834221971
685 -0.016539713368110134 -0.0011617324200014919 0.00729474377636707
691 0.010383342424242215 -0.010271803984931802 -0.018336070690313094
2670 -0.01762447459840036 0.01268687734542681 0.007655517243627079
2669 -0.0033015696929389027 -0.0010526875277978008 0.002679534166618176
2668 0.025318006286240376 4.093356867098987e-06 0.009701425291035301
681 -0.010321316759516039 0.0014094535310306847 -0.0013192556657223924
686 0.00755224163654447 -0.011270229009228788 0.0008397610024962797
975 0.012520030813157073 0.0002023223569018321 -0.005686837068647069
196 0.0011823990294543517 0.005844559882809972 0.00040257175047770554
353 0.002836486929928704 0.0214927087065776 0.011261201706402624
2891 -0.0005421037730149184 -0.002852271924277669 -0.00471945269427401
2636 -0.001577796515309949 0.000879734219092431 0.005191033616699362
2635 -0.018432626543498244 -0.0059714914299970195 -0.01537613343854365
2637 0.011480536397309359 0.009171187482612949 0.005839066395416062
2479 -0.013294512852483295 -0.003664291906218962 0.01617194492350888
2753 -0.00141698864933847 -0.0013060355598112144 0.0015587302159127835
198 0.0011649655008119397 -0.0050900002331351 -0.007234467036139308
2752 0.00045469773333535284 0.00021046226787752734 -0.002452700858562599
347 0.004295368978221111 0.029770287721660037 0.03653717545498338
2754 0.015386017227564771 -0.004139247725579961 -0.00754275762037838
2480 0.004484109971620901 -0.0038003691193553746 -0.0005079728494340619
2892 0.02333831985587656 -0.018228203217482947 0.023382984572720564
2450 -0.006023814452698375 0.0026093035134434083 0.0020401803006108977
2481 0.010788351917995409 0.022637177967705435 -0.0070774945555305765
2451 -0.03016509122369585 -0.020089977078603462 0.006537773858755729
2890 0.0005162393962393829 -0.017323140643383958 0.009397280175526714
197 -0.009804829856279357 0.023249324032846432 0.009480039497823133
193 -0.006551348585156152 0.0011536847352648565 -0.0060764145296373796
2436 -0.004552671492377444 0.009665885887247672 -0.0010414535345302808
191 -0.008031295997751448 0.008707557787015522 0.0011434167556908068
349 -0.004058626043511087 0.005926181424856572 -0.010058330029639987
354 0.0020290837272613476 0.004726415683276958 -0.009397349252402926
2391 0.006769594562001552 0.009896240866127578 -0.026823432438891168
194 0.014855354761830114 0.0072177615699911685 -0.010056704524106435
189 -0.002742975569991158 0.0015131846217869243 0.004530564848058554
200 0.010507679353471414 0.0014249002229281312 -0.016558004414216985
2434 0.0010291675744818153 -0.010738038799844182 -0.0029784890558641856
1219 0.010584690049711774 0.0336686460394927 0.017840055371512117
2314 0.0025584750403828743 0.0009338468588356206 0.002436676074293523
875 -0.0003864956801432905 0.018854997585054406 0.0004939248454385773
869 -0.004710038344239495 0.0023010041260784373 -0.00015098331607422087
2390 -0.00036751663261949804 0.006145051108786302 0.0031771691980665164
2527 0.016398340213000955 -0.0002155933825191529 -0.00025605529248408495
2529 0.0039540199797735865 0.002538534289512732 -0.010884359083974289
2528 -0.00651036662220606 0.004450449412917582 -0.005655094387230815
588 0.021931798591518715 0.01738069128015123 -0.019222241539747595
594 0.007595003490671901 0.006195703938102436 -0.013388738473578531
2389 0.005051381003938042 -0.006195300708312917 0.008097223029026945
1610 0.00964765113531702 0.0010465445358291056 -0.008137214320422692
590 -0.00015085845404106633 0.0010520850957732087 0.007770820719931745
586 -0.009162271127945446 0.010736252829676163 -0.00249723579299642
585 -0.005118044743761935 0.0037492129243335798 -0.0033967144970190066
874 -0.027860177274131506 -0.020007314966753436 -0.007185608735417274
1596 -0.008310399368166166 -0.004814817593204476 0.0019346821920097213
592 -0.0008506095820786078 -0.027955444519106986 0.008179409564718696
580 0.005204845409847578 -0.006844132898975651 -0.0017485738338046783
1609 -0.0005587309317634207 0.0038720951981417607 -0.025481369485177034
1608 -0.005340773537027874 0.01672026692127955 0.002008893147933115
1605 0.0037374958889169222 0.002596901882606175 -0.007236935995172223
1607 0.004701535700658152 -0.005290938173646651 0.00882532864452254
1602 0.002190589691603418 0.002364455730267873 0.006079227093391746
1599 -0.008731983901474479 0.0015545248279025055 -0.002987639508095921
587 -0.0016214944078663872 -0.0035411701459406673 -0.00596481756474702
584 0.006738739408441099 -0.002450651017190501 -0.0009648101369991825
589 0.03559990221849032 -0.03978218645653391 -0.009010399354803359
1604 0.01331416460094477 -0.014532632436275126 -0.010751778554773269
591 -0.0006229669397210623 -0.00706969292100636 0.000355008491693833
1603 -0.01866287659308757 -0.0044164540730130125 0.0017080057461574408
579 -0.002455156251784755 -0.0029106489956761345 0.0007144049383206648
1216 0.0008113847942789418 -0.0002628024131236693 0.009544207202030537
1606 -0.0058268655719702946 -0.014099781139203125 -0.017765288510422996
2455 0.0029039305068284844 -0.009139038023547439 -0.025525106717010464
2884 -0.005919750645477415 0.007148293943109427 0.007022943101115534
2704 -0.0011455011973631427 0.01316688373116261 -5.932353837070718e-05
2315 0.0020609613048070555 0.0058001576106078145 0.0004308034280447217
870 0.00919745084160442 0.0041764899695494444 0.0004623361094009258
868 0.005892173387882245 0.0020440407373410623 0.0005731728416194381
2958 0.04647402168112277 -0.0031816258241391176 0.01019980445463323
1211 0.0014271897702729337 -0.008133553807350487 -0.004546707379896053
2885 0.0022599328779118887 -0.007048007373845905 -0.00025156042391860346
1212 0.0033213997779621804 0.006344517019420403 0.0016698596066661725
1118 0.0036654030199759517 0.0020179890597590527 0.005577130411856445
1600 -0.0061221687572809045 -0.011166977415801398 0.029768957764779405
1601 -0.004321027306754135 -0.0024983048214848765 -0.008721547749575844
2886 -0.005891330200047742 -0.003644567481352833 0.005668344178164541
871 0.023495097597093922 -0.005855405788914842 -0.009533980867297343
2706 -0.010184742576438562 0.00665228374280326 0.017600580394007626
1214 0.0008841286233909148 -0.00033937671253608234 0.006573455826029603
2957 -0.00637194962736656 -0.005394933822030816 -0.0020137969789351196
2956 0.031026410176634812 0.0004836799856964366 -0.010590222972672404
1122 -0.003918590567858212 -0.0011359677486791557 0.007908493877822508
122 0.006089449244179333 -0.007443760133089399 0.00594168786391252
123 -0.015744019781615555 -0.0357715904053693 -0.001476918336911379
2705 -0.004818598570331538 0.0025591719093648693 -0.004265287882155792
1734 -0.02119969794605364 0.0007085081445010423 0.01955160101893431
120 0.004442393561284268 -0.005919254555070465 0.00440127994980324
124 -0.005956311148771327 -0.0069772344989074255 0.0021775177746400803
2719 -0.00437026307992325 -0.007161047293128171 -0.001173019488201928
2720 0.0005032284884518326 -0.004394160649577008 -0.0020665215798229136
1732 -0.00047032107950887594 0.004867064069210835 0.0043745294624167935
1728 -0.020815325087353658 -0.011017433651167979 -0.010019102718510978
2590 0.01552720537577472 -0.014623706216397886 0.0036219334228768255
523 0.012353640845595976 -0.035672719478383144 0.007946003313910918
1125 -0.01434185549363073 0.008967901477437474 -0.009846274571599192
1129 0.01553918663147251 -0.002612612585196968 -0.014159466132872877
130 -0.009583663243907444 0.0016846529118822726 0.002361209053177048
128 -0.0002743492950738036 0.008356487830789038 -0.0012840399316690761
126 0.02781235412753364 -0.0051643415413932655 0.009337444671444456
471 0.005210692651502396 0.006324956016762716 0.002699686162982162
121 0.0034186034458510537 -0.009456035659875158 -0.001342656565927702
2721 9.625461479632345e-05 -0.01423221133744548 -0.005357594936825539
127 0.004670298645829433 -0.00981195981726563 -0.0019445254586858021
135 -0.01170810271183536 0.02142052615916238 0.013958463527607058
125 -0.0011402282216319954 0.004851604010869846 -0.00538746068782476
133 -0.0037715966021985895 0.015133896801836572 -0.007999186259985818
129 0.020111517863515095 0.008318988620505802 0.016878832295134587
2951 2.5254539682944837e-05 -0.0027255694071049975 -0.0009138085105557616
2952 0.007750903731081163 0.003231483995757785 -0.01591473679695604
473 0.011981878372690529 -0.004619475317410353 0.0010369895305949437
2950 -0.03686593197429233 0.003584123350886435 -0.009440300836753193
468 0.0057402253675313784 0.0005752695614553037 -0.002227141327868912
469 0.012496550105516518 -0.010922333484751075 0.019763142667276107
467 -0.019359186246600782 0.0020177860378441503 -0.024148757934304012
465 0.0063727506352914305 0.004513497303909842 -0.0011616936206208712
2591 2.9816756633548547e-05 0.0016551607720337559 -0.002514507985209853
461 0.004336237371852063 0.00011433531476380547 -0.0047203223029818955
517 -0.004006550428517037 -0.022115361321334744 -0.00023844301142051551
475 -0.004311440282253934 -0.023588212742824136 0.026381817767760045
472 0.003338716149686273 0.010147386359919689 -0.014326857009545405
466 0.0016879792631607764 -0.0020127431818677266 0.0002074413879727371
2592 -0.0013125372794815801 -0.014406125078338982 0.0036133489678912916
470 -0.0016406406424604486 0.0055650757402368155 -0.00994901625525142
967 0.007539620550811425 -0.02800523626392554 -0.00034942045553781756
2239 0.0018030602027188014 -0.0015339562060000924 -0.0067731729809088845
351 -0.006952595813441073 0.004551989151981771 -0.005921019292507109
962 0.0029108744516292743 -0.004759380683269793 0.003975098846650058
346 0.0040794504575190176 0.003334361889213105 0.0006106399099381474
348 -0.03712643874917336 -0.001272773307284168 0.0016854885864391734
342 -0.007487874091634845 -0.0027163319490508355 0.006006823888057015
2449 -0.005713843586931242 0.02324361032037946 0.003904270213913088
2943 0.029784048813483077 0.008886459384198686 -0.00046185436720506663
2942 0.007301688335851875 0.0014522435043359014 0.005192048780932552
2736 -0.0021819621951154793 -0.0021614963110530186 -0.008380138733942874
2735 0.0009659670369464247 0.0033589859928713963 0.0013917844598716083
963 0.00020832040970983795 0.003933832327531655 -0.0013614847012768275
463 0.030634544906052275 0.001666591985982557 -0.011554585421987331
460 0.005364473743935596 -0.0024914383922993513 -0.00612469187100593
345 0.007774777793669196 -0.014814052229376441 0.012382581620388388
961 0.002267488607650742 0.005234447537192533 -0.002073816733922141
462 0.020752713031130614 -0.024581739622687025 -0.017779729802718074
344 0.0013996098366995432 0.002509406346944155 -0.0037109913564909317
964 0.0018070766162918204 -0.002719262733824203 -0.0013963145987827513
327 -0.002844146398787671 0.014430137385100093 -0.018258537221218698
464 0.009883757122352068 0.0025828710008746845 0.013308228610722282
1189 0.0018205608334868572 0.005755601562894976 0.0018245607508384223
1188 0.00022110940607538134 -0.003160895817457467 0.003238133377331019
341 0.002854505028131894 0.0028914211206907806 0.0032333935233306893
343 0.009943888272364929 0.002258955792115267 0.01629260158461627
1186 -0.003365199636370766 -0.0002804444627735613 0.00567640340305801
2438 0.0003058027935406741 0.003472946507196284 -0.001404611111485107
2437 0.010470446383974525 -0.0036176037162154147 0.015712779874927005
2439 0.014741999824198639 0.00414923262979412 0.004772232248245486
350 0.007161436257265277 -0.008529256489043532 0.000989268218168902
1194 0.03275095174889084 -0.02418320169713428 0.0012094853205073066
2920 0.0019643986128225145 0.0005762568086391947 0.005093850182454946
2577 -0.005552104145099403 0.004455938899430931 0.003959793320732545
2420 0.00037203729469750124 0.0028513914152319166 0.0011210861141356008
2419 -0.011009785505851574 0.011917199790083611 0.011446796635674033
2435 -0.0018912457323872983 0.00822245687752968 -0.0015852134384657115
582 0.002327512962774932 0.02397879075702064 -0.0013828102170751861
276 0.014907727892463906 -0.00013559695428644417 0.00015920333105611418
1669 -0.0005403979629485583 0.013499586516481006 -0.012653827937760917
195 -0.007083528750966063 0.008932496540556056 0.010176212938631038
275 -0.00736404109254386 0.0064786611966571855 -0.008007139202178052
2421 -0.004650786720842972 0.022756756695675943 0.020256960009841764
190 -0.001382938145185587 0.015359412513924595 0.022619621257153333
188 0.0032922811483230975 -0.0009866913777188478 -0.0017466363150948304
192 0.012650761643335125 -0.0015881487493499746 -0.014385638818036253
1286 0.0007270944934663073 0.007237124941002981 0.0007946149027766275
2406 0.011020321101072861 -0.004420547318910943 -0.015098671894234637
1288 -0.0003056908788200014 0.001223451733692128 0.002291237638860259
2405 -0.006003651460984048 -0.0005543502221620789 -0.001716403700040985
2857 0.005217065245021292 0.004186639380064523 -0.009273062650970295
2858 0.004282083247029688 0.00042393684585296913 0.0043560575469650635
1289 0.0003176508359560804 0.0036140863471461684 -0.006094585547559688
273 0.0026235297972838165 0.0030951068367336934 0.0023866375788940027
277 -0.013861977925482983 0.005502411754539375 -0.01183509771878493
2859 0.004875090981751095 0.00588890697547197 0.002506555539046092
2404 -0.003679587059120139 -0.0019992820792140457 -0.015224143559099746
1287 0.00655121881041844 -0.005533854768668182 -0.0009935825769305825
1292 -0.012757677398938731 -0.011813455513457022 0.0005085609769806643
1297 0.011751530506584361 -0.014811425064336458 0.009744046403465734
1291 0.01676826138866792 0.027547355502568358 0.023004586827775873
1290 -0.0007584461955381005 0.00043309695663620276 -0.002753061620623974
1295 0.0008047313545273913 0.007378375946945406 0.0039107195422125865
1158 -0.008095933593911493 -0.0170684313114984 0.0038772544080047963
583 0.004222956793744984 0.03943398940792969 -0.030797964067564087
2851 0.012804469261549881 -0.017530718632811054 0.007876226905056388
2928 -0.0057901463774479595 0.009422527400260176 -0.0007810500869984833
581 -0.014012499477221194 -0.00552208067264062 -0.005564188747476259
2319 0.011295272139440118 0.00568683484165104 0.015296307387718335
2318 0.00023132523607222 -0.0040530584758737805 0.0012499395505345139
2853 0.025016738492395277 -0.0029693633234587056 -0.016566953821763573
2317 -0.010387867380444222 0.01114759468519086 -0.0012283835841681795
2852 0.007684840243561285 -0.0014875555774793603 -0.0047906691788192415
1716 0.0009912103193866627 0.004991151054764263 0.0008698079281355143
1712 0.0007088348895085771 -8.480403988534149e-05 0.0020087938107721994
2926 -0.020263688148449737 0.014188598716882333 -0.0037452965550281905
2927 -0.000323245169890734 -0.005222255252411311 0.002608181275764118
1719 -0.035089865361394766 0.022302850648005287 0.011802436763629303
1717 -0.005608458601544503 -0.0022695490374520155 -0.017860304999323364
1711 -0.00035435339227275444 -0.00487916201742231 0.0039466200559962385
2539 0.01150967428214449 0.0030102735308009197 0.027190878381146342
537 -0.0019015366824744145 0.012014699595781133 -0.008637936572537643
1715 -0.003135298810088546 0.003253879826729219 0.007875901620298477
1720 0.02769883440927842 0.02667983492747714 0.0038869992305489024
533 -0.0031337497627496316 -0.0022941298421042954 -0.003545641524704596
1714 -0.00028386168825886987 0.0027588149577233126 0.002354381943435856
536 -0.006292138253265824 0.0031553382621765593 0.0004024317346219246
2541 -0.012869761003432257 0.020843848644232582 -0.020363151751377994
542 -0.003599503245119043 0.01603746921649209 0.011349010914047705
2260 -0.0013842293914743012 -0.00785988980546359 0.012710260545213764
2258 -0.006749191463590424 0.008211853035413406 -0.009072298270663918
1713 -0.0019244577345341627 0.002262177816930761 -0.0010542362393015934
2259 -0.00957624238313901 0.015819095377985606 0.01572117939712793
1217 -0.013869876868819141 0.004087549288864272 0.001966872243434612
1735 0.006611330700973049 0.013427146179338956 0.006710977276799068
2456 -0.0005223575757319002 -0.0014620771468863527 6.0419974640266225e-05
1730 -0.010607707818195545 -0.004068954229830153 0.0034653302539357604
1727 0.005212960690585684 0.0030210728100217624 0.003204364421723414
1725 -0.01084896873101282 0.0065957619661756554 -0.007063120105722581
1731 0.0021596779630503257 -0.006664550816567388 -0.009978877743653055
1733 0.011630038864346784 -0.023528705025212933 0.01390607869396388
1723 -0.0010809463314754816 0.021085968362817432 -0.001947488223095502
1718 -0.0011875524769255777 -0.005653444578881792 0.004345675347925786
2638 0.012981366039639631 -0.011690808355822528 0.005517890534150431
1726 0.018006139578512294 0.021684840021903976 -0.000216886347125846
1729 0.01122245923723079 -0.012667074436448007 0.0017340987510773374
1722 -0.020652695828048007 0.011542023097352994 -0.010607706655108401
1721 -0.0012575376790471002 -0.0033691179248319706 0.00148048056660345
2457 -0.0002826084610343467 -0.0028215100908388162 -0.005849038743575756
1724 -0.0028686157318649264 -0.0018552796364455504 -0.0021836605410797782
2967 -0.020107067134472807 0.013321961082712004 0.01950461763964527
2683 0.004694811755248154 0.017163026568875424 -0.003985749338972588
2966 -0.006343788994239534 -0.001937886303973459 -0.00237958199436555
535 -0.00026338590576123775 -0.005958585982505269 0.007202511964985177
2364 -0.006367905510685297 0.009169067073181696 0.014088635889641939
2363 -0.007112613128160122 -8.476757800368004e-06 0.0014895342505079358
2362 0.001715890481851426 -0.017471736553607113 -0.008849193492902436
2684 0.00436695782564797 -0.0003826241738855347 -0.0013987388237639783
2255 0.0023828751747068974 -0.0019488111667707911 -0.002797332955624366
529 -0.010128951713248631 -0.010967433518225175 0.001504036122162146
2685 -0.01350507129914557 -0.007350777063795082 0.005138067247242907
534 -0.004102203056930841 0.0002760713823123365 -0.008299023919082783
2965 0.004976451929537104 -0.025487152859468617 0.006103956937221984
541 0.008128397801350789 -0.0008850439463414941 0.008448174488114543
2238 -0.0026776265651228108 -0.0025922612453596165 0.002444449890313684
2257 0.0034682741468512984 -0.006866723712743001 0.025628833562775465
2256 3.5044513346522034e-05 0.01763453440695672 -0.00418732778248634
1210 0.002950267007425361 -0.0171563187889989 0.004218909465230064
2253 0.010662477425614233 -0.008682300134152145 0.015382975878289223
2254 0.0050429121502561245 -0.007884477092778798 0.010078749698577754
2249 -0.0028854122104340126 0.006689959900099852 -0.00222549018826083
637 -0.04048379664015594 -0.008205780326282653 0.017325082651876354
2252 0.0036980953296195614 -0.004908574128099085 0.002071825234172257
2244 -0.017612967184340425 0.013112741158417835 -0.020850059926121975
2241 -0.014489795201369012 -0.0027977584618454863 -0.02733655514576455
2236 -0.00612229385305968 -0.003646204372355296 0.0015799841226604358
2237 -0.004325274273392777 0.008737496542928446 0.0026024343820584394
2240 0.0034712486172295866 -0.0016679832786064388 -0.0014141782546346795
2251 0.015238145727074914 -0.000640138503234079 0.014062596996863368
2250 0.006752057291962525 0.000675150810202458 0.0012792653473766352
2246 0.0032510766894118274 0.003887305769658438 0.002986650293717676
2243 0.008355949705891682 0.00023051805061754982 0.0031367195705585913
2248 0.00894665735144802 0.005316702066885375 0.006809253725339991
2247 0.0017389539034222397 0.006913048333355024 -0.007780394542710811
2242 0.013392897514715367 -0.00016632506497214847 0.007681550069042058
2245 -0.002470656933561613 -0.007597973343539169 -0.01078041200941177
306 0.006359303206329204 -0.00467401554792963 -0.017839368207097656
304 0.008593420163258836 0.007940392156068997 -0.013705566072161335
301 -0.006551348021315028 -0.001983207238162585 0.0010052380147743936
1200 -0.013773228027941262 0.015147577606808803 -0.01939841002282647
305 -0.020594474453938784 0.02266279404732206 -0.008481825476570667
644 0.009140550419831492 0.010691255947144578 -0.02642577054461272
1203 0.0017777716739704253 0.004701979230058069 -0.016252827337977522
303 -0.01568272957046127 -0.02347443449224781 2.8113437736184116e-05
1109 0.0012949165710234459 -0.004720562522406618 -0.0001166566745522707
279 -0.008951933157463142 0.013283329631387765 0.006585481991214892
274 7.762829732388416e-05 0.00033949262696059146 0.004516541449455676
1191 0.006897157884547331 0.019167215308711974 0.01829421068145325
1187 -0.0010146263913307543 0.006658189681142817 0.00761290077366646
280 0.00460028647135864 -0.0015879792551400991 0.010689976483657776
1190 -0.004817146164452021 -0.002090734028378677 -0.008521142065126365
1108 -0.006447427392103272 -0.007025433387455942 0.013653919281503831
1105 -0.0004320209107896369 -0.0063257512944915545 0.003047322740864983
1198 0.015542795478713548 -0.011512065096384406 -0.02046319626000409
1204 -0.013109422266678269 -0.01179931972596193 -0.0079280020912133
1195 0.00035197712821531587 -0.011005202195013082 -0.021835169949575087
1199 0.00482875002509362 -0.005659814968483302 -0.005552546775286231
1196 -0.004974773899470861 -0.0005168201856793407 -0.00220714347761651
283 0.010237545612896774 0.009151303359494049 0.009334828032140826
288 0.0025132936498123122 -0.0020606560052676927 -0.005805876521245958
278 -0.008416233384609683 0.005611276833815699 0.006321375681233329
1197 0.011607963584734206 0.0074903859883296495 0.005658513827578231
1192 -0.020790419237197776 0.018284979477330036 0.004041632647257568
284 0.0017897065828016447 0.005496112489639385 0.0036298794380702
286 0.017085759828200323 -0.004594327111929842 0.012312941781298978
1193 -0.0002394297888824778 0.0050066664857017 0.009940557413516736
285 0.013664045145471596 0.009034454168518698 0.0014571875485991281
281 -0.0027646817044402754 0.0010801300360592204 0.0013260250158539403
289 0.013874901352409461 0.009143727235448358 -0.003884500702041719
282 0.015168478047974592 -0.0050180490671674115 0.0024455295097310374
1107 -0.00871287658268913 0.009239490222956658 0.006463546695791563
1103 -0.005734978863883046 0.0018997180356823242 0.005047405635202073
302 0.008214529082409324 -0.007264802327448692 -0.032188692453834884
298 -0.005934367602720828 -0.0021626785663483453 0.0008625237714804276
287 -0.01854768996535108 0.019402809578478255 0.00410851551957362
1298 -0.0023658164791814994 -0.030592528019023124 9.769467603789026e-05
1293 -0.004953144828782853 -0.0017770149384149004 0.003073442343298016
1306 -0.0015202887463320023 0.014700871646649481 -0.005003536468249958
1300 0.008549085294668038 -3.4390858341125194e-05 -0.0017074822394928274
1671 -0.006768628321318868 -0.004692203568759384 0.002608762940730371
1676 -0.007355157728499492 0.012718578861971494 -0.02957444002367232
1302 0.00024247644169038613 -0.000701159190970501 0.002228074789030399
1304 -0.01171351553468568 0.003292161100108706 -0.0014135132489804232
1303 0.006932089105359787 0.011194953146011528 0.0010292144183830195
1299 -0.0017345800762413595 0.000456111607542126 -0.0033369931806285797
1301 0.0058768363370845155 0.0019925894309413966 -0.009590102585247269
1674 -0.0012584158261523311 0.0034808669967407967 -0.0008193976672433504
1296 0.006000877358750555 -0.0018732900658140798 -0.002768051050681105
1677 0.003254551483580586 0.00569801466233854 -0.010792777771983605
1682 0.003570270566547729 0.004859781989036153 -0.008818563796771196
1675 -0.0015744389576688197 -0.008759454866414277 0.0016459281498508887
1681 -0.006488535573338777 0.010915847739204938 -0.005103327133975498
1294 -0.002888916877696059 -0.009809098587174308 0.021968806246827
1680 -0.00019825927716668628 -0.000847378891717281 -0.003259665489380113
1305 0.008674223798281392 0.006144443024391949 0.010510289237734876
1308 -0.007055266324753323 -0.01177980127436331 0.0025984279479386784
1310 0.0076615769536571825 0.008976379133562638 0.00910437501502097
1685 -0.005824475113131404 -0.025337386209064398 0.003405581590291887
1309 -0.015341601137627085 0.014779331689570586 0.0031570995905293923
1683 0.003672515008473724 -0.023192049076802935 0.009087632405422085
1684 -0.015745602712488854 -0.008831385511424832 -0.014298586954520081
1679 0.00020808752765658672 0.0091972273439524 -0.004573856440189509
1966 0.01881679286759446 0.015874869950678466 0.012409874899720936
1098 -0.0068043921139627475 -0.0007286519239758254 -0.013072038354348746
1678 0.02943083551026585 -0.008480101251718037 -0.009219299826715481
2836 -0.008620759207875079 -0.010631263197783798 -0.010387513043514464
377 -0.007831391377782706 -0.007867457461287431 0.00497814912062846
2837 -0.00765640499464402 0.003807488345650197 -0.006836805414987103
2540 0.0029490307058222982 -0.0007316430493802381 -0.003196336668544534
532 0.013514808793596287 -0.010719722161973552 -0.005718051182518919
528 -0.0021459538163729162 -0.0002236462183181796 0.0005319877715279428
2838 0.020321588858198937 -0.0042006573909759565 -0.01846856072371294
91 -0.0010876850136700852 -0.006259029102945492 0.00480863161069153
99 0.002938268773486514 0.01570947880996476 -0.006394251293856768
2563 -0.011501415640213102 0.00012054555237798648 -0.02983265765117854
2564 0.0010942654407775597 -0.008749450082641604 -0.002753451097451247
1962 0.006889525688374063 -0.0016864370899482605 -0.004469502184841759
1967 0.019799851358128475 0.01086919334429369 -0.013274415969600687
101 -0.003630270062175643 -0.009420118648985738 0.014459497433928969
100 0.0004262297429082634 0.002511112938203277 0.004943955719128272
97 -0.0036885133248508017 -0.0007562837777131582 0.005173544248269711
94 0.008495436948179802 -0.0014743474064003003 -0.0009860478144930033
102 -0.0021696680847727327 -0.005587857259748595 0.003136942376257644
95 0.015619689219647707 -0.014540152342506421 -0.004645784460036843
2691 -0.011834135785493652 0.003789268139542053 0.01900436198351032
2835 0.0007035199915117234 0.000987077196559641 -0.02167164498048112
2690 0.0013630165677787677 -0.0003945181862448196 -0.006328349924663788
1961 0.0021816294700467472 -0.006503426458465595 -0.0005484665597399824
93 0.0010361659265817637 0.007060302606294663 -0.009984068353854712
1964 0.0031054162236676085 -0.0018877168641397743 -0.005415595896553779
1963 -0.0035008634798603883 0.0014790263404668848 0.007006529248200213
2834 -0.001337807281602722 -0.0008552060287512771 0.0077244600965512295
2787 0.0015249182681270972 -0.006918053850340415 0.011989899974664873
2785 -0.0003420991450268169 0.002443445489971336 0.027411647683301493
2565 -0.029076573544037917 0.0001669452363656281 -0.0037983590465623155
2786 -0.00161749152567094 -0.0009008650312118164 0.005592252788081698
915 0.015970416186456577 0.025088868788079238 -0.019739219052287916
530 -0.006516485231469935 -0.0017877495264031645 -0.0021606974174448288
2598 -0.0036871908922529732 -0.006183011352855639 0.01572145397747033
2833 -0.008353115467373927 -0.015026366935601403 -0.010160231467984658
2045 0.0011205033045270506 -0.009255542753625856 -0.0075360335935926856
2703 -0.016886664976335584 -0.018630531533366048 0.02178672663519961
2689 0.0012956111304962357 0.01071731027292477 -0.012069133734218964
2043 -0.005226698109125993 0.0026982376478321577 -0.0012224010042796033
2047 -0.016044356970787193 -0.00797022974974479 -0.03195097579713217
2483 -0.003898273142943702 0.0047779725598900355 0.0038702115707331835
531 0.0002086540259483454 0.011332881812833602 0.019288425292396272
2514 0.02201347458188894 0.0003011443656220242 -0.005391966850142854
2512 0.00040899577212129474 -0.0014774295808848452 -0.004884699685621511
2781 0.004354813241598798 0.0031511157575770258 -0.001696809442282826
2779 0.00676268658126077 -0.025975761444347628 -0.013427458567695482
2780 0.004174290025059785 0.0038667194754074693 -0.005790307447855562
2513 -0.005954309589913264 7.234742278105882e-05 0.0008910033850618988
2596 0.012101295582702887 -0.013473871506363496 0.00747347814671152
2482 -0.02995351382370167 -0.03129672689608316 -0.023805610879544265
2060 0.001033732474082751 0.0011419255286642279 0.010693496403536845
2484 0.006771600415877343 0.030850155932755457 -0.013966444837913882
2054 0.0078080812838130795 0.017316446625153623 0.011688397429954995
2058 0.010388938405664936 -0.0057132354532941606 -0.009113283395184975
2055 -0.0009999834306999799 0.0005731095667992835 0.002258889361576386
2053 0.003002353150385483 0.005435880014405651 -0.019885035922299333
2049 0.000792001922493681 0.004333625161452404 0.007878829696232654
2702 -0.004713304155269425 -0.0020577385994676955 0.0032651375800415933
2597 -0.006566783627381078 -0.004927342156490046 0.004048331792269673
1951 -0.037772951666150995 0.004781545031156067 -0.022144764427589933
638 -0.0022753620531768925 0.004030258915945142 -0.000472952446866453
641 0.005278414448420446 0.00023770418977570986 -0.0024814159215120813
2059 0.019424631121586707 -0.019100444449459675 -0.013869285107361701
2056 0.01709911812846081 -0.0066724533942626755 -0.03169350218035619
2052 -0.0005046197637012581 0.002543219210877037 0.0031752889286238094
2057 0.00432642164773124 0.003718475986599544 -0.012428251720636567
643 0.006134740941919691 -0.00976137153791608 -0.00011433356107697757
2051 -0.0026208284718976485 -0.003130970646742194 -0.01771971136676086
2050 -0.024483131975691817 -0.008927970994154951 0.015694338745654103
2046 0.0013881886770945194 -0.007726268432327793 0.0041601670759209
2320 0.011431822835507185 0.009413957663796196 -0.006563317876713039
2321 0.0006532978344638183 0.003562282949112024 -0.0005972009117584331
297 -0.013143477149568214 0.0011212739266878921 0.008531983035084687
294 -0.009599125443605501 -0.011988749025019571 -0.007939666193397704
299 0.005536566346341919 0.010786330717779033 0.0060769599978630455
295 0.0014670484048173657 0.0012968592919860445 -0.001539009293489762
2322 0.0042357927561454895 0.003894741501435596 0.0035227581117294343
1945 -0.0025784776369919913 -0.009143759288925664 0.007861786875853637
645 0.0012381201897957912 -0.007895401920709352 -0.013321106430170539
1944 -0.012374301262802315 0.01823606563009871 -0.01885162401308309
1940 0.005462125314802842 -0.00039626056806597225 -0.0004369728039294839
1942 0.029263794833649524 0.007177072743009919 0.002771816211994866
2546 0.0009004518385456822 0.004330556288660999 -0.006547922688123801
1102 -0.0053340724034571 0.00035645689622542726 -0.000270841038586358
1110 -0.0058208948285627116 0.0027240284846037012 0.004654507888597567
1101 0.0008003810352807466 0.016960330721960456 0.012683498214648203
1097 -0.011828170592129978 -0.0036864754000041767 -0.0027837404875307747
1099 -0.002412841965462712 -0.0030033898118294665 -0.009187169981692786
293 0.0008264124600186842 0.006544585914528638 0.0074007383964065756
290 0.0006219181735204799 0.003429296516774274 0.0029858507522581342
291 0.0014106360654364395 0.0037080539552532443 -0.0008357411195296627
2547 -0.008605876704489309 0.0050434811537087496 -0.008873775394797176
300 -0.019631271402705656 0.000694547892689252 0.009910426663457978
296 0.013230121387241639 -0.013602846993124529 0.029230623802564765
2762 0.0005819912460496868 -0.0013690837720168162 -0.0003586109156151187
2763 -0.001550931318588421 -0.01150940454932829 0.01602809414419296
2761 -0.019262196851142378 0.023734715731404354 -0.01828846596157617
292 0.0012178727985988297 0.0039034143084090886 0.002282454630627668
2755 -0.0008781569669015751 -0.012502855702696467 0.004621582659958718
2870 -0.005485974308022922 0.0056294531802498285 -0.0035609746804214845
1104 0.006060972589359631 0.0021629851190713284 0.013346029870416734
1090 -0.002033442279416026 -0.004277209201264313 -0.0014675123103795556
1106 0.00032098582736210393 0.0028224311891297087 0.00026995998152621925
1100 -0.003997563351462013 -0.005111479751714573 -0.0004595315979637229
1096 0.00020359942256005037 -0.005539362402498758 -0.0023286814515027024
1093 -0.0018278616207159524 -0.001685035528603599 -0.001623495983307356
2467 0.00876471435728188 -0.010106345170297142 -0.005521817858181889
2469 0.014233534774383126 0.015953209379258742 0.0020242573194722007
2468 0.005237594463091772 -0.003230420042908172 0.0012313607473790284
1095 -0.033855922528647615 -0.018162648314084623 -0.014821160563621268
1091 -0.01153280334572717 0.002059923256224591 0.02144869112924604
2869 -0.009829193672158301 -0.005576961011857379 8.771438190100608e-05
1938 0.0005251624859553073 0.010069813215843817 -0.0046181298793499395
1094 0.009000227076570938 0.0010442119263278698 -0.021341688521591955
1047 -0.03119727172966068 0.013871760408653311 -0.00777720793494765
916 0.020203500323188604 0.001447970652419532 -0.015355722678889617
1247 0.024569695593457945 0.0020521500256767064 -0.011223326938665228
1054 0.006413883120131699 -0.00024805283819793 -0.009574270644366343
1052 0.002034491036184295 -0.0005528615505841915 0.0074969163933331275
1056 0.035930662568929704 -0.005403017681644326 -0.01186331380934314
1050 0.006954446893519798 -0.0027153548845855724 0.025838352580020527
917 0.01493603954760418 -0.008223563246136765 0.007017362524552158
1259 0.04455626936305976 -0.0009626083421657619 -0.006539432162163224
1255 0.002581360861914391 0.003988593655605573 0.0032991464431368794
1260 2.89555126659558e-05 -0.009586084018267637 4.0739610643191906e-05
913 -0.004516707137098088 -0.0024653941614139283 -0.003071995164917689
1258 0.01951449321675078 0.0008426040330411066 0.011673695073102414
918 0.008559042532141133 -0.013062289401786682 0.012740354306182679
1057 -0.0004762384904565771 -0.025635078776712627 0.012659387986622882
1975 0.0017819146394575385 -0.013038595798374093 0.01446865458711698
1253 -0.010187228175882893 -0.00018459785623930322 0.007557083064758066
1053 -0.010245145844543245 0.004158976134987389 -0.01159371943572069
1049 0.0016712613146110692 0.0026310797002912162 -0.0032452188675934405
1051 -0.006842833660650498 0.00839424644195214 0.022944252662800074
1046 -0.0007373979645539008 -0.003847980092084086 0.010259880197677011
1045 -0.005704051609459212 -9.512013322212536e-06 0.005984049263052535
1973 -0.003752863180128452 -0.002992439399424329 -0.015296457485402478
1969 0.006357956744065604 0.028844984402284363 0.0033121494724532917
118 0.008155762036970516 -0.015208813053882983 -0.001351074214806193
1979 -0.01487644937245761 -0.01670216529501753 -0.008349319919779266
1982 0.009732305173725302 -0.002494578065922087 -0.013335057125523263
1977 0.006548979484086116 -2.8603795134670065e-05 0.00478445808069876
1971 0.0011182741887821796 -0.00497263495503807 -0.002110950089318215
1976 0.01223725366515824 -0.024001216334494643 -0.00605212202379995
904 0.012263223054708464 -0.014820331232941917 -0.030253181078760502
914 -0.0027866215429143814 -0.0020572534697390105 -0.001868329498009423
910 0.0020023519292791513 0.0027077716140774416 -0.0019434340139337534
1965 0.0007985368048946635 0.00027655440751783256 0.009857741076912825
1981 0.013169635044313335 0.004686792081624923 0.009646445112493513
1968 0.0013419306862461977 -0.005408684233960585 -0.011375512305107806
909 0.01948701405327891 0.01838880620669181 -0.00328646151238785
1972 -0.0008551205621226811 -0.018846039098881242 -0.007076625716750304
1970 -0.025335428468552017 0.009916621796877077 0.002026361309607959
1239 -0.0026599792749732796 -0.003377506083562034 -0.001807360581082981
912 -0.04000131511902808 -0.031529086963630285 0.019345697768761234
907 -0.006942086877951133 -0.0028780176896213406 -0.0015669014175521399
903 -0.00451832096534426 0.00955842406056716 0.0012297014785992212
2934 0.005002625111987062 0.0016151594434871551 0.0007011986999101929
2932 0.0038302611643433967 0.004097549488730846 -0.01433325671021398
2933 0.0059330206253837515 0.002134576871626177 0.005106902339722471
908 -0.00862874311737737 -0.012678848801084806 0.006008984282035729
2536 -0.011556700253359701 0.013020848556467327 0.015838435635783216
2538 0.00956108243101697 -0.013343286642424077 -0.013598940671667453
2537 0.003994331182145395 0.0029146895330443884 -0.0015825048423145148
2359 2.0665835965949025e-05 -0.00834014426502113 0.011096799707813593
381 -0.0004941220199288072 0.009259652589633615 0.010703201509359252
1974 0.001455032025150735 -0.008959218421167424 -0.0034838510715519528
1427 -0.0032678146775112172 0.0013217268660395038 -0.0019945982299575727
1432 -0.005912914450978857 0.00508379167314149 -0.013374313954029835
1429 -0.0026031573969346076 0.01685938617128209 -0.0071087297484175305
1420 0.007462945672638362 -0.014711306677878892 0.005333028137059867
2416 0.007059665709959018 0.006941684421787887 -0.01032403437625537
2418 -0.012755588954954404 0.003566062536459158 -0.003957491663328156
2361 -0.012454856396919595 -0.017457976482237767 0.00042055112579065265
2417 0.001660113966460267 -0.0013019800058305473 0.005531068052764266
2739 -0.0032290590535504512 -0.00860134690877444 0.012279755349297171
2360 -0.0008746100443266983 -0.0013259286187787026 0.0030200764111708886
2663 0.0020605514951716713 0.0026290943827273244 0.0009659501248158041
2664 0.012697943459454221 0.008182642310189949 -0.010857236155151651
2662 0.004110633426211482 -0.021052335233506306 0.015561267123590999
1428 0.011530843293996444 -0.009174816220846621 0.009751048717199392
1424 0.005110043100312596 0.005054765216023134 0.0032986463661891837
1426 -0.00265292953915434 -0.0016009621335518972 0.010567402953926325
1425 0.0061348406020053006 -0.01375872941133376 -0.0009173918254164941
1421 -0.004163645918672011 0.005488412821033975 -0.008976896191906385
683 -0.0001279732925099406 -0.013542901529230201 0.023566602109935605
2169 -0.006141319827793998 -0.002399821782834702 0.0015451256029480134
2161 -0.0025778128414078675 -0.00102470094324636 0.0005563813555917418
2164 -0.006126744806072208 0.001676092001948449 0.001991256695989611
1950 0.003889337577297082 0.001687599094835297 0.010572975333344769
803 0.003743803939337126 0.002500438490338498 0.023435886089631118
1415 -0.0018181267456195815 0.004453275626247294 -0.0023328829470059564
1416 -0.01499172638281396 0.004190962047387855 -0.00403175918601633
1943 0.006885139045651301 0.003422629596614329 0.000574481229218286
2168 -0.0013621367935688238 0.00013804831458171893 0.0014482612290360574
1946 -0.003073589788434486 0.004007790296044006 -0.00022951591451285231
2170 0.011092680243194389 0.008646655441769078 -0.02547787257541077
2172 0.014892974301681842 0.013464155315102769 -0.002858962924743825
804 0.0198780265209279 0.019098690288106474 -0.009822073832985449
1948 0.03382882840229102 0.001556912766467453 0.015921895240610818
2162 -0.002174040228522488 -0.0004812737165007547 0.0011227785770246451
2167 -0.019983891700201966 -0.009628642018381815 0.00609565100360011
2580 0.0035155207558988416 0.0024295217182716995 -0.00563962902410094
1417 -0.015693617289980276 -0.027397894152640122 0.018106080098389276
1423 0.0014587422672118734 -0.00211432393695667 0.007846971003690513
2166 -0.00736621663801609 0.023667765318544774 -0.013517980635362737
2329 0.006844400034468366 0.0236083214445211 0.0025967991501169682
802 -0.013101309372195181 0.011873652565664323 -0.013782247598944154
1936 0.0020528810254515552 -1.9976024995712866e-05 -0.0007400670929342921
2165 0.004246291208002864 0.002424510297180426 0.0019468534024189878
1941 0.02711173914334927 0.01807708018408379 -0.007744482028465459
1947 0.0080576134948231 -0.0033772090437658633 0.0007296389703889652
1937 0.0042144749800935724 0.0024802654528951144 -0.0005425603233130653
1412 0.004919009598070099 0.0011541482957189454 0.0038563410351702587
800 -0.0076694231159138305 -0.0015108866986252073 -0.0035465542991678094
1422 -0.010997445487146405 0.013395900991480813 -0.008973962698448957
1418 0.001051143586375055 -0.00025023943445179195 0.0019449764802112217
1414 0.0014219333622660561 -0.004757591870541438 -0.0010111164020926077
1411 0.003423999474899607 -0.0021987851474837557 0.004399577900152439
2173 0.036423974503378746 -0.017105248749035393 -0.004054040734538057
2606 -0.004527733967621135 -0.0031398659822213983 0.00953012617092102
1043 0.009180956657558225 0.0033306806521996106 -0.005043515979806513
1044 -0.0037872245639470068 0.002653844453912805 0.03786281717572006
2765 0.00858702324353519 -0.00277917892531143 -0.0030047990646885937
1038 0.004131899599186108 -0.0034417972942040894 0.003895506776386723
682 0.0031977278416261867 -0.001484639287579621 0.005747428975174439
2769 0.03421260805148854 0.01218970577661858 0.0007614000359838706
1037 0.005273780908837227 0.000442632423777249 -0.0031113945585049046
2607 -0.005009309296464784 0.013809583334348735 -0.04134228389505085
1048 0.001003691058656759 0.002005249124350052 0.009704226714234074
1485 -0.01720491359953369 0.028890101488441244 0.0018833008644918115
805 -0.0006452008123421541 -0.006094440799815092 0.003386100212651726
2605 -0.0015063711886551404 0.0015178344451895873 0.0028838681271305022
2579 0.005319613380585599 0.0008068167369189843 0.0013554998523101257
2578 -0.016162389514920134 0.0032109148087066104 0.0008524524779829217
1939 0.002518267608902041 -0.0010368489927897332 -0.011201078206841759
2766 -0.014085314020592087 -0.005202586224367088 -0.0031637934265724152
1042 0.004276126533746394 0.012965682188943088 0.04012752967460969
1039 0.0010524924435011173 0.0008585064940051541 -0.007298162605672291
116 -0.013735964738926033 -0.0032407687955911205 -0.0007679454199658697
1041 0.00011407658033267446 0.01879014921106243 -0.0003595293205948995
694 0.011215617806977515 0.002784417896237166 -0.028961896520341122
688 0.012036383667973253 -0.00011296169808868071 -0.005064474488246076
2871 -0.01473978627068633 -0.00017656099910877255 -0.026879198060636402
689 -0.006511769350749848 0.00021474662965561354 -0.004137849994565412
690 -0.00940407524590752 -0.026066686068025965 0.002734939677464358
110 0.002620688684006189 0.005739895384946623 -0.0018237416875869178
1040 -0.007064152306807135 0.0021322317132958088 0.00816915326417751
2510 0.0016004746146818377 8.84938025808019e-05 -0.0010569382059919842
1036 -0.003148730620012108 7.876521217175407e-05 0.0027140117519438164
684 -0.02629730983461234 -0.009353472537039184 0.004105232463315775
810 -0.01646020374700926 -0.027432074629981387 -0.0016422774795558184
2509 0.04216188951882166 -0.004041120896363815 -0.011980432572641732
2511 -0.0002067183955700924 0.006775863104503597 0.0020804200765715698
2764 0.01225404391840495 -0.006717555063479763 -0.03388601293291671
111 0.001150473663482491 0.0008981436156261113 -0.001967612520565672

Bonds

1 3 952 949
2 3 955 952
3 4 960 955
4 3 949 946
5 4 959 955
6 4 953 949
7 4 956 952
8 4 958 955
9 4 954 949
10 4 957 952
11 3 946 943
12 4 951 946
13 4 983 980
14 4 2081 2077
15 4 1928 1924
16 4 1528 1524
17 4 984 980
18 3 980 977
19 4 985 980
20 3 1480 1477
21 4 1483 1480
22 3 1924 1921
23 4 1534 1530
24 4 1907 1902
25 4 1931 1927
26 3 1927 1924
27 4 1932 1927
28 4 1532 1527
29 4 1533 1530
30 3 1530 1527
31 4 1535 1530
32 3 1527 1524
33 3 1524 1521
34 4 1531 1527
35 4 1529 1524
36 4 1276 1271
37 3 1277 1274
38 4 1282 1277
39 4 1281 1277
40 4 1507 1502
41 4 1278 1274
42 3 1271 1268
43 3 1274 1271
44 3 1280 1277
45 4 1283 1280
46 4 1525 1521
47 4 1526 1521
48 3 1521 1518
49 3 1902 1899
50 4 1273 1268
51 4 1279 1274
52 4 1275 1271
53 4 1272 1268
54 3 1268 1265
55 4 1270 1265
56 4 1269 1265
57 3 1265 1262
58 4 1651 1646
59 3 1646 1643
60 4 1650 1646
61 4 1656 1652
62 4 1644 1640
63 3 233 230
64 4 66 63
65 4 1800 1796
66 4 236 233
67 4 238 233
68 4 231 227
69 4 1267 1262
70 5 1262 1261
71 6 1263 1261
72 4 1285 1280
73 4 255 250
74 3 227 223
75 4 727 723
76 4 237 233
77 3 1643 1640
78 4 1647 1643
79 3 1640 1637
80 4 1645 1640
81 4 1648 1643
82 4 1641 1637
83 4 1642 1637
84 5 1637 1636
85 3 2305 2302
86 7 2399 2398
87 6 1638 1636
88 6 1639 1636
89 4 2310 2305
90 3 230 227
91 2 20 18
92 7 2400 2399
93 4 235 230
94 4 2309 2305
95 4 2306 2302
96 2 225 222
97 4 2308 2305
98 7 2789 2788
99 4 527 522
100 4 969 965
101 2 241 239
102 4 16 12
103 3 1796 1793
104 4 1801 1796
105 4 234 230
106 4 950 946
107 4 27 23
108 3 977 974
109 4 982 977
110 4 978 974
111 3 23 19
112 4 33 29
113 4 32 29
114 4 34 29
115 3 29 26
116 3 26 23
117 4 30 26
118 3 974 971
119 4 28 23
120 3 971 968
121 4 31 26
122 4 816 811
123 3 811 808
124 4 947 943
125 4 611 607
126 4 814 811
127 4 976 971
128 4 1481 1477
129 3 1477 1474
130 4 1482 1477
131 4 813 808
132 3 808 805
133 4 981 977
134 4 610 607
135 4 815 811
136 4 2085 2080
137 4 1628 1624
138 4 1634 1630
139 7 2783 2782
140 7 2784 2783
141 4 1629 1624
142 3 1627 1624
143 4 355 352
144 3 1624 1621
145 4 1632 1627
146 2 650 647
147 3 352 349
148 4 356 352
149 4 2082 2077
150 3 2071 2068
151 3 2065 2062
152 3 1630 1627
153 4 1633 1630
154 4 1623 1618
155 4 2084 2080
156 3 2077 2074
157 4 1635 1630
158 4 2070 2065
159 4 1631 1627
160 4 2076 2071
161 3 2080 2077
162 3 2074 2071
163 3 2068 2065
164 4 1622 1618
165 2 651 647
166 7 2919 2918
167 2 649 647
168 7 2918 2917
169 4 1906 1902
170 4 2075 2071
171 4 1233 1230
172 6 2188 2186
173 4 1234 1230
174 4 1235 1230
175 3 1230 1227
176 3 1215 1212
177 3 1618 1615
178 3 1621 1618
179 4 1626 1621
180 4 1625 1621
181 4 1225 1221
182 3 1227 1224
183 3 1224 1221
184 4 1231 1227
185 4 1232 1227
186 3 1221 1218
187 4 1229 1224
188 4 1228 1224
189 4 1226 1221
190 4 2192 2187
191 5 2187 2186
192 3 1218 1215
193 3 2190 2187
194 4 2194 2190
195 4 2191 2187
196 4 1910 1905
197 4 1220 1215
198 4 1620 1615
199 4 595 590
200 3 1905 1902
201 4 1223 1218
202 4 593 590
203 4 64 60
204 4 1222 1218
205 4 1266 1262
206 2 71 69
207 1 70 69
208 4 75 70
209 4 79 74
210 2 72 69
211 3 74 70
212 3 77 74
213 4 78 74
214 6 1264 1261
215 2 73 69
216 4 81 77
217 4 82 77
218 6 1738 1736
219 4 1742 1737
220 4 1806 1802
221 4 1810 1805
222 4 518 512
223 4 76 70
224 3 80 77
225 4 84 80
226 4 1804 1799
227 6 1213 1211
228 4 83 80
229 4 1807 1802
230 2 515 511
231 4 1809 1805
232 3 1805 1802
233 3 1802 1799
234 3 2302 2299
235 4 1808 1805
236 3 1799 1796
237 2 514 511
238 4 526 522
239 1 512 511
240 3 522 519
241 3 516 512
242 4 2297 2293
243 7 2336 2335
244 4 520 516
245 3 2299 2296
246 4 2303 2299
247 4 1741 1737
248 7 2337 2336
249 4 2304 2299
250 3 2293 2290
251 3 519 516
252 4 524 519
253 3 2296 2293
254 2 513 511
255 7 2795 2794
256 4 521 516
257 7 2796 2795
258 4 2298 2293
259 4 2300 2296
260 5 1737 1736
261 4 1803 1799
262 6 1739 1736
263 4 525 522
264 4 2083 2080
265 4 979 974
266 4 2301 2296
267 4 970 965
268 4 2307 2302
269 4 357 352
270 3 968 965
271 4 972 968
272 4 508 505
273 4 2078 2074
274 4 2072 2068
275 4 509 505
276 4 510 505
277 4 503 499
278 3 505 502
279 3 502 499
280 4 507 502
281 4 506 502
282 4 504 499
283 3 499 495
284 7 2922 2921
285 7 2921 2920
286 3 965 962
287 7 2711 2710
288 7 2712 2711
289 4 973 968
290 7 2576 2575
291 4 1670 1665
292 4 654 648
293 4 653 648
294 1 648 647
295 6 1663 1661
296 4 1666 1662
297 3 652 648
298 4 657 652
299 4 656 652
300 4 659 655
301 5 1662 1661
302 6 1664 1661
303 3 839 835
304 4 843 839
305 4 660 655
306 3 655 652
307 4 844 839
308 4 1667 1662
309 3 658 655
310 4 661 658
311 4 663 658
312 3 1665 1662
313 4 662 658
314 4 2200 2196
315 4 2201 2196
316 4 1619 1615
317 3 1615 1612
318 4 2198 2193
319 6 1613 1611
320 2 362 358
321 3 2193 2190
322 4 2197 2193
323 4 1616 1612
324 4 2203 2199
325 3 2196 2193
326 5 1612 1611
327 4 1617 1612
328 4 367 363
329 3 2199 2196
330 3 369 366
331 4 372 369
332 4 544 539
333 4 2204 2199
334 4 543 539
335 4 538 533
336 3 539 536
337 6 1614 1611
338 4 2207 2202
339 4 2210 2205
340 3 2202 2199
341 4 2209 2205
342 4 1747 1743
343 4 2206 2202
344 4 2208 2205
345 7 2586 2585
346 3 2205 2202
347 4 1754 1749
348 7 2585 2584
349 3 1743 1740
350 7 2616 2615
351 4 1019 1015
352 4 1020 1015
353 3 1746 1743
354 3 1749 1746
355 4 1748 1743
356 7 2615 2614
357 4 1750 1746
358 3 1015 1012
359 4 1758 1755
360 4 1756 1752
361 2 633 630
362 4 540 536
363 4 636 631
364 4 405 400
365 6 1013 1011
366 2 632 630
367 3 1740 1737
368 6 2289 2286
369 4 1744 1740
370 6 1014 1011
371 2 395 392
372 1 393 392
373 2 394 392
374 2 396 392
375 4 398 393
376 4 399 393
377 4 402 397
378 3 397 393
379 7 2520 2519
380 4 401 397
381 3 400 397
382 4 404 400
383 7 2388 2387
384 7 2519 2518
385 4 640 635
386 5 1012 1011
387 7 2904 2903
388 2 634 630
389 4 1017 1012
390 7 2903 2902
391 3 635 631
392 1 631 630
393 4 639 635
394 7 2387 2386
395 4 407 403
396 1 495 494
397 4 501 495
398 4 408 403
399 2 837 834
400 4 500 495
401 3 403 400
402 2 497 494
403 2 496 494
404 6 2064 2061
405 2 498 494
406 2 838 834
407 7 2681 2680
408 7 2816 2815
409 7 2817 2816
410 7 2708 2707
411 2 836 834
412 4 840 835
413 1 835 834
414 7 2682 2681
415 7 2709 2708
416 4 406 403
417 4 841 835
418 7 2915 2914
419 7 2916 2915
420 4 1672 1668
421 7 2807 2806
422 7 2825 2824
423 7 2414 2413
424 7 2826 2825
425 7 2415 2414
426 7 2808 2807
427 7 2600 2599
428 7 2601 2600
429 4 424 420
430 3 420 417
431 7 2498 2497
432 7 2486 2485
433 4 423 420
434 4 1673 1668
435 3 1668 1665
436 3 363 359
437 4 373 369
438 4 371 366
439 3 366 363
440 4 374 369
441 4 368 363
442 2 360 358
443 4 365 359
444 1 359 358
445 4 370 366
446 7 2382 2381
447 4 364 359
448 7 2381 2380
449 2 378 375
450 7 2696 2695
451 7 2697 2696
452 7 2645 2644
453 6 1763 1761
454 7 2864 2863
455 2 379 375
456 7 2646 2645
457 7 2354 2353
458 7 2355 2354
459 7 2865 2864
460 2 361 358
461 7 2760 2759
462 7 2583 2582
463 7 2582 2581
464 4 1022 1018
465 3 1018 1015
466 4 1026 1021
467 4 1028 1024
468 4 1032 1027
469 3 1027 1024
470 3 1021 1018
471 4 1025 1021
472 3 1024 1021
473 4 1031 1027
474 4 1029 1024
475 4 1023 1018
476 3 1030 1027
477 4 1034 1030
478 4 1035 1030
479 4 1033 1030
480 4 1772 1768
481 4 646 641
482 4 491 488
483 4 1016 1012
484 4 493 488
485 4 492 488
486 4 151 148
487 3 488 485
488 6 1314 1311
489 4 489 485
490 3 485 482
491 5 1312 1311
492 7 2349 2348
493 4 490 485
494 3 1315 1312
495 4 1317 1312
496 3 482 478
497 4 487 482
498 7 2348 2347
499 4 483 478
500 4 484 478
501 1 478 477
502 4 486 482
503 4 1319 1315
504 4 1316 1312
505 7 2750 2749
506 4 642 638
507 7 2751 2750
508 7 2723 2722
509 6 1313 1311
510 7 2894 2893
511 7 2499 2498
512 4 1320 1315
513 7 2724 2723
514 7 2357 2356
515 7 2487 2486
516 4 421 417
517 3 417 414
518 7 2358 2357
519 4 419 414
520 2 413 409
521 2 411 409
522 1 410 409
523 3 414 410
524 4 415 410
525 4 416 410
526 2 412 409
527 6 1089 1086
528 4 422 417
529 4 418 414
530 4 112 108
531 2 105 103
532 4 1322 1318
533 6 1088 1086
534 4 1092 1087
535 5 1087 1086
536 4 425 420
537 7 2792 2791
538 3 114 111
539 7 2748 2747
540 4 119 114
541 7 2453 2452
542 7 2793 2792
543 7 2454 2453
544 6 1514 1511
545 4 1484 1480
546 4 739 733
547 4 1522 1518
548 4 117 114
549 4 382 376
550 4 1767 1762
551 5 1762 1761
552 7 2747 2746
553 4 384 380
554 4 1766 1762
555 4 1978 1974
556 1 376 375
557 4 1984 1980
558 4 1985 1980
559 6 1513 1511
560 3 1980 1977
561 4 1284 1280
562 4 1520 1515
563 3 1518 1515
564 4 1523 1518
565 4 1519 1515
566 3 380 376
567 4 385 380
568 4 1516 1512
569 5 1512 1511
570 3 1515 1512
571 4 1517 1512
572 3 383 380
573 4 387 383
574 4 391 386
575 4 1983 1980
576 3 386 383
577 4 390 386
578 4 388 383
579 4 389 386
580 7 2346 2345
581 4 1654 1649
582 3 1652 1649
583 4 1657 1652
584 3 1649 1646
585 4 246 240
586 4 1879 1874
587 4 1659 1655
588 4 1653 1649
589 4 1870 1865
590 4 1878 1874
591 3 1865 1862
592 4 1872 1868
593 3 1868 1865
594 4 1873 1868
595 3 1655 1652
596 3 1874 1871
597 3 1871 1868
598 4 1660 1655
599 4 1867 1862
600 4 1658 1655
601 4 1770 1765
602 4 1869 1865
603 5 1862 1861
604 3 1765 1762
605 2 226 222
606 6 1413 1411
607 7 2667 2666
608 4 1866 1862
609 7 2715 2714
610 4 807 801
611 7 2666 2665
612 6 1863 1861
613 2 21 18
614 7 2714 2713
615 2 479 477
616 2 480 477
617 7 2741 2740
618 7 2742 2741
619 6 1864 1861
620 7 2561 2560
621 2 481 477
622 2 243 239
623 1 801 800
624 4 806 801
625 2 22 18
626 7 2562 2561
627 4 1419 1415
628 1 104 103
629 3 108 104
630 1 19 18
631 4 1326 1321
632 4 113 108
633 4 1479 1474
634 3 1474 1471
635 4 1478 1474
636 4 24 19
637 4 744 740
638 6 1464 1461
639 2 106 103
640 4 1467 1462
641 4 812 808
642 4 1476 1471
643 6 1463 1461
644 4 1475 1471
645 3 1471 1468
646 4 1466 1462
647 4 1470 1465
648 4 1472 1468
649 5 1462 1461
650 4 1469 1465
651 3 1465 1462
652 3 1468 1465
653 4 1473 1468
654 4 745 740
655 3 740 737
656 4 109 104
657 2 107 103
658 4 115 111
659 4 934 930
660 3 1349 1346
661 4 1359 1355
662 3 1343 1340
663 4 1347 1343
664 4 935 930
665 3 1346 1343
666 4 1901 1896
667 3 1355 1352
668 4 1900 1896
669 3 1896 1893
670 4 1898 1893
671 3 1893 1890
672 3 1890 1887
673 4 1895 1890
674 4 1894 1890
675 5 1887 1886
676 4 1892 1887
677 4 1891 1887
678 4 929 924
679 4 945 940
680 3 924 920
681 4 944 940
682 3 940 937
683 4 1897 1893
684 3 1899 1896
685 4 1904 1899
686 4 1404 1399
687 3 927 924
688 2 922 919
689 4 1353 1349
690 4 1360 1355
691 4 1351 1346
692 4 1357 1352
693 4 1903 1899
694 4 1508 1505
695 3 1502 1499
696 4 1500 1496
697 3 1493 1490
698 3 1496 1493
699 4 1501 1496
700 4 1503 1499
701 3 1499 1496
702 4 1504 1499
703 4 1498 1493
704 4 1494 1490
705 3 1490 1487
706 4 1495 1490
707 4 1510 1505
708 3 1505 1502
709 4 1497 1493
710 7 2366 2365
711 7 2625 2624
712 3 1352 1349
713 4 1506 1502
714 7 2367 2366
715 4 1509 1505
716 4 1356 1352
717 4 1350 1346
718 4 65 60
719 3 63 60
720 4 1842 1837
721 4 68 63
722 4 45 40
723 4 51 46
724 4 41 36
725 4 50 46
726 4 49 46
727 4 47 43
728 4 48 43
729 3 46 43
730 3 43 40
731 3 40 36
732 4 251 247
733 3 247 244
734 4 253 250
735 3 250 247
736 4 254 250
737 4 252 247
738 4 1791 1787
739 4 1844 1840
740 5 1837 1836
741 4 44 40
742 4 1881 1877
743 4 826 822
744 4 2156 2152
745 4 1794 1790
746 4 15 12
747 4 1795 1790
748 3 244 240
749 3 1790 1787
750 4 248 244
751 5 1787 1786
752 4 1792 1787
753 4 13 9
754 3 12 9
755 3 9 6
756 4 14 9
757 4 2148 2143
758 6 1788 1786
759 4 249 244
760 4 2141 2137
761 4 824 818
762 3 6 2
763 4 7 2
764 4 11 6
765 2 820 817
766 4 17 12
767 2 819 817
768 4 2142 2137
769 4 25 19
770 3 943 940
771 4 941 937
772 1 920 919
773 4 928 924
774 4 948 943
775 4 942 937
776 5 937 936
777 1 2 1
778 4 10 6
779 4 8 2
780 2 921 919
781 2 3 1
782 2 4 1
783 2 5 1
784 7 2699 2698
785 6 938 936
786 6 939 936
787 7 2744 2743
788 4 612 607
789 7 2700 2699
790 7 2745 2744
791 4 1398 1393
792 3 607 604
793 6 1389 1386
794 4 926 920
795 4 1391 1387
796 4 2157 2152
797 5 1387 1386
798 4 932 927
799 4 1341 1337
800 5 1337 1336
801 4 1408 1405
802 4 2069 2065
803 4 1400 1396
804 4 1407 1402
805 7 2777 2776
806 4 1406 1402
807 7 2778 2777
808 4 1409 1405
809 3 1402 1399
810 4 1410 1405
811 3 1405 1402
812 7 2505 2504
813 6 1339 1336
814 4 178 172
815 7 2504 2503
816 4 180 176
817 3 1399 1396
818 7 2907 2906
819 2 173 171
820 3 176 172
821 3 1340 1337
822 4 1345 1340
823 1 172 171
824 4 2079 2074
825 7 2949 2948
826 7 2424 2423
827 6 1338 1336
828 4 1344 1340
829 4 2195 2190
830 4 1908 1905
831 4 1909 1905
832 4 790 784
833 4 1492 1487
834 5 1487 1486
835 4 1491 1487
836 6 2189 2186
837 4 58 53
838 7 2862 2861
839 7 2861 2860
840 4 59 53
841 1 53 52
842 2 785 783
843 2 54 52
844 2 56 52
845 2 55 52
846 6 1488 1486
847 6 1489 1486
848 7 2906 2905
849 1 784 783
850 2 787 783
851 2 548 545
852 2 549 545
853 6 989 986
854 2 37 35
855 4 789 784
856 2 786 783
857 2 547 545
858 7 2427 2426
859 2 768 766
860 3 60 57
861 4 67 63
862 7 2430 2429
863 1 36 35
864 3 57 53
865 6 988 986
866 4 42 36
867 4 795 791
868 4 61 57
869 2 38 35
870 4 85 80
871 4 62 57
872 2 39 35
873 7 2726 2725
874 7 2900 2899
875 7 2727 2726
876 7 2901 2900
877 6 2114 2111
878 4 2116 2112
879 5 2112 2111
880 4 2117 2112
881 4 1798 1793
882 3 791 788
883 7 2408 2407
884 4 2295 2290
885 1 767 766
886 2 821 817
887 2 770 766
888 7 2459 2458
889 3 1793 1790
890 6 2113 2111
891 4 2291 2287
892 4 1797 1793
893 3 2290 2287
894 2 769 766
895 7 2694 2693
896 7 2693 2692
897 6 1789 1786
898 7 2961 2960
899 7 2478 2477
900 7 2477 2476
901 7 2718 2717
902 7 2717 2716
903 7 2543 2542
904 4 2294 2290
905 7 2960 2959
906 5 2287 2286
907 2 599 596
908 7 2544 2543
909 4 2292 2287
910 4 772 767
911 4 1395 1390
912 7 2376 2375
913 4 1401 1396
914 3 1396 1393
915 4 1403 1399
916 4 183 179
917 4 2073 2068
918 3 1393 1390
919 4 1397 1393
920 2 598 596
921 4 184 179
922 3 179 176
923 4 609 604
924 2 600 596
925 4 608 604
926 4 606 601
927 4 605 601
928 4 602 597
929 4 603 597
930 1 597 596
931 3 601 597
932 3 604 601
933 6 1388 1386
934 7 2396 2395
935 7 2397 2396
936 4 186 182
937 7 2813 2812
938 7 2327 2326
939 7 2328 2327
940 7 2460 2459
941 3 1390 1387
942 4 181 176
943 2 174 171
944 7 2840 2839
945 3 842 839
946 7 2841 2840
947 4 848 845
948 3 845 842
949 2 175 171
950 7 2948 2947
951 7 2556 2555
952 7 2555 2554
953 4 850 845
954 4 866 862
955 4 177 172
956 3 862 859
957 4 867 862
958 4 558 553
959 4 865 862
960 4 849 845
961 4 846 842
962 7 2423 2422
963 4 2067 2062
964 4 847 842
965 6 1063 1061
966 4 561 556
967 3 556 553
968 4 559 556
969 3 788 784
970 4 554 550
971 4 560 556
972 3 553 550
973 7 2969 2968
974 4 552 546
975 4 557 553
976 7 2970 2969
977 5 1062 1061
978 4 551 546
979 1 546 545
980 3 550 546
981 4 555 550
982 4 994 990
983 4 1000 996
984 3 996 993
985 4 1067 1062
986 4 1066 1062
987 4 1001 996
988 3 990 987
989 4 995 990
990 3 993 990
991 5 987 986
992 4 792 788
993 3 1065 1062
994 7 2588 2587
995 7 2589 2588
996 4 1753 1749
997 3 1755 1752
998 3 1752 1749
999 3 794 791
1000 4 793 788
1001 4 997 993
1002 4 1759 1755
1003 4 2119 2115
1004 3 2115 2112
1005 4 2120 2115
1006 4 798 794
1007 4 991 987
1008 4 998 993
1009 4 1751 1746
1010 4 1757 1752
1011 4 992 987
1012 3 2118 2115
1013 3 2121 2118
1014 4 2125 2121
1015 3 2124 2121
1016 4 2123 2118
1017 4 2126 2121
1018 4 2122 2118
1019 4 2129 2124
1020 4 2131 2127
1021 3 2127 2124
1022 4 2132 2127
1023 4 2128 2124
1024 4 776 771
1025 4 2133 2130
1026 4 799 794
1027 3 771 767
1028 4 1745 1740
1029 7 2531 2530
1030 6 2288 2286
1031 7 2883 2882
1032 4 438 434
1033 4 1375 1371
1034 3 1371 1368
1035 7 2882 2881
1036 4 433 427
1037 2 429 426
1038 2 428 426
1039 7 2657 2656
1040 4 435 431
1041 3 431 427
1042 7 2658 2657
1043 2 430 426
1044 1 427 426
1045 4 432 427
1046 6 1364 1361
1047 7 2448 2447
1048 7 2447 2446
1049 4 436 431
1050 7 2613 2612
1051 3 434 431
1052 7 2532 2531
1053 7 2612 2611
1054 4 2220 2215
1055 6 2063 2061
1056 3 182 179
1057 4 864 859
1058 6 2213 2211
1059 7 2940 2939
1060 7 2939 2938
1061 5 2062 2061
1062 7 2802 2801
1063 5 2212 2211
1064 7 2814 2813
1065 4 2066 2062
1066 4 187 182
1067 4 185 182
1068 7 2801 2800
1069 3 859 856
1070 4 2217 2212
1071 6 2214 2211
1072 2 855 851
1073 2 854 851
1074 3 856 852
1075 1 852 851
1076 4 861 856
1077 4 860 856
1078 2 853 851
1079 4 863 859
1080 4 2216 2212
1081 3 159 155
1082 4 163 159
1083 4 1578 1574
1084 4 167 162
1085 1 155 154
1086 2 156 154
1087 4 1579 1574
1088 4 1572 1568
1089 3 1574 1571
1090 4 1576 1571
1091 3 1571 1568
1092 4 1575 1571
1093 3 1568 1565
1094 4 1573 1568
1095 3 1577 1574
1096 4 161 155
1097 2 158 154
1098 4 160 155
1099 4 1581 1577
1100 4 1570 1565
1101 3 1565 1562
1102 4 1569 1565
1103 7 2831 2830
1104 2 157 154
1105 4 1075 1071
1106 4 1073 1068
1107 4 899 896
1108 3 999 996
1109 4 1069 1065
1110 4 1070 1065
1111 4 1003 999
1112 4 1004 999
1113 3 1068 1065
1114 4 1583 1580
1115 4 1072 1068
1116 4 1582 1577
1117 7 2832 2831
1118 3 896 893
1119 4 900 896
1120 4 898 893
1121 4 1585 1580
1122 4 1076 1071
1123 3 1071 1068
1124 7 2759 2758
1125 4 1584 1580
1126 3 1580 1577
1127 4 1007 1002
1128 3 1002 999
1129 3 1005 1002
1130 4 1006 1002
1131 4 1010 1005
1132 4 1082 1077
1133 4 1009 1005
1134 4 1008 1005
1135 7 2655 2654
1136 7 2654 2653
1137 4 1081 1077
1138 3 1077 1074
1139 3 893 890
1140 4 2103 2099
1141 4 442 437
1142 3 2130 2127
1143 4 1078 1074
1144 3 1074 1071
1145 4 1773 1768
1146 4 1083 1080
1147 4 2135 2130
1148 4 1760 1755
1149 4 1779 1774
1150 3 1768 1765
1151 3 1080 1077
1152 4 2134 2130
1153 4 1085 1080
1154 4 1778 1774
1155 4 1079 1074
1156 4 1784 1780
1157 3 1777 1774
1158 4 1783 1780
1159 3 1774 1771
1160 3 1780 1777
1161 4 1785 1780
1162 3 1771 1768
1163 4 1776 1771
1164 4 1782 1777
1165 4 1781 1777
1166 4 2108 2105
1167 4 1376 1371
1168 4 1369 1365
1169 4 1373 1368
1170 4 441 437
1171 3 437 434
1172 4 440 437
1173 4 153 148
1174 4 147 142
1175 3 148 145
1176 4 149 145
1177 4 439 434
1178 4 152 148
1179 4 1372 1368
1180 3 1368 1365
1181 3 1365 1362
1182 3 145 142
1183 4 1370 1365
1184 4 150 145
1185 4 146 142
1186 4 1366 1362
1187 5 1362 1361
1188 4 1367 1362
1189 6 1989 1986
1190 4 313 308
1191 4 1991 1987
1192 7 2849 2848
1193 4 1335 1330
1194 4 857 852
1195 4 858 852
1196 3 1318 1315
1197 4 1323 1318
1198 4 316 312
1199 3 1321 1318
1200 7 2895 2894
1201 6 1363 1361
1202 2 310 307
1203 4 1333 1330
1204 7 2643 2642
1205 4 317 312
1206 7 2850 2849
1207 4 1328 1324
1208 4 1567 1562
1209 5 1562 1561
1210 4 1566 1562
1211 3 1324 1321
1212 3 312 308
1213 2 309 307
1214 7 2642 2641
1215 1 308 307
1216 7 2604 2603
1217 4 314 308
1218 7 2603 2602
1219 6 1564 1561
1220 2 311 307
1221 6 1563 1561
1222 4 1329 1324
1223 7 2880 2879
1224 7 2804 2803
1225 4 738 733
1226 4 925 920
1227 3 737 733
1228 4 742 737
1229 7 2963 2962
1230 7 2964 2963
1231 7 2379 2378
1232 7 2805 2804
1233 4 741 737
1234 6 1888 1886
1235 7 2385 2384
1236 7 2384 2383
1237 7 2507 2506
1238 7 2508 2507
1239 7 2378 2377
1240 1 733 732
1241 2 736 732
1242 6 1889 1886
1243 2 735 732
1244 7 2432 2431
1245 2 734 732
1246 7 2574 2573
1247 7 2433 2432
1248 7 2573 2572
1249 7 2888 2887
1250 7 2889 2888
1251 7 2624 2623
1252 4 894 890
1253 7 2811 2810
1254 7 2810 2809
1255 4 1883 1880
1256 7 2879 2878
1257 4 892 886
1258 7 2345 2344
1259 6 1764 1761
1260 7 2661 2660
1261 7 2660 2659
1262 7 2937 2936
1263 7 2936 2935
1264 7 2924 2923
1265 4 1769 1765
1266 7 2925 2924
1267 4 2097 2093
1268 4 1876 1871
1269 4 1847 1843
1270 4 1845 1840
1271 3 1840 1837
1272 4 2091 2087
1273 4 1851 1846
1274 4 1084 1080
1275 4 1875 1871
1276 4 1775 1771
1277 4 1885 1880
1278 3 1880 1877
1279 4 1884 1880
1280 3 1877 1874
1281 4 2009 2005
1282 4 1882 1877
1283 3 2005 2002
1284 3 2002 1999
1285 4 2010 2005
1286 4 2008 2005
1287 4 2006 2002
1288 4 2007 2002
1289 4 2000 1996
1290 4 245 240
1291 3 1999 1996
1292 4 2004 1999
1293 3 2143 2140
1294 4 2147 2143
1295 4 2145 2140
1296 3 142 138
1297 4 1992 1987
1298 4 2151 2146
1299 1 240 239
1300 2 140 137
1301 5 1987 1986
1302 4 1998 1993
1303 4 2003 1999
1304 4 144 138
1305 2 242 239
1306 5 2137 2136
1307 1 138 137
1308 6 2138 2136
1309 4 1994 1990
1310 2 139 137
1311 4 143 138
1312 3 1990 1987
1313 4 2144 2140
1314 6 1988 1986
1315 4 1995 1990
1316 2 141 137
1317 4 1997 1993
1318 4 2001 1996
1319 6 2139 2136
1320 3 2146 2143
1321 3 1996 1993
1322 3 1993 1990
1323 3 2140 2137
1324 7 2622 2621
1325 3 1540 1537
1326 4 1542 1537
1327 4 1331 1327
1328 4 1541 1537
1329 7 2495 2494
1330 7 2910 2909
1331 4 748 743
1332 4 746 743
1333 4 1334 1330
1334 7 2621 2620
1335 3 743 740
1336 4 1547 1543
1337 7 2496 2495
1338 6 1538 1536
1339 4 747 743
1340 5 1537 1536
1341 7 2630 2629
1342 4 1545 1540
1343 6 1539 1536
1344 3 1327 1324
1345 3 1330 1327
1346 4 1325 1321
1347 7 2631 2630
1348 4 1332 1327
1349 2 923 919
1350 7 2909 2908
1351 4 2150 2146
1352 4 449 444
1353 7 2954 2953
1354 3 2030 2027
1355 3 2027 2024
1356 4 2034 2030
1357 4 2032 2027
1358 4 2031 2027
1359 7 2955 2954
1360 7 2676 2675
1361 4 2033 2030
1362 3 451 448
1363 4 933 930
1364 4 2035 2030
1365 3 2024 2021
1366 4 456 451
1367 4 2029 2024
1368 4 1358 1355
1369 4 1354 1349
1370 4 1348 1343
1371 3 2021 2018
1372 4 1248 1243
1373 4 1245 1240
1374 3 930 927
1375 4 459 454
1376 4 710 706
1377 7 2774 2773
1378 7 2873 2872
1379 7 2775 2774
1380 7 2619 2618
1381 7 2618 2617
1382 7 2402 2401
1383 4 569 563
1384 7 2552 2551
1385 7 2553 2552
1386 7 2403 2402
1387 2 566 562
1388 1 563 562
1389 7 2393 2392
1390 4 1244 1240
1391 7 2502 2501
1392 7 2501 2500
1393 4 1241 1237
1394 3 1240 1237
1395 7 2394 2393
1396 7 2874 2873
1397 6 1838 1836
1398 7 2558 2557
1399 4 568 563
1400 2 564 562
1401 2 565 562
1402 6 1839 1836
1403 7 2526 2525
1404 7 2525 2524
1405 7 2609 2608
1406 4 572 567
1407 7 2610 2609
1408 4 759 754
1409 7 2931 2930
1410 7 2930 2929
1411 7 2732 2731
1412 3 757 754
1413 3 760 757
1414 4 763 760
1415 4 764 760
1416 3 567 563
1417 3 754 750
1418 4 761 757
1419 4 1119 1115
1420 4 1841 1837
1421 4 571 567
1422 4 1850 1846
1423 4 831 828
1424 4 832 828
1425 3 2277 2274
1426 4 2282 2277
1427 4 2281 2277
1428 3 825 822
1429 4 829 825
1430 3 2274 2271
1431 4 2279 2274
1432 3 828 825
1433 3 2280 2277
1434 4 2278 2274
1435 4 2285 2280
1436 4 2283 2280
1437 4 2284 2280
1438 4 823 818
1439 4 2159 2155
1440 4 2275 2271
1441 3 2271 2268
1442 4 833 828
1443 4 1134 1130
1444 4 827 822
1445 4 830 825
1446 4 1856 1852
1447 3 822 818
1448 3 1852 1849
1449 4 1859 1855
1450 4 1128 1124
1451 1 818 817
1452 4 2028 2024
1453 4 931 927
1454 3 2152 2149
1455 4 2276 2271
1456 3 2149 2146
1457 4 455 451
1458 4 2160 2155
1459 3 2155 2152
1460 4 2158 2155
1461 4 2273 2268
1462 3 2268 2265
1463 4 2272 2268
1464 3 2265 2262
1465 4 2267 2262
1466 4 2270 2265
1467 5 2262 2261
1468 4 2266 2262
1469 4 693 689
1470 4 2269 2265
1471 4 1392 1387
1472 6 2264 2261
1473 4 697 692
1474 6 2263 2261
1475 3 448 444
1476 1 444 443
1477 4 1342 1337
1478 4 458 454
1479 3 454 451
1480 4 450 444
1481 2 446 443
1482 7 2679 2678
1483 7 2678 2677
1484 7 2828 2827
1485 6 1688 1686
1486 2 447 443
1487 7 2352 2351
1488 7 2351 2350
1489 3 199 196
1490 4 203 199
1491 5 1687 1686
1492 4 202 199
1493 4 457 454
1494 4 271 267
1495 4 204 199
1496 4 201 196
1497 7 2898 2897
1498 7 2897 2896
1499 4 270 267
1500 4 272 267
1501 3 267 264
1502 7 2829 2828
1503 4 1691 1687
1504 4 1692 1687
1505 7 2688 2687
1506 7 2426 2425
1507 7 2627 2626
1508 7 2516 2515
1509 7 2333 2332
1510 7 2517 2516
1511 7 2373 2372
1512 6 1589 1586
1513 6 1588 1586
1514 4 1591 1587
1515 5 1587 1586
1516 3 1593 1590
1517 7 2334 2333
1518 4 1597 1593
1519 4 1598 1593
1520 7 2466 2465
1521 4 269 264
1522 7 2372 2371
1523 7 2633 2632
1524 7 2628 2627
1525 3 1590 1587
1526 4 1592 1587
1527 7 2465 2464
1528 7 2316 2315
1529 7 2733 2732
1530 4 1594 1590
1531 7 2634 2633
1532 4 1595 1590
1533 6 1163 1161
1534 6 1164 1161
1535 4 1166 1162
1536 5 1162 1161
1537 4 1167 1162
1538 3 1165 1162
1539 3 1168 1165
1540 4 1169 1165
1541 4 1170 1165
1542 4 1172 1168
1543 7 2429 2428
1544 4 1126 1121
1545 7 2409 2408
1546 4 1173 1168
1547 4 775 771
1548 4 1123 1118
1549 4 796 791
1550 3 1171 1168
1551 4 1175 1171
1552 7 2535 2534
1553 4 1176 1171
1554 4 1135 1130
1555 4 1133 1130
1556 3 1130 1127
1557 4 773 767
1558 7 2534 2533
1559 4 1132 1127
1560 3 1127 1124
1561 7 2798 2797
1562 7 2799 2798
1563 7 2912 2911
1564 7 2913 2912
1565 7 2463 2462
1566 7 2462 2461
1567 4 2234 2230
1568 7 2340 2339
1569 7 2339 2338
1570 4 474 471
1571 4 1131 1127
1572 4 2233 2230
1573 4 1182 1177
1574 3 1121 1118
1575 3 1124 1121
1576 4 476 471
1577 7 2375 2374
1578 4 453 448
1579 4 1394 1390
1580 7 2369 2368
1581 2 445 443
1582 6 1689 1686
1583 4 452 448
1584 4 2235 2230
1585 4 340 335
1586 4 339 335
1587 4 338 335
1588 3 335 332
1589 4 333 329
1590 4 337 332
1591 4 336 332
1592 3 332 329
1593 4 334 329
1594 1 325 324
1595 4 330 325
1596 3 329 325
1597 4 331 325
1598 2 326 324
1599 2 328 324
1600 4 2229 2224
1601 3 2230 2227
1602 7 2370 2369
1603 6 1139 1136
1604 4 1141 1137
1605 5 1137 1136
1606 4 1148 1143
1607 3 1143 1140
1608 3 1140 1137
1609 3 1146 1143
1610 4 1144 1140
1611 4 1145 1140
1612 4 1147 1143
1613 4 1150 1146
1614 4 1142 1137
1615 6 1138 1136
1616 4 1151 1146
1617 3 1149 1146
1618 7 2652 2651
1619 3 1690 1687
1620 4 1695 1690
1621 4 1157 1152
1622 4 1154 1149
1623 4 1703 1699
1624 4 1709 1705
1625 4 1153 1149
1626 3 1152 1149
1627 4 1156 1152
1628 7 2687 2686
1629 6 1064 1061
1630 7 2651 2650
1631 4 268 264
1632 4 266 261
1633 3 264 261
1634 4 265 261
1635 2 258 256
1636 4 262 257
1637 2 260 256
1638 3 261 257
1639 1 257 256
1640 4 263 257
1641 2 259 256
1642 6 1814 1811
1643 7 2595 2594
1644 2 667 664
1645 7 2594 2593
1646 7 2550 2549
1647 2 668 664
1648 7 2549 2548
1649 3 1155 1152
1650 4 1160 1155
1651 4 1819 1815
1652 4 1159 1155
1653 4 781 777
1654 4 797 794
1655 4 671 665
1656 4 680 675
1657 1 665 664
1658 4 677 672
1659 4 673 669
1660 4 679 675
1661 4 676 672
1662 4 670 665
1663 2 666 664
1664 3 669 665
1665 3 672 669
1666 3 675 672
1667 4 674 669
1668 4 678 675
1669 7 2672 2671
1670 7 2640 2639
1671 4 780 777
1672 4 782 777
1673 7 2639 2638
1674 3 777 774
1675 7 2441 2440
1676 7 2442 2441
1677 4 1179 1174
1678 4 1178 1174
1679 3 774 771
1680 4 1181 1177
1681 3 1177 1174
1682 3 1174 1171
1683 4 1183 1180
1684 4 779 774
1685 3 1374 1371
1686 4 1381 1377
1687 3 1377 1374
1688 4 2231 2227
1689 4 1379 1374
1690 4 1185 1180
1691 3 1180 1177
1692 4 1184 1180
1693 4 1383 1380
1694 3 2227 2224
1695 3 1205 1202
1696 4 2225 2221
1697 3 1380 1377
1698 4 1385 1380
1699 4 1384 1380
1700 4 1382 1377
1701 4 778 774
1702 4 1207 1202
1703 3 1202 1199
1704 4 1206 1202
1705 4 2223 2218
1706 4 1694 1690
1707 4 1208 1205
1708 4 1698 1693
1709 4 2232 2227
1710 4 1697 1693
1711 3 1693 1690
1712 4 2228 2224
1713 3 2224 2221
1714 4 1704 1699
1715 3 1699 1696
1716 4 1701 1696
1717 4 1707 1702
1718 3 1702 1699
1719 3 1696 1693
1720 3 2221 2218
1721 4 2226 2221
1722 4 1706 1702
1723 4 1700 1696
1724 3 2218 2215
1725 4 2222 2218
1726 4 2219 2215
1727 4 1201 1196
1728 3 2215 2212
1729 3 162 159
1730 4 168 165
1731 4 1831 1827
1732 4 1835 1830
1733 3 1830 1827
1734 3 1827 1824
1735 4 1833 1830
1736 4 1834 1830
1737 4 1829 1824
1738 4 169 165
1739 3 165 162
1740 4 628 624
1741 4 166 162
1742 4 164 159
1743 4 170 165
1744 4 1828 1824
1745 3 1824 1821
1746 4 1708 1705
1747 7 2567 2566
1748 7 2568 2567
1749 4 625 621
1750 4 619 614
1751 4 1307 1302
1752 4 897 893
1753 4 1832 1827
1754 4 901 896
1755 6 1813 1811
1756 4 1822 1818
1757 4 895 890
1758 4 1823 1818
1759 4 1825 1821
1760 4 1826 1821
1761 3 1821 1818
1762 4 1820 1815
1763 4 1817 1812
1764 4 1816 1812
1765 5 1812 1811
1766 3 1815 1812
1767 3 1818 1815
1768 4 1444 1440
1769 3 1440 1437
1770 4 1445 1440
1771 4 1441 1437
1772 4 1448 1443
1773 3 1443 1440
1774 4 92 87
1775 4 98 94
1776 2 88 86
1777 4 1450 1446
1778 3 1446 1443
1779 5 1437 1436
1780 4 1447 1443
1781 3 890 886
1782 4 96 91
1783 1 87 86
1784 2 90 86
1785 7 2673 2672
1786 4 1451 1446
1787 6 2038 2036
1788 4 1454 1449
1789 4 2042 2037
1790 4 2041 2037
1791 4 1460 1455
1792 4 1456 1452
1793 4 1457 1452
1794 3 1452 1449
1795 4 1459 1455
1796 3 1455 1452
1797 3 1449 1446
1798 4 1453 1449
1799 4 1458 1455
1800 5 2037 2036
1801 2 89 86
1802 3 2040 2037
1803 7 2472 2471
1804 6 2039 2036
1805 7 2868 2867
1806 3 2099 2096
1807 4 2048 2043
1808 4 2100 2096
1809 3 2096 2093
1810 7 2471 2470
1811 4 2098 2093
1812 4 2104 2099
1813 4 2110 2105
1814 4 1209 1205
1815 3 2105 2102
1816 4 2109 2105
1817 4 1378 1374
1818 4 2044 2040
1819 4 2107 2102
1820 3 2102 2099
1821 4 2106 2102
1822 4 220 216
1823 3 216 213
1824 4 221 216
1825 4 219 216
1826 3 210 206
1827 4 214 210
1828 3 213 210
1829 4 217 213
1830 4 218 213
1831 4 215 210
1832 1 206 205
1833 4 1553 1549
1834 4 1957 1952
1835 4 211 206
1836 3 1705 1702
1837 4 322 318
1838 4 319 315
1839 4 323 318
1840 3 315 312
1841 4 321 318
1842 3 318 315
1843 4 320 315
1844 7 2474 2473
1845 4 1710 1705
1846 7 2492 2491
1847 7 2493 2492
1848 7 2475 2474
1849 7 2490 2489
1850 7 2489 2488
1851 7 2822 2821
1852 7 2757 2756
1853 2 207 205
1854 7 2756 2755
1855 2 209 205
1856 7 2729 2728
1857 7 2823 2822
1858 7 2730 2729
1859 4 2025 2021
1860 4 623 618
1861 4 627 624
1862 3 624 621
1863 7 2771 2770
1864 3 621 618
1865 4 711 706
1866 4 2026 2021
1867 4 626 621
1868 4 629 624
1869 3 618 614
1870 4 622 618
1871 4 1059 1055
1872 3 709 706
1873 4 712 709
1874 4 620 614
1875 1 614 613
1876 4 1060 1055
1877 4 1058 1055
1878 3 1055 1052
1879 3 706 703
1880 4 714 709
1881 4 713 709
1882 2 615 613
1883 4 708 703
1884 2 889 885
1885 6 1238 1236
1886 1 886 885
1887 4 1442 1437
1888 2 888 885
1889 4 707 703
1890 3 703 699
1891 4 705 699
1892 1 699 698
1893 4 704 699
1894 2 702 698
1895 2 701 698
1896 6 1438 1436
1897 2 700 698
1898 2 887 885
1899 6 1439 1436
1900 2 905 902
1901 4 911 907
1902 7 2522 2521
1903 7 2820 2819
1904 7 2523 2522
1905 7 2876 2875
1906 7 2877 2876
1907 2 906 902
1908 6 2088 2086
1909 4 891 886
1910 4 758 754
1911 4 1853 1849
1912 3 1846 1843
1913 4 2092 2087
1914 7 2819 2818
1915 4 1959 1955
1916 3 2093 2090
1917 4 1960 1955
1918 4 1956 1952
1919 4 2094 2090
1920 7 2867 2866
1921 5 2087 2086
1922 3 2090 2087
1923 2 752 749
1924 4 756 750
1925 2 753 749
1926 6 2089 2086
1927 2 751 749
1928 1 750 749
1929 4 755 750
1930 4 2095 2090
1931 3 1955 1952
1932 4 1848 1843
1933 4 762 757
1934 7 2855 2854
1935 7 2856 2855
1936 4 1854 1849
1937 4 2101 2096
1938 3 1849 1846
1939 7 2738 2737
1940 3 1843 1840
1941 4 1858 1855
1942 4 2154 2149
1943 4 1860 1855
1944 4 2183 2180
1945 4 2182 2177
1946 4 2181 2177
1947 3 1855 1852
1948 4 2179 2174
1949 4 212 206
1950 4 1958 1955
1951 3 1952 1949
1952 4 1954 1949
1953 3 1949 1946
1954 4 1953 1949
1955 3 1549 1546
1956 4 1560 1555
1957 4 1556 1552
1958 4 1559 1555
1959 4 1558 1555
1960 4 1557 1552
1961 3 1555 1552
1962 3 1552 1549
1963 3 2174 2171
1964 3 2180 2177
1965 3 2177 2174
1966 4 2176 2171
1967 4 2178 2174
1968 4 1857 1852
1969 4 2175 2171
1970 3 2171 2168
1971 4 2184 2180
1972 4 1554 1549
1973 4 1551 1546
1974 4 2153 2149
1975 4 2022 2018
1976 4 2023 2018
1977 3 2018 2015
1978 2 616 613
1979 4 2185 2180
1980 2 617 613
1981 4 2017 2012
1982 4 2016 2012
1983 5 2012 2011
1984 6 2014 2011
1985 2 208 205
1986 6 2013 2011
1987 4 2020 2015
1988 4 2019 2015
1989 3 2015 2012
1990 4 1550 1546
1991 3 1546 1543
1992 4 1548 1543
1993 4 1544 1540
1994 7 2768 2767
1995 7 2772 2771
1996 3 1543 1540
1997 7 2330 2329
1998 7 2331 2330
1999 7 2675 2674
2000 3 1243 1240
2001 4 1926 1921
2002 4 1916 1912
2003 3 1918 1915
2004 6 1913 1911
2005 7 2325 2324
2006 7 2324 2323
2007 4 1923 1918
2008 5 1912 1911
2009 3 1915 1912
2010 4 1917 1912
2011 3 1921 1918
2012 4 1925 1921
2013 7 2445 2444
2014 7 2444 2443
2015 4 1250 1246
2016 4 1919 1915
2017 4 1920 1915
2018 6 1914 1911
2019 4 1256 1252
2020 3 1246 1243
2021 4 1922 1918
2022 4 1929 1924
2023 4 1257 1252
2024 3 1252 1249
2025 4 1254 1249
2026 3 1249 1246
2027 4 1251 1246
2028 5 1237 1236
2029 4 1933 1930
2030 4 729 726
2031 3 726 723
2032 4 730 726
2033 4 731 726
2034 7 2559 2558
2035 4 1242 1237
2036 4 877 873
2037 3 873 869
2038 4 878 873
2039 3 879 876
2040 4 881 876
2041 3 876 873
2042 4 882 879
2043 4 883 879
2044 4 884 879
2045 4 575 570
2046 4 880 876
2047 4 1934 1930
2048 3 1930 1927
2049 4 1935 1930
2050 4 721 716
2051 4 725 720
2052 4 574 570
2053 3 570 567
2054 4 765 760
2055 4 576 573
2056 3 573 570
2057 3 723 720
2058 2 718 715
2059 2 717 715
2060 7 2412 2411
2061 4 724 720
2062 4 577 573
2063 3 720 716
2064 4 1120 1115
2065 4 728 723
2066 1 716 715
2067 4 578 573
2068 2 719 715
2069 4 722 716
2070 6 1113 1111
2071 3 1430 1427
2072 4 1433 1430
2073 4 1434 1430
2074 7 2411 2410
2075 4 1117 1112
2076 6 1114 1111
2077 4 1431 1427
2078 4 1435 1430
2079 2 872 868
2080 5 1112 1111
2081 3 1115 1112
2082 4 1116 1112
2083 4 232 227
2084 7 2790 2789
2085 4 809 805
2086 1 223 222
2087 4 229 223
2088 7 2312 2311
2089 7 2313 2312
2090 7 2570 2569
2091 7 2571 2570
2092 4 228 223
2093 6 2163 2161
2094 7 2843 2842
2095 4 134 131
2096 4 132 128
2097 2 224 222
2098 4 136 131
2099 7 2844 2843
2100 7 2847 2846
2101 3 131 128
2102 3 692 689
2103 4 695 692
2104 4 696 692
2105 7 2648 2647
2106 7 2649 2648
2107 7 2946 2945
2108 7 2945 2944
2109 7 2846 2845
2110 4 966 962
2111 7 2343 2342
2112 7 2342 2341
2113 4 687 682
2114 2 685 681
2115 4 691 686
2116 7 2670 2669
2117 7 2669 2668
2118 3 686 682
2119 4 975 971
2120 3 196 193
2121 4 353 349
2122 7 2891 2890
2123 7 2636 2635
2124 7 2637 2636
2125 7 2753 2752
2126 4 198 193
2127 4 347 342
2128 7 2754 2753
2129 7 2480 2479
2130 7 2892 2891
2131 7 2450 2449
2132 7 2481 2480
2133 7 2451 2450
2134 4 197 193
2135 3 193 189
2136 7 2436 2435
2137 2 191 188
2138 3 349 346
2139 4 354 349
2140 7 2391 2390
2141 4 194 189
2142 1 189 188
2143 4 200 196
2144 4 1219 1215
2145 4 875 869
2146 1 869 868
2147 7 2390 2389
2148 7 2529 2528
2149 7 2528 2527
2150 4 588 584
2151 4 594 590
2152 4 1610 1605
2153 3 590 587
2154 4 586 580
2155 4 585 580
2156 4 874 869
2157 3 1596 1593
2158 4 592 587
2159 1 580 579
2160 4 1609 1605
2161 4 1608 1605
2162 3 1605 1602
2163 4 1607 1602
2164 3 1602 1599
2165 3 1599 1596
2166 3 587 584
2167 3 584 580
2168 4 589 584
2169 4 1604 1599
2170 4 591 587
2171 4 1603 1599
2172 4 1216 1212
2173 4 1606 1602
2174 7 2315 2314
2175 2 870 868
2176 7 2958 2957
2177 7 2885 2884
2178 5 1212 1211
2179 3 1118 1115
2180 4 1600 1596
2181 4 1601 1596
2182 7 2886 2885
2183 2 871 868
2184 7 2706 2705
2185 6 1214 1211
2186 7 2957 2956
2187 4 1122 1118
2188 2 122 120
2189 2 123 120
2190 7 2705 2704
2191 4 1734 1730
2192 2 124 120
2193 7 2720 2719
2194 4 1732 1727
2195 4 1728 1724
2196 4 523 519
2197 4 1125 1121
2198 4 1129 1124
2199 4 130 125
2200 3 128 125
2201 4 126 121
2202 3 471 468
2203 1 121 120
2204 7 2721 2720
2205 4 127 121
2206 4 135 131
2207 3 125 121
2208 4 133 128
2209 4 129 125
2210 7 2951 2950
2211 7 2952 2951
2212 4 473 468
2213 3 468 465
2214 4 469 465
2215 4 467 461
2216 3 465 461
2217 7 2591 2590
2218 1 461 460
2219 4 517 512
2220 4 475 471
2221 4 472 468
2222 4 466 461
2223 7 2592 2591
2224 4 470 465
2225 4 967 962
2226 6 2239 2236
2227 4 351 346
2228 5 962 961
2229 3 346 342
2230 4 348 342
2231 1 342 341
2232 7 2943 2942
2233 7 2942 2941
2234 7 2736 2735
2235 7 2735 2734
2236 6 963 961
2237 2 463 460
2238 2 345 341
2239 2 462 460
2240 2 344 341
2241 6 964 961
2242 2 327 324
2243 2 464 460
2244 6 1189 1186
2245 6 1188 1186
2246 2 343 341
2247 7 2438 2437
2248 7 2439 2438
2249 4 350 346
2250 4 1194 1190
2251 7 2577 2576
2252 7 2420 2419
2253 7 2435 2434
2254 2 582 579
2255 2 276 273
2256 4 1669 1665
2257 4 195 189
2258 2 275 273
2259 7 2421 2420
2260 2 190 188
2261 2 192 188
2262 7 2406 2405
2263 6 1288 1286
2264 7 2405 2404
2265 7 2858 2857
2266 6 1289 1286
2267 2 277 273
2268 7 2859 2858
2269 5 1287 1286
2270 4 1292 1287
2271 4 1297 1293
2272 4 1291 1287
2273 3 1290 1287
2274 4 1295 1290
2275 4 1158 1155
2276 2 583 579
2277 7 2928 2927
2278 2 581 579
2279 7 2319 2318
2280 7 2318 2317
2281 7 2853 2852
2282 7 2852 2851
2283 4 1716 1712
2284 5 1712 1711
2285 7 2927 2926
2286 4 1719 1715
2287 4 1717 1712
2288 4 537 533
2289 3 1715 1712
2290 4 1720 1715
2291 3 533 529
2292 6 1714 1711
2293 3 536 533
2294 7 2541 2540
2295 4 542 539
2296 4 2260 2255
2297 4 2258 2255
2298 6 1713 1711
2299 4 2259 2255
2300 4 1217 1212
2301 4 1735 1730
2302 7 2456 2455
2303 3 1730 1727
2304 3 1727 1724
2305 4 1725 1721
2306 4 1731 1727
2307 4 1733 1730
2308 4 1723 1718
2309 3 1718 1715
2310 4 1726 1721
2311 4 1729 1724
2312 4 1722 1718
2313 3 1721 1718
2314 7 2457 2456
2315 3 1724 1721
2316 7 2967 2966
2317 7 2966 2965
2318 4 535 529
2319 7 2364 2363
2320 7 2363 2362
2321 7 2684 2683
2322 3 2255 2252
2323 1 529 528
2324 7 2685 2684
2325 4 534 529
2326 4 541 536
2327 6 2238 2236
2328 4 2257 2252
2329 4 2256 2252
2330 4 1210 1205
2331 4 2253 2249
2332 4 2254 2249
2333 3 2249 2246
2334 4 637 631
2335 3 2252 2249
2336 4 2244 2240
2337 4 2241 2237
2338 5 2237 2236
2339 3 2240 2237
2340 4 2251 2246
2341 4 2250 2246
2342 3 2246 2243
2343 3 2243 2240
2344 4 2248 2243
2345 4 2247 2243
2346 4 2242 2237
2347 4 2245 2240
2348 4 306 301
2349 4 304 301
2350 3 301 298
2351 4 1200 1196
2352 4 305 301
2353 4 644 641
2354 4 1203 1199
2355 4 303 298
2356 4 1109 1105
2357 4 279 274
2358 1 274 273
2359 4 1191 1187
2360 5 1187 1186
2361 4 280 274
2362 3 1190 1187
2363 4 1108 1105
2364 3 1105 1102
2365 4 1198 1193
2366 4 1204 1199
2367 4 1195 1190
2368 3 1199 1196
2369 3 1196 1193
2370 4 283 278
2371 4 288 284
2372 3 278 274
2373 4 1197 1193
2374 4 1192 1187
2375 3 284 281
2376 4 286 281
2377 3 1193 1190
2378 4 285 281
2379 3 281 278
2380 4 289 284
2381 4 282 278
2382 4 1107 1102
2383 4 1103 1099
2384 4 302 298
2385 3 298 295
2386 4 287 284
2387 4 1298 1293
2388 3 1293 1290
2389 4 1306 1302
2390 4 1300 1296
2391 3 1671 1668
2392 4 1676 1671
2393 3 1302 1299
2394 4 1304 1299
2395 4 1303 1299
2396 3 1299 1296
2397 4 1301 1296
2398 3 1674 1671
2399 3 1296 1293
2400 3 1677 1674
2401 4 1682 1677
2402 4 1675 1671
2403 4 1681 1677
2404 4 1294 1290
2405 3 1680 1677
2406 3 1305 1302
2407 4 1308 1305
2408 4 1310 1305
2409 4 1685 1680
2410 4 1309 1305
2411 4 1683 1680
2412 4 1684 1680
2413 4 1679 1674
2414 4 1966 1962
2415 4 1098 1093
2416 4 1678 1674
2417 2 377 375
2418 7 2837 2836
2419 7 2540 2539
2420 2 532 528
2421 7 2838 2837
2422 3 91 87
2423 4 99 94
2424 7 2564 2563
2425 5 1962 1961
2426 4 1967 1962
2427 4 101 97
2428 4 100 97
2429 3 97 94
2430 3 94 91
2431 4 102 97
2432 4 95 91
2433 7 2691 2690
2434 7 2835 2834
2435 7 2690 2689
2436 4 93 87
2437 6 1964 1961
2438 6 1963 1961
2439 7 2834 2833
2440 7 2787 2786
2441 7 2565 2564
2442 7 2786 2785
2443 4 915 910
2444 2 530 528
2445 7 2598 2597
2446 4 2045 2040
2447 7 2703 2702
2448 3 2043 2040
2449 4 2047 2043
2450 7 2483 2482
2451 2 531 528
2452 7 2514 2513
2453 7 2781 2780
2454 7 2780 2779
2455 7 2513 2512
2456 4 2060 2055
2457 7 2484 2483
2458 4 2054 2049
2459 4 2058 2055
2460 3 2055 2052
2461 4 2053 2049
2462 3 2049 2046
2463 7 2702 2701
2464 7 2597 2596
2465 4 1951 1946
2466 3 638 635
2467 3 641 638
2468 4 2059 2055
2469 4 2056 2052
2470 3 2052 2049
2471 4 2057 2052
2472 4 643 638
2473 4 2051 2046
2474 4 2050 2046
2475 3 2046 2043
2476 7 2321 2320
2477 4 297 291
2478 2 294 290
2479 4 299 295
2480 3 295 291
2481 7 2322 2321
2482 4 1945 1940
2483 4 645 641
2484 4 1944 1940
2485 3 1940 1937
2486 4 1942 1937
2487 7 2546 2545
2488 3 1102 1099
2489 4 1110 1105
2490 4 1101 1096
2491 4 1097 1093
2492 3 1099 1096
2493 2 293 290
2494 1 291 290
2495 7 2547 2546
2496 4 300 295
2497 4 296 291
2498 7 2762 2761
2499 7 2763 2762
2500 2 292 290
2501 7 2870 2869
2502 4 1104 1099
2503 3 1090 1087
2504 4 1106 1102
2505 4 1100 1096
2506 3 1096 1093
2507 3 1093 1090
2508 7 2469 2468
2509 7 2468 2467
2510 4 1095 1090
2511 4 1091 1087
2512 6 1938 1936
2513 4 1094 1090
2514 4 1047 1043
2515 4 916 913
2516 4 1247 1243
2517 4 1054 1049
2518 3 1052 1049
2519 4 1056 1052
2520 4 1050 1046
2521 4 917 913
2522 4 1259 1255
2523 3 1255 1252
2524 4 1260 1255
2525 3 913 910
2526 4 1258 1255
2527 4 918 913
2528 4 1057 1052
2529 4 1975 1971
2530 4 1253 1249
2531 4 1053 1049
2532 3 1049 1046
2533 4 1051 1046
2534 3 1046 1043
2535 4 1045 1040
2536 4 1973 1968
2537 4 1969 1965
2538 4 118 114
2539 4 1979 1974
2540 4 1982 1977
2541 3 1977 1974
2542 3 1971 1968
2543 4 1976 1971
2544 2 904 902
2545 4 914 910
2546 3 910 907
2547 3 1965 1962
2548 4 1981 1977
2549 3 1968 1965
2550 4 909 903
2551 4 1972 1968
2552 4 1970 1965
2553 6 1239 1236
2554 4 912 907
2555 3 907 903
2556 1 903 902
2557 7 2934 2933
2558 7 2933 2932
2559 4 908 903
2560 7 2538 2537
2561 7 2537 2536
2562 4 381 376
2563 3 1974 1971
2564 3 1427 1424
2565 4 1432 1427
2566 4 1429 1424
2567 4 1420 1415
2568 7 2418 2417
2569 7 2361 2360
2570 7 2417 2416
2571 7 2739 2738
2572 7 2360 2359
2573 7 2663 2662
2574 7 2664 2663
2575 4 1428 1424
2576 3 1424 1421
2577 4 1426 1421
2578 4 1425 1421
2579 3 1421 1418
2580 2 683 681
2581 4 2169 2165
2582 6 2164 2161
2583 4 1950 1946
2584 2 803 800
2585 3 1415 1412
2586 4 1416 1412
2587 3 1943 1940
2588 3 2168 2165
2589 3 1946 1943
2590 4 2170 2165
2591 4 2172 2168
2592 2 804 800
2593 4 1948 1943
2594 5 2162 2161
2595 4 2167 2162
2596 7 2580 2579
2597 4 1417 1412
2598 4 1423 1418
2599 4 2166 2162
2600 2 802 800
2601 3 2165 2162
2602 4 1941 1937
2603 4 1947 1943
2604 5 1937 1936
2605 5 1412 1411
2606 4 1422 1418
2607 3 1418 1415
2608 6 1414 1411
2609 4 2173 2168
2610 7 2606 2605
2611 3 1043 1040
2612 4 1044 1040
2613 7 2765 2764
2614 6 1038 1036
2615 1 682 681
2616 7 2769 2768
2617 5 1037 1036
2618 7 2607 2606
2619 4 1048 1043
2620 4 1485 1480
2621 3 805 801
2622 7 2579 2578
2623 6 1939 1936
2624 7 2766 2765
2625 4 1042 1037
2626 6 1039 1036
2627 4 116 111
2628 4 1041 1037
2629 4 694 689
2630 4 688 682
2631 7 2871 2870
2632 3 689 686
2633 4 690 686
2634 4 110 104
2635 3 1040 1037
2636 7 2510 2509
2637 2 684 681
2638 4 810 805
2639 7 2511 2510
2640 3 111 108

Angles

1 7 949 952 955
2 5 949 952 956
3 5 949 952 957
4 5 955 952 956
5 5 955 952 957
6 6 956 952 957
7 5 952 955 958
8 5 952 955 959
9 5 952 955 960
10 6 958 955 959
11 6 958 955 960
12 6 959 955 960
13 7 946 949 952
14 5 946 949 953
15 5 946 949 954
16 5 952 949 953
17 5 952 949 954
18 6 953 949 954
19 7 943 946 949
20 5 943 946 950
21 5 943 946 951
22 5 949 946 950
23 5 949 946 951
24 6 950 946 951
25 5 977 980 983
26 5 977 980 984
27 5 977 980 985
28 6 983 980 984
29 6 983 980 985
30 6 984 980 985
31 5 1477 1480 1483
32 5 1477 1480 1484
33 5 1477 1480 1485
34 6 1483 1480 1484
35 6 1483 1480 1485
36 6 1484 1480 1485
37 7 1921 1924 1927
38 5 1921 1924 1928
39 5 1921 1924 1929
40 5 1927 1924 1928
41 5 1927 1924 1929
42 6 1928 1924 1929
43 7 1924 1927 1930
44 5 1924 1927 1931
45 5 1924 1927 1932
46 5 1930 1927 1931
47 5 1930 1927 1932
48 6 1931 1927 1932
49 5 1527 1530 1533
50 5 1527 1530 1534
51 5 1527 1530 1535
52 6 1533 1530 1534
53 6 1533 1530 1535
54 6 1534 1530 1535
55 7 1524 1527 1530
56 5 1524 1527 1531
57 5 1524 1527 1532
58 5 1530 1527 1531
59 5 1530 1527 1532
60 6 1531 1527 1532
61 7 1521 1524 1527
62 5 1521 1524 1528
63 5 1521 1524 1529
64 5 1527 1524 1528
65 5 1527 1524 1529
66 6 1528 1524 1529
67 7 1274 1277 1280
68 5 1274 1277 1281
69 5 1274 1277 1282
70 5 1280 1277 1281
71 5 1280 1277 1282
72 6 1281 1277 1282
73 7 1268 1271 1274
74 5 1268 1271 1275
75 5 1268 1271 1276
76 5 1274 1271 1275
77 5 1274 1271 1276
78 6 1275 1271 1276
79 7 1271 1274 1277
80 5 1271 1274 1278
81 5 1271 1274 1279
82 5 1277 1274 1278
83 5 1277 1274 1279
84 6 1278 1274 1279
85 5 1277 1280 1283
86 5 1277 1280 1284
87 5 1277 1280 1285
88 6 1283 1280 1284
89 6 1283 1280 1285
90 6 1284 1280 1285
91 7 1518 1521 1524
92 5 1518 1521 1525
93 5 1518 1521 1526
94 5 1524 1521 1525
95 5 1524 1521 1526
96 6 1525 1521 1526
97 7 1899 1902 1905
98 5 1899 1902 1906
99 5 1899 1902 1907
100 5 1905 1902 1906
101 5 1905 1902 1907
102 6 1906 1902 1907
103 7 1265 1268 1271
104 5 1265 1268 1272
105 5 1265 1268 1273
106 5 1271 1268 1272
107 5 1271 1268 1273
108 6 1272 1268 1273
109 7 1262 1265 1268
110 5 1262 1265 1269
111 5 1262 1265 1270
112 5 1268 1265 1269
113 5 1268 1265 1270
114 6 1269 1265 1270
115 7 1643 1646 1649
116 5 1643 1646 1650
117 5 1643 1646 1651
118 5 1649 1646 1650
119 5 1649 1646 1651
120 6 1650 1646 1651
121 5 230 233 236
122 5 230 233 237
123 5 230 233 238
124 6 236 233 237
125 6 236 233 238
126 6 237 233 238
127 10 1261 1262 1265
128 11 1261 1262 1266
129 11 1261 1262 1267
130 5 1265 1262 1266
131 5 1265 1262 1267
132 6 1266 1262 1267
133 7 223 227 230
134 5 223 227 231
135 5 223 227 232
136 5 230 227 231
137 5 230 227 232
138 6 231 227 232
139 7 1640 1643 1646
140 5 1640 1643 1647
141 5 1640 1643 1648
142 5 1646 1643 1647
143 5 1646 1643 1648
144 6 1647 1643 1648
145 7 1637 1640 1643
146 5 1637 1640 1644
147 5 1637 1640 1645
148 5 1643 1640 1644
149 5 1643 1640 1645
150 6 1644 1640 1645
151 10 1636 1637 1640
152 11 1636 1637 1641
153 11 1636 1637 1642
154 5 1640 1637 1641
155 5 1640 1637 1642
156 6 1641 1637 1642
157 5 2302 2305 2308
158 5 2302 2305 2309
159 5 2302 2305 2310
160 6 2308 2305 2309
161 6 2308 2305 2310
162 6 2309 2305 2310
163 12 2398 2399 2400
164 8 1637 1636 1638
165 8 1637 1636 1639
166 9 1638 1636 1639
167 7 227 230 233
168 5 227 230 234
169 5 227 230 235
170 5 233 230 234
171 5 233 230 235
172 6 234 230 235
173 12 2788 2789 2790
174 7 1793 1796 1799
175 5 1793 1796 1800
176 5 1793 1796 1801
177 5 1799 1796 1800
178 5 1799 1796 1801
179 6 1800 1796 1801
180 7 974 977 980
181 5 974 977 981
182 5 974 977 982
183 5 980 977 981
184 5 980 977 982
185 6 981 977 982
186 7 19 23 26
187 5 19 23 27
188 5 19 23 28
189 5 26 23 27
190 5 26 23 28
191 6 27 23 28
192 5 26 29 32
193 5 26 29 33
194 5 26 29 34
195 6 32 29 33
196 6 32 29 34
197 6 33 29 34
198 7 23 26 29
199 5 23 26 30
200 5 23 26 31
201 5 29 26 30
202 5 29 26 31
203 6 30 26 31
204 7 971 974 977
205 5 971 974 978
206 5 971 974 979
207 5 977 974 978
208 5 977 974 979
209 6 978 974 979
210 7 968 971 974
211 5 968 971 975
212 5 968 971 976
213 5 974 971 975
214 5 974 971 976
215 6 975 971 976
216 5 808 811 814
217 5 808 811 815
218 5 808 811 816
219 6 814 811 815
220 6 814 811 816
221 6 815 811 816
222 7 1474 1477 1480
223 5 1474 1477 1481
224 5 1474 1477 1482
225 5 1480 1477 1481
226 5 1480 1477 1482
227 6 1481 1477 1482
228 7 805 808 811
229 5 805 808 812
230 5 805 808 813
231 5 811 808 812
232 5 811 808 813
233 6 812 808 813
234 12 2782 2783 2784
235 7 1624 1627 1630
236 5 1624 1627 1631
237 5 1624 1627 1632
238 5 1630 1627 1631
239 5 1630 1627 1632
240 6 1631 1627 1632
241 7 1621 1624 1627
242 5 1621 1624 1628
243 5 1621 1624 1629
244 5 1627 1624 1628
245 5 1627 1624 1629
246 6 1628 1624 1629
247 5 349 352 355
248 5 349 352 356
249 5 349 352 357
250 6 355 352 356
251 6 355 352 357
252 6 356 352 357
253 7 2068 2071 2074
254 5 2068 2071 2075
255 5 2068 2071 2076
256 5 2074 2071 2075
257 5 2074 2071 2076
258 6 2075 2071 2076
259 7 2062 2065 2068
260 5 2062 2065 2069
261 5 2062 2065 2070
262 5 2068 2065 2069
263 5 2068 2065 2070
264 6 2069 2065 2070
265 5 1627 1630 1633
266 5 1627 1630 1634
267 5 1627 1630 1635
268 6 1633 1630 1634
269 6 1633 1630 1635
270 6 1634 1630 1635
271 7 2074 2077 2080
272 5 2074 2077 2081
273 5 2074 2077 2082
274 5 2080 2077 2081
275 5 2080 2077 2082
276 6 2081 2077 2082
277 5 2077 2080 2083
278 5 2077 2080 2084
279 5 2077 2080 2085
280 6 2083 2080 2084
281 6 2083 2080 2085
282 6 2084 2080 2085
283 7 2071 2074 2077
284 5 2071 2074 2078
285 5 2071 2074 2079
286 5 2077 2074 2078
287 5 2077 2074 2079
288 6 2078 2074 2079
289 7 2065 2068 2071
290 5 2065 2068 2072
291 5 2065 2068 2073
292 5 2071 2068 2072
293 5 2071 2068 2073
294 6 2072 2068 2073
295 12 2917 2918 2919
296 5 1227 1230 1233
297 5 1227 1230 1234
298 5 1227 1230 1235
299 6 1233 1230 1234
300 6 1233 1230 1235
301 6 1234 1230 1235
302 7 1212 1215 1218
303 5 1212 1215 1219
304 5 1212 1215 1220
305 5 1218 1215 1219
306 5 1218 1215 1220
307 6 1219 1215 1220
308 7 1615 1618 1621
309 5 1615 1618 1622
310 5 1615 1618 1623
311 5 1621 1618 1622
312 5 1621 1618 1623
313 6 1622 1618 1623
314 7 1618 1621 1624
315 5 1618 1621 1625
316 5 1618 1621 1626
317 5 1624 1621 1625
318 5 1624 1621 1626
319 6 1625 1621 1626
320 8 2187 2186 2188
321 8 2187 2186 2189
322 9 2188 2186 2189
323 7 1224 1227 1230
324 5 1224 1227 1231
325 5 1224 1227 1232
326 5 1230 1227 1231
327 5 1230 1227 1232
328 6 1231 1227 1232
329 7 1221 1224 1227
330 5 1221 1224 1228
331 5 1221 1224 1229
332 5 1227 1224 1228
333 5 1227 1224 1229
334 6 1228 1224 1229
335 7 1218 1221 1224
336 5 1218 1221 1225
337 5 1218 1221 1226
338 5 1224 1221 1225
339 5 1224 1221 1226
340 6 1225 1221 1226
341 10 2186 2187 2190
342 11 2186 2187 2191
343 11 2186 2187 2192
344 5 2190 2187 2191
345 5 2190 2187 2192
346 6 2191 2187 2192
347 7 1215 1218 1221
348 5 1215 1218 1222
349 5 1215 1218 1223
350 5 1221 1218 1222
351 5 1221 1218 1223
352 6 1222 1218 1223
353 7 2187 2190 2193
354 5 2187 2190 2194
355 5 2187 2190 2195
356 5 2193 2190 2194
357 5 2193 2190 2195
358 6 2194 2190 2195
359 5 1902 1905 1908
360 5 1902 1905 1909
361 5 1902 1905 1910
362 6 1908 1905 1909
363 6 1908 1905 1910
364 6 1909 1905 1910
365 8 1262 1261 1263
366 8 1262 1261 1264
367 9 1263 1261 1264
368 1 70 69 71
369 1 70 69 72
370 1 70 69 73
371 2 71 69 72
372 2 71 69 73
373 2 72 69 73
374 3 69 70 74
375 4 69 70 75
376 4 69 70 76
377 5 74 70 75
378 5 74 70 76
379 6 75 70 76
380 7 70 74 77
381 5 70 74 78
382 5 70 74 79
383 5 77 74 78
384 5 77 74 79
385 6 78 74 79
386 7 74 77 80
387 5 74 77 81
388 5 74 77 82
389 5 80 77 81
390 5 80 77 82
391 6 81 77 82
392 5 77 80 83
393 5 77 80 84
394 5 77 80 85
395 6 83 80 84
396 6 83 80 85
397 6 84 80 85
398 5 1802 1805 1808
399 5 1802 1805 1809
400 5 1802 1805 1810
401 6 1808 1805 1809
402 6 1808 1805 1810
403 6 1809 1805 1810
404 7 1799 1802 1805
405 5 1799 1802 1806
406 5 1799 1802 1807
407 5 1805 1802 1806
408 5 1805 1802 1807
409 6 1806 1802 1807
410 7 2299 2302 2305
411 5 2299 2302 2306
412 5 2299 2302 2307
413 5 2305 2302 2306
414 5 2305 2302 2307
415 6 2306 2302 2307
416 7 1796 1799 1802
417 5 1796 1799 1803
418 5 1796 1799 1804
419 5 1802 1799 1803
420 5 1802 1799 1804
421 6 1803 1799 1804
422 3 511 512 516
423 4 511 512 517
424 4 511 512 518
425 5 516 512 517
426 5 516 512 518
427 6 517 512 518
428 5 519 522 525
429 5 519 522 526
430 5 519 522 527
431 6 525 522 526
432 6 525 522 527
433 6 526 522 527
434 7 512 516 519
435 5 512 516 520
436 5 512 516 521
437 5 519 516 520
438 5 519 516 521
439 6 520 516 521
440 12 2335 2336 2337
441 7 2296 2299 2302
442 5 2296 2299 2303
443 5 2296 2299 2304
444 5 2302 2299 2303
445 5 2302 2299 2304
446 6 2303 2299 2304
447 7 2290 2293 2296
448 5 2290 2293 2297
449 5 2290 2293 2298
450 5 2296 2293 2297
451 5 2296 2293 2298
452 6 2297 2293 2298
453 7 516 519 522
454 5 516 519 523
455 5 516 519 524
456 5 522 519 523
457 5 522 519 524
458 6 523 519 524
459 7 2293 2296 2299
460 5 2293 2296 2300
461 5 2293 2296 2301
462 5 2299 2296 2300
463 5 2299 2296 2301
464 6 2300 2296 2301
465 1 512 511 513
466 1 512 511 514
467 1 512 511 515
468 2 513 511 514
469 2 513 511 515
470 2 514 511 515
471 12 2794 2795 2796
472 10 1736 1737 1740
473 11 1736 1737 1741
474 11 1736 1737 1742
475 5 1740 1737 1741
476 5 1740 1737 1742
477 6 1741 1737 1742
478 8 1737 1736 1738
479 8 1737 1736 1739
480 9 1738 1736 1739
481 7 965 968 971
482 5 965 968 972
483 5 965 968 973
484 5 971 968 972
485 5 971 968 973
486 6 972 968 973
487 5 502 505 508
488 5 502 505 509
489 5 502 505 510
490 6 508 505 509
491 6 508 505 510
492 6 509 505 510
493 7 499 502 505
494 5 499 502 506
495 5 499 502 507
496 5 505 502 506
497 5 505 502 507
498 6 506 502 507
499 7 495 499 502
500 5 495 499 503
501 5 495 499 504
502 5 502 499 503
503 5 502 499 504
504 6 503 499 504
505 12 2920 2921 2922
506 7 962 965 968
507 5 962 965 969
508 5 962 965 970
509 5 968 965 969
510 5 968 965 970
511 6 969 965 970
512 12 2710 2711 2712
513 12 2575 2576 2577
514 1 648 647 649
515 1 648 647 650
516 1 648 647 651
517 2 649 647 650
518 2 649 647 651
519 2 650 647 651
520 3 647 648 652
521 4 647 648 653
522 4 647 648 654
523 5 652 648 653
524 5 652 648 654
525 6 653 648 654
526 8 1662 1661 1663
527 8 1662 1661 1664
528 9 1663 1661 1664
529 7 648 652 655
530 5 648 652 656
531 5 648 652 657
532 5 655 652 656
533 5 655 652 657
534 6 656 652 657
535 10 1661 1662 1665
536 11 1661 1662 1666
537 11 1661 1662 1667
538 5 1665 1662 1666
539 5 1665 1662 1667
540 6 1666 1662 1667
541 7 835 839 842
542 5 835 839 843
543 5 835 839 844
544 5 842 839 843
545 5 842 839 844
546 6 843 839 844
547 7 652 655 658
548 5 652 655 659
549 5 652 655 660
550 5 658 655 659
551 5 658 655 660
552 6 659 655 660
553 5 655 658 661
554 5 655 658 662
555 5 655 658 663
556 6 661 658 662
557 6 661 658 663
558 6 662 658 663
559 7 1662 1665 1668
560 5 1662 1665 1669
561 5 1662 1665 1670
562 5 1668 1665 1669
563 5 1668 1665 1670
564 6 1669 1665 1670
565 7 1612 1615 1618
566 5 1612 1615 1619
567 5 1612 1615 1620
568 5 1618 1615 1619
569 5 1618 1615 1620
570 6 1619 1615 1620
571 7 2190 2193 2196
572 5 2190 2193 2197
573 5 2190 2193 2198
574 5 2196 2193 2197
575 5 2196 2193 2198
576 6 2197 2193 2198
577 8 1612 1611 1613
578 8 1612 1611 1614
579 9 1613 1611 1614
580 7 2193 2196 2199
581 5 2193 2196 2200
582 5 2193 2196 2201
583 5 2199 2196 2200
584 5 2199 2196 2201
585 6 2200 2196 2201
586 10 1611 1612 1615
587 11 1611 1612 1616
588 11 1611 1612 1617
589 5 1615 1612 1616
590 5 1615 1612 1617
591 6 1616 1612 1617
592 7 2196 2199 2202
593 5 2196 2199 2203
594 5 2196 2199 2204
595 5 2202 2199 2203
596 5 2202 2199 2204
597 6 2203 2199 2204
598 5 366 369 372
599 5 366 369 373
600 5 366 369 374
601 6 372 369 373
602 6 372 369 374
603 6 373 369 374
604 5 536 539 542
605 5 536 539 543
606 5 536 539 544
607 6 542 539 543
608 6 542 539 544
609 6 543 539 544
610 7 2199 2202 2205
611 5 2199 2202 2206
612 5 2199 2202 2207
613 5 2205 2202 2206
614 5 2205 2202 2207
615 6 2206 2202 2207
616 5 2202 2205 2208
617 5 2202 2205 2209
618 5 2202 2205 2210
619 6 2208 2205 2209
620 6 2208 2205 2210
621 6 2209 2205 2210
622 12 2584 2585 2586
623 7 1740 1743 1746
624 5 1740 1743 1747
625 5 1740 1743 1748
626 5 1746 1743 1747
627 5 1746 1743 1748
628 6 1747 1743 1748
629 7 1743 1746 1749
630 5 1743 1746 1750
631 5 1743 1746 1751
632 5 1749 1746 1750
633 5 1749 1746 1751
634 6 1750 1746 1751
635 7 1746 1749 1752
636 5 1746 1749 1753
637 5 1746 1749 1754
638 5 1752 1749 1753
639 5 1752 1749 1754
640 6 1753 1749 1754
641 12 2614 2615 2616
642 7 1012 1015 1018
643 5 1012 1015 1019
644 5 1012 1015 1020
645 5 1018 1015 1019
646 5 1018 1015 1020
647 6 1019 1015 1020
648 1 631 630 632
649 1 631 630 633
650 1 631 630 634
651 2 632 630 633
652 2 632 630 634
653 2 633 630 634
654 7 1737 1740 1743
655 5 1737 1740 1744
656 5 1737 1740 1745
657 5 1743 1740 1744
658 5 1743 1740 1745
659 6 1744 1740 1745
660 8 2287 2286 2288
661 8 2287 2286 2289
662 9 2288 2286 2289
663 8 1012 1011 1013
664 8 1012 1011 1014
665 9 1013 1011 1014
666 1 393 392 394
667 1 393 392 395
668 1 393 392 396
669 2 394 392 395
670 2 394 392 396
671 2 395 392 396
672 3 392 393 397
673 4 392 393 398
674 4 392 393 399
675 5 397 393 398
676 5 397 393 399
677 6 398 393 399
678 7 393 397 400
679 5 393 397 401
680 5 393 397 402
681 5 400 397 401
682 5 400 397 402
683 6 401 397 402
684 7 397 400 403
685 5 397 400 404
686 5 397 400 405
687 5 403 400 404
688 5 403 400 405
689 6 404 400 405
690 12 2518 2519 2520
691 10 1011 1012 1015
692 11 1011 1012 1016
693 11 1011 1012 1017
694 5 1015 1012 1016
695 5 1015 1012 1017
696 6 1016 1012 1017
697 12 2902 2903 2904
698 7 631 635 638
699 5 631 635 639
700 5 631 635 640
701 5 638 635 639
702 5 638 635 640
703 6 639 635 640
704 3 630 631 635
705 4 630 631 636
706 4 630 631 637
707 5 635 631 636
708 5 635 631 637
709 6 636 631 637
710 12 2386 2387 2388
711 3 494 495 499
712 4 494 495 500
713 4 494 495 501
714 5 499 495 500
715 5 499 495 501
716 6 500 495 501
717 5 400 403 406
718 5 400 403 407
719 5 400 403 408
720 6 406 403 407
721 6 406 403 408
722 6 407 403 408
723 1 495 494 496
724 1 495 494 497
725 1 495 494 498
726 2 496 494 497
727 2 496 494 498
728 2 497 494 498
729 8 2062 2061 2063
730 8 2062 2061 2064
731 9 2063 2061 2064
732 1 835 834 836
733 1 835 834 837
734 1 835 834 838
735 2 836 834 837
736 2 836 834 838
737 2 837 834 838
738 12 2680 2681 2682
739 12 2815 2816 2817
740 12 2707 2708 2709
741 3 834 835 839
742 4 834 835 840
743 4 834 835 841
744 5 839 835 840
745 5 839 835 841
746 6 840 835 841
747 12 2914 2915 2916
748 12 2806 2807 2808
749 12 2824 2825 2826
750 12 2413 2414 2415
751 12 2599 2600 2601
752 5 417 420 423
753 5 417 420 424
754 5 417 420 425
755 6 423 420 424
756 6 423 420 425
757 6 424 420 425
758 12 2497 2498 2499
759 12 2485 2486 2487
760 7 1665 1668 1671
761 5 1665 1668 1672
762 5 1665 1668 1673
763 5 1671 1668 1672
764 5 1671 1668 1673
765 6 1672 1668 1673
766 7 359 363 366
767 5 359 363 367
768 5 359 363 368
769 5 366 363 367
770 5 366 363 368
771 6 367 363 368
772 7 363 366 369
773 5 363 366 370
774 5 363 366 371
775 5 369 366 370
776 5 369 366 371
777 6 370 366 371
778 1 359 358 360
779 1 359 358 361
780 1 359 358 362
781 2 360 358 361
782 2 360 358 362
783 2 361 358 362
784 3 358 359 363
785 4 358 359 364
786 4 358 359 365
787 5 363 359 364
788 5 363 359 365
789 6 364 359 365
790 12 2380 2381 2382
791 12 2695 2696 2697
792 1 376 375 377
793 1 376 375 378
794 1 376 375 379
795 2 377 375 378
796 2 377 375 379
797 2 378 375 379
798 12 2644 2645 2646
799 12 2863 2864 2865
800 12 2353 2354 2355
801 12 2581 2582 2583
802 7 1015 1018 1021
803 5 1015 1018 1022
804 5 1015 1018 1023
805 5 1021 1018 1022
806 5 1021 1018 1023
807 6 1022 1018 1023
808 7 1024 1027 1030
809 5 1024 1027 1031
810 5 1024 1027 1032
811 5 1030 1027 1031
812 5 1030 1027 1032
813 6 1031 1027 1032
814 7 1018 1021 1024
815 5 1018 1021 1025
816 5 1018 1021 1026
817 5 1024 1021 1025
818 5 1024 1021 1026
819 6 1025 1021 1026
820 7 1021 1024 1027
821 5 1021 1024 1028
822 5 1021 1024 1029
823 5 1027 1024 1028
824 5 1027 1024 1029
825 6 1028 1024 1029
826 5 1027 1030 1033
827 5 1027 1030 1034
828 5 1027 1030 1035
829 6 1033 1030 1034
830 6 1033 1030 1035
831 6 1034 1030 1035
832 5 485 488 491
833 5 485 488 492
834 5 485 488 493
835 6 491 488 492
836 6 491 488 493
837 6 492 488 493
838 7 482 485 488
839 5 482 485 489
840 5 482 485 490
841 5 488 485 489
842 5 488 485 490
843 6 489 485 490
844 10 1311 1312 1315
845 11 1311 1312 1316
846 11 1311 1312 1317
847 5 1315 1312 1316
848 5 1315 1312 1317
849 6 1316 1312 1317
850 8 1312 1311 1313
851 8 1312 1311 1314
852 9 1313 1311 1314
853 7 1312 1315 1318
854 5 1312 1315 1319
855 5 1312 1315 1320
856 5 1318 1315 1319
857 5 1318 1315 1320
858 6 1319 1315 1320
859 7 478 482 485
860 5 478 482 486
861 5 478 482 487
862 5 485 482 486
863 5 485 482 487
864 6 486 482 487
865 12 2347 2348 2349
866 3 477 478 482
867 4 477 478 483
868 4 477 478 484
869 5 482 478 483
870 5 482 478 484
871 6 483 478 484
872 12 2749 2750 2751
873 8 1087 1086 1088
874 8 1087 1086 1089
875 9 1088 1086 1089
876 12 2722 2723 2724
877 12 2893 2894 2895
878 12 2356 2357 2358
879 7 414 417 420
880 5 414 417 421
881 5 414 417 422
882 5 420 417 421
883 5 420 417 422
884 6 421 417 422
885 3 409 410 414
886 4 409 410 415
887 4 409 410 416
888 5 414 410 415
889 5 414 410 416
890 6 415 410 416
891 7 410 414 417
892 5 410 414 418
893 5 410 414 419
894 5 417 414 418
895 5 417 414 419
896 6 418 414 419
897 1 410 409 411
898 1 410 409 412
899 1 410 409 413
900 2 411 409 412
901 2 411 409 413
902 2 412 409 413
903 10 1086 1087 1090
904 11 1086 1087 1091
905 11 1086 1087 1092
906 5 1090 1087 1091
907 5 1090 1087 1092
908 6 1091 1087 1092
909 12 2791 2792 2793
910 5 111 114 117
911 5 111 114 118
912 5 111 114 119
913 6 117 114 118
914 6 117 114 119
915 6 118 114 119
916 12 2452 2453 2454
917 10 1761 1762 1765
918 11 1761 1762 1766
919 11 1761 1762 1767
920 5 1765 1762 1766
921 5 1765 1762 1767
922 6 1766 1762 1767
923 12 2746 2747 2748
924 8 1762 1761 1763
925 8 1762 1761 1764
926 9 1763 1761 1764
927 3 375 376 380
928 4 375 376 381
929 4 375 376 382
930 5 380 376 381
931 5 380 376 382
932 6 381 376 382
933 8 1512 1511 1513
934 8 1512 1511 1514
935 9 1513 1511 1514
936 5 1977 1980 1983
937 5 1977 1980 1984
938 5 1977 1980 1985
939 6 1983 1980 1984
940 6 1983 1980 1985
941 6 1984 1980 1985
942 7 1515 1518 1521
943 5 1515 1518 1522
944 5 1515 1518 1523
945 5 1521 1518 1522
946 5 1521 1518 1523
947 6 1522 1518 1523
948 7 376 380 383
949 5 376 380 384
950 5 376 380 385
951 5 383 380 384
952 5 383 380 385
953 6 384 380 385
954 10 1511 1512 1515
955 11 1511 1512 1516
956 11 1511 1512 1517
957 5 1515 1512 1516
958 5 1515 1512 1517
959 6 1516 1512 1517
960 7 1512 1515 1518
961 5 1512 1515 1519
962 5 1512 1515 1520
963 5 1518 1515 1519
964 5 1518 1515 1520
965 6 1519 1515 1520
966 7 380 383 386
967 5 380 383 387
968 5 380 383 388
969 5 386 383 387
970 5 386 383 388
971 6 387 383 388
972 5 383 386 389
973 5 383 386 390
974 5 383 386 391
975 6 389 386 390
976 6 389 386 391
977 6 390 386 391
978 7 1649 1652 1655
979 5 1649 1652 1656
980 5 1649 1652 1657
981 5 1655 1652 1656
982 5 1655 1652 1657
983 6 1656 1652 1657
984 7 1646 1649 1652
985 5 1646 1649 1653
986 5 1646 1649 1654
987 5 1652 1649 1653
988 5 1652 1649 1654
989 6 1653 1649 1654
990 7 1862 1865 1868
991 5 1862 1865 1869
992 5 1862 1865 1870
993 5 1868 1865 1869
994 5 1868 1865 1870
995 6 1869 1865 1870
996 7 1865 1868 1871
997 5 1865 1868 1872
998 5 1865 1868 1873
999 5 1871 1868 1872
1000 5 1871 1868 1873
1001 6 1872 1868 1873
1002 5 1652 1655 1658
1003 5 1652 1655 1659
1004 5 1652 1655 1660
1005 6 1658 1655 1659
1006 6 1658 1655 1660
1007 6 1659 1655 1660
1008 7 1871 1874 1877
1009 5 1871 1874 1878
1010 5 1871 1874 1879
1011 5 1877 1874 1878
1012 5 1877 1874 1879
1013 6 1878 1874 1879
1014 7 1868 1871 1874
1015 5 1868 1871 1875
1016 5 1868 1871 1876
1017 5 1874 1871 1875
1018 5 1874 1871 1876
1019 6 1875 1871 1876
1020 10 1861 1862 1865
1021 11 1861 1862 1866
1022 11 1861 1862 1867
1023 5 1865 1862 1866
1024 5 1865 1862 1867
1025 6 1866 1862 1867
1026 7 1762 1765 1768
1027 5 1762 1765 1769
1028 5 1762 1765 1770
1029 5 1768 1765 1769
1030 5 1768 1765 1770
1031 6 1769 1765 1770
1032 1 19 18 20
1033 1 19 18 21
1034 1 19 18 22
1035 2 20 18 21
1036 2 20 18 22
1037 2 21 18 22
1038 12 2665 2666 2667
1039 8 1862 1861 1863
1040 8 1862 1861 1864
1041 9 1863 1861 1864
1042 12 2713 2714 2715
1043 1 478 477 479
1044 1 478 477 480
1045 1 478 477 481
1046 2 479 477 480
1047 2 479 477 481
1048 2 480 477 481
1049 12 2740 2741 2742
1050 12 2560 2561 2562
1051 3 800 801 805
1052 4 800 801 806
1053 4 800 801 807
1054 5 805 801 806
1055 5 805 801 807
1056 6 806 801 807
1057 3 103 104 108
1058 4 103 104 109
1059 4 103 104 110
1060 5 108 104 109
1061 5 108 104 110
1062 6 109 104 110
1063 7 104 108 111
1064 5 104 108 112
1065 5 104 108 113
1066 5 111 108 112
1067 5 111 108 113
1068 6 112 108 113
1069 3 18 19 23
1070 4 18 19 24
1071 4 18 19 25
1072 5 23 19 24
1073 5 23 19 25
1074 6 24 19 25
1075 7 1471 1474 1477
1076 5 1471 1474 1478
1077 5 1471 1474 1479
1078 5 1477 1474 1478
1079 5 1477 1474 1479
1080 6 1478 1474 1479
1081 8 1462 1461 1463
1082 8 1462 1461 1464
1083 9 1463 1461 1464
1084 7 1468 1471 1474
1085 5 1468 1471 1475
1086 5 1468 1471 1476
1087 5 1474 1471 1475
1088 5 1474 1471 1476
1089 6 1475 1471 1476
1090 10 1461 1462 1465
1091 11 1461 1462 1466
1092 11 1461 1462 1467
1093 5 1465 1462 1466
1094 5 1465 1462 1467
1095 6 1466 1462 1467
1096 7 1462 1465 1468
1097 5 1462 1465 1469
1098 5 1462 1465 1470
1099 5 1468 1465 1469
1100 5 1468 1465 1470
1101 6 1469 1465 1470
1102 7 1465 1468 1471
1103 5 1465 1468 1472
1104 5 1465 1468 1473
1105 5 1471 1468 1472
1106 5 1471 1468 1473
1107 6 1472 1468 1473
1108 7 737 740 743
1109 5 737 740 744
1110 5 737 740 745
1111 5 743 740 744
1112 5 743 740 745
1113 6 744 740 745
1114 1 104 103 105
1115 1 104 103 106
1116 1 104 103 107
1117 2 105 103 106
1118 2 105 103 107
1119 2 106 103 107
1120 7 1346 1349 1352
1121 5 1346 1349 1353
1122 5 1346 1349 1354
1123 5 1352 1349 1353
1124 5 1352 1349 1354
1125 6 1353 1349 1354
1126 7 1340 1343 1346
1127 5 1340 1343 1347
1128 5 1340 1343 1348
1129 5 1346 1343 1347
1130 5 1346 1343 1348
1131 6 1347 1343 1348
1132 7 1343 1346 1349
1133 5 1343 1346 1350
1134 5 1343 1346 1351
1135 5 1349 1346 1350
1136 5 1349 1346 1351
1137 6 1350 1346 1351
1138 5 1352 1355 1358
1139 5 1352 1355 1359
1140 5 1352 1355 1360
1141 6 1358 1355 1359
1142 6 1358 1355 1360
1143 6 1359 1355 1360
1144 7 1893 1896 1899
1145 5 1893 1896 1900
1146 5 1893 1896 1901
1147 5 1899 1896 1900
1148 5 1899 1896 1901
1149 6 1900 1896 1901
1150 7 1890 1893 1896
1151 5 1890 1893 1897
1152 5 1890 1893 1898
1153 5 1896 1893 1897
1154 5 1896 1893 1898
1155 6 1897 1893 1898
1156 7 1887 1890 1893
1157 5 1887 1890 1894
1158 5 1887 1890 1895
1159 5 1893 1890 1894
1160 5 1893 1890 1895
1161 6 1894 1890 1895
1162 10 1886 1887 1890
1163 11 1886 1887 1891
1164 11 1886 1887 1892
1165 5 1890 1887 1891
1166 5 1890 1887 1892
1167 6 1891 1887 1892
1168 7 920 924 927
1169 5 920 924 928
1170 5 920 924 929
1171 5 927 924 928
1172 5 927 924 929
1173 6 928 924 929
1174 7 937 940 943
1175 5 937 940 944
1176 5 937 940 945
1177 5 943 940 944
1178 5 943 940 945
1179 6 944 940 945
1180 7 1896 1899 1902
1181 5 1896 1899 1903
1182 5 1896 1899 1904
1183 5 1902 1899 1903
1184 5 1902 1899 1904
1185 6 1903 1899 1904
1186 7 924 927 930
1187 5 924 927 931
1188 5 924 927 932
1189 5 930 927 931
1190 5 930 927 932
1191 6 931 927 932
1192 8 1887 1886 1888
1193 8 1887 1886 1889
1194 9 1888 1886 1889
1195 7 1499 1502 1505
1196 5 1499 1502 1506
1197 5 1499 1502 1507
1198 5 1505 1502 1506
1199 5 1505 1502 1507
1200 6 1506 1502 1507
1201 7 1490 1493 1496
1202 5 1490 1493 1497
1203 5 1490 1493 1498
1204 5 1496 1493 1497
1205 5 1496 1493 1498
1206 6 1497 1493 1498
1207 7 1493 1496 1499
1208 5 1493 1496 1500
1209 5 1493 1496 1501
1210 5 1499 1496 1500
1211 5 1499 1496 1501
1212 6 1500 1496 1501
1213 7 1496 1499 1502
1214 5 1496 1499 1503
1215 5 1496 1499 1504
1216 5 1502 1499 1503
1217 5 1502 1499 1504
1218 6 1503 1499 1504
1219 7 1487 1490 1493
1220 5 1487 1490 1494
1221 5 1487 1490 1495
1222 5 1493 1490 1494
1223 5 1493 1490 1495
1224 6 1494 1490 1495
1225 5 1502 1505 1508
1226 5 1502 1505 1509
1227 5 1502 1505 1510
1228 6 1508 1505 1509
1229 6 1508 1505 1510
1230 6 1509 1505 1510
1231 12 2365 2366 2367
1232 7 1349 1352 1355
1233 5 1349 1352 1356
1234 5 1349 1352 1357
1235 5 1355 1352 1356
1236 5 1355 1352 1357
1237 6 1356 1352 1357
1238 5 60 63 66
1239 5 60 63 67
1240 5 60 63 68
1241 6 66 63 67
1242 6 66 63 68
1243 6 67 63 68
1244 5 43 46 49
1245 5 43 46 50
1246 5 43 46 51
1247 6 49 46 50
1248 6 49 46 51
1249 6 50 46 51
1250 7 40 43 46
1251 5 40 43 47
1252 5 40 43 48
1253 5 46 43 47
1254 5 46 43 48
1255 6 47 43 48
1256 7 36 40 43
1257 5 36 40 44
1258 5 36 40 45
1259 5 43 40 44
1260 5 43 40 45
1261 6 44 40 45
1262 7 244 247 250
1263 5 244 247 251
1264 5 244 247 252
1265 5 250 247 251
1266 5 250 247 252
1267 6 251 247 252
1268 5 247 250 253
1269 5 247 250 254
1270 5 247 250 255
1271 6 253 250 254
1272 6 253 250 255
1273 6 254 250 255
1274 10 1836 1837 1840
1275 11 1836 1837 1841
1276 11 1836 1837 1842
1277 5 1840 1837 1841
1278 5 1840 1837 1842
1279 6 1841 1837 1842
1280 7 240 244 247
1281 5 240 244 248
1282 5 240 244 249
1283 5 247 244 248
1284 5 247 244 249
1285 6 248 244 249
1286 7 1787 1790 1793
1287 5 1787 1790 1794
1288 5 1787 1790 1795
1289 5 1793 1790 1794
1290 5 1793 1790 1795
1291 6 1794 1790 1795
1292 10 1786 1787 1790
1293 11 1786 1787 1791
1294 11 1786 1787 1792
1295 5 1790 1787 1791
1296 5 1790 1787 1792
1297 6 1791 1787 1792
1298 5 9 12 15
1299 5 9 12 16
1300 5 9 12 17
1301 6 15 12 16
1302 6 15 12 17
1303 6 16 12 17
1304 7 6 9 12
1305 5 6 9 13
1306 5 6 9 14
1307 5 12 9 13
1308 5 12 9 14
1309 6 13 9 14
1310 7 2 6 9
1311 5 2 6 10
1312 5 2 6 11
1313 5 9 6 10
1314 5 9 6 11
1315 6 10 6 11
1316 1 818 817 819
1317 1 818 817 820
1318 1 818 817 821
1319 2 819 817 820
1320 2 819 817 821
1321 2 820 817 821
1322 8 1787 1786 1788
1323 8 1787 1786 1789
1324 9 1788 1786 1789
1325 7 940 943 946
1326 5 940 943 947
1327 5 940 943 948
1328 5 946 943 947
1329 5 946 943 948
1330 6 947 943 948
1331 3 919 920 924
1332 4 919 920 925
1333 4 919 920 926
1334 5 924 920 925
1335 5 924 920 926
1336 6 925 920 926
1337 1 920 919 921
1338 1 920 919 922
1339 1 920 919 923
1340 2 921 919 922
1341 2 921 919 923
1342 2 922 919 923
1343 10 936 937 940
1344 11 936 937 941
1345 11 936 937 942
1346 5 940 937 941
1347 5 940 937 942
1348 6 941 937 942
1349 3 1 2 6
1350 4 1 2 7
1351 4 1 2 8
1352 5 6 2 7
1353 5 6 2 8
1354 6 7 2 8
1355 1 2 1 3
1356 1 2 1 4
1357 1 2 1 5
1358 2 3 1 4
1359 2 3 1 5
1360 2 4 1 5
1361 12 2698 2699 2700
1362 8 937 936 938
1363 8 937 936 939
1364 9 938 936 939
1365 12 2743 2744 2745
1366 5 604 607 610
1367 5 604 607 611
1368 5 604 607 612
1369 6 610 607 611
1370 6 610 607 612
1371 6 611 607 612
1372 10 1386 1387 1390
1373 11 1386 1387 1391
1374 11 1386 1387 1392
1375 5 1390 1387 1391
1376 5 1390 1387 1392
1377 6 1391 1387 1392
1378 10 1336 1337 1340
1379 11 1336 1337 1341
1380 11 1336 1337 1342
1381 5 1340 1337 1341
1382 5 1340 1337 1342
1383 6 1341 1337 1342
1384 12 2776 2777 2778
1385 7 1399 1402 1405
1386 5 1399 1402 1406
1387 5 1399 1402 1407
1388 5 1405 1402 1406
1389 5 1405 1402 1407
1390 6 1406 1402 1407
1391 5 1402 1405 1408
1392 5 1402 1405 1409
1393 5 1402 1405 1410
1394 6 1408 1405 1409
1395 6 1408 1405 1410
1396 6 1409 1405 1410
1397 8 1337 1336 1338
1398 8 1337 1336 1339
1399 9 1338 1336 1339
1400 12 2503 2504 2505
1401 7 1396 1399 1402
1402 5 1396 1399 1403
1403 5 1396 1399 1404
1404 5 1402 1399 1403
1405 5 1402 1399 1404
1406 6 1403 1399 1404
1407 7 172 176 179
1408 5 172 176 180
1409 5 172 176 181
1410 5 179 176 180
1411 5 179 176 181
1412 6 180 176 181
1413 7 1337 1340 1343
1414 5 1337 1340 1344
1415 5 1337 1340 1345
1416 5 1343 1340 1344
1417 5 1343 1340 1345
1418 6 1344 1340 1345
1419 3 171 172 176
1420 4 171 172 177
1421 4 171 172 178
1422 5 176 172 177
1423 5 176 172 178
1424 6 177 172 178
1425 1 172 171 173
1426 1 172 171 174
1427 1 172 171 175
1428 2 173 171 174
1429 2 173 171 175
1430 2 174 171 175
1431 10 1486 1487 1490
1432 11 1486 1487 1491
1433 11 1486 1487 1492
1434 5 1490 1487 1491
1435 5 1490 1487 1492
1436 6 1491 1487 1492
1437 12 2860 2861 2862
1438 3 52 53 57
1439 4 52 53 58
1440 4 52 53 59
1441 5 57 53 58
1442 5 57 53 59
1443 6 58 53 59
1444 8 1487 1486 1488
1445 8 1487 1486 1489
1446 9 1488 1486 1489
1447 1 53 52 54
1448 1 53 52 55
1449 1 53 52 56
1450 2 54 52 55
1451 2 54 52 56
1452 2 55 52 56
1453 1 784 783 785
1454 1 784 783 786
1455 1 784 783 787
1456 2 785 783 786
1457 2 785 783 787
1458 2 786 783 787
1459 12 2905 2906 2907
1460 3 783 784 788
1461 4 783 784 789
1462 4 783 784 790
1463 5 788 784 789
1464 5 788 784 790
1465 6 789 784 790
1466 8 987 986 988
1467 8 987 986 989
1468 9 988 986 989
1469 7 57 60 63
1470 5 57 60 64
1471 5 57 60 65
1472 5 63 60 64
1473 5 63 60 65
1474 6 64 60 65
1475 3 35 36 40
1476 4 35 36 41
1477 4 35 36 42
1478 5 40 36 41
1479 5 40 36 42
1480 6 41 36 42
1481 7 53 57 60
1482 5 53 57 61
1483 5 53 57 62
1484 5 60 57 61
1485 5 60 57 62
1486 6 61 57 62
1487 1 36 35 37
1488 1 36 35 38
1489 1 36 35 39
1490 2 37 35 38
1491 2 37 35 39
1492 2 38 35 39
1493 12 2725 2726 2727
1494 12 2899 2900 2901
1495 8 2112 2111 2113
1496 8 2112 2111 2114
1497 9 2113 2111 2114
1498 10 2111 2112 2115
1499 11 2111 2112 2116
1500 11 2111 2112 2117
1501 5 2115 2112 2116
1502 5 2115 2112 2117
1503 6 2116 2112 2117
1504 7 788 791 794
1505 5 788 791 795
1506 5 788 791 796
1507 5 794 791 795
1508 5 794 791 796
1509 6 795 791 796
1510 12 2407 2408 2409
1511 3 766 767 771
1512 4 766 767 772
1513 4 766 767 773
1514 5 771 767 772
1515 5 771 767 773
1516 6 772 767 773
1517 12 2458 2459 2460
1518 7 1790 1793 1796
1519 5 1790 1793 1797
1520 5 1790 1793 1798
1521 5 1796 1793 1797
1522 5 1796 1793 1798
1523 6 1797 1793 1798
1524 7 2287 2290 2293
1525 5 2287 2290 2294
1526 5 2287 2290 2295
1527 5 2293 2290 2294
1528 5 2293 2290 2295
1529 6 2294 2290 2295
1530 1 767 766 768
1531 1 767 766 769
1532 1 767 766 770
1533 2 768 766 769
1534 2 768 766 770
1535 2 769 766 770
1536 12 2692 2693 2694
1537 12 2476 2477 2478
1538 12 2716 2717 2718
1539 12 2542 2543 2544
1540 12 2959 2960 2961
1541 10 2286 2287 2290
1542 11 2286 2287 2291
1543 11 2286 2287 2292
1544 5 2290 2287 2291
1545 5 2290 2287 2292
1546 6 2291 2287 2292
1547 7 1393 1396 1399
1548 5 1393 1396 1400
1549 5 1393 1396 1401
1550 5 1399 1396 1400
1551 5 1399 1396 1401
1552 6 1400 1396 1401
1553 8 1387 1386 1388
1554 8 1387 1386 1389
1555 9 1388 1386 1389
1556 7 1390 1393 1396
1557 5 1390 1393 1397
1558 5 1390 1393 1398
1559 5 1396 1393 1397
1560 5 1396 1393 1398
1561 6 1397 1393 1398
1562 7 176 179 182
1563 5 176 179 183
1564 5 176 179 184
1565 5 182 179 183
1566 5 182 179 184
1567 6 183 179 184
1568 1 597 596 598
1569 1 597 596 599
1570 1 597 596 600
1571 2 598 596 599
1572 2 598 596 600
1573 2 599 596 600
1574 3 596 597 601
1575 4 596 597 602
1576 4 596 597 603
1577 5 601 597 602
1578 5 601 597 603
1579 6 602 597 603
1580 7 597 601 604
1581 5 597 601 605
1582 5 597 601 606
1583 5 604 601 605
1584 5 604 601 606
1585 6 605 601 606
1586 7 601 604 607
1587 5 601 604 608
1588 5 601 604 609
1589 5 607 604 608
1590 5 607 604 609
1591 6 608 604 609
1592 12 2395 2396 2397
1593 12 2812 2813 2814
1594 12 2326 2327 2328
1595 7 1387 1390 1393
1596 5 1387 1390 1394
1597 5 1387 1390 1395
1598 5 1393 1390 1394
1599 5 1393 1390 1395
1600 6 1394 1390 1395
1601 12 2839 2840 2841
1602 7 839 842 845
1603 5 839 842 846
1604 5 839 842 847
1605 5 845 842 846
1606 5 845 842 847
1607 6 846 842 847
1608 5 842 845 848
1609 5 842 845 849
1610 5 842 845 850
1611 6 848 845 849
1612 6 848 845 850
1613 6 849 845 850
1614 12 2947 2948 2949
1615 12 2554 2555 2556
1616 5 859 862 865
1617 5 859 862 866
1618 5 859 862 867
1619 6 865 862 866
1620 6 865 862 867
1621 6 866 862 867
1622 12 2422 2423 2424
1623 1 546 545 547
1624 1 546 545 548
1625 1 546 545 549
1626 2 547 545 548
1627 2 547 545 549
1628 2 548 545 549
1629 5 553 556 559
1630 5 553 556 560
1631 5 553 556 561
1632 6 559 556 560
1633 6 559 556 561
1634 6 560 556 561
1635 7 784 788 791
1636 5 784 788 792
1637 5 784 788 793
1638 5 791 788 792
1639 5 791 788 793
1640 6 792 788 793
1641 7 550 553 556
1642 5 550 553 557
1643 5 550 553 558
1644 5 556 553 557
1645 5 556 553 558
1646 6 557 553 558
1647 12 2968 2969 2970
1648 10 1061 1062 1065
1649 11 1061 1062 1066
1650 11 1061 1062 1067
1651 5 1065 1062 1066
1652 5 1065 1062 1067
1653 6 1066 1062 1067
1654 3 545 546 550
1655 4 545 546 551
1656 4 545 546 552
1657 5 550 546 551
1658 5 550 546 552
1659 6 551 546 552
1660 7 546 550 553
1661 5 546 550 554
1662 5 546 550 555
1663 5 553 550 554
1664 5 553 550 555
1665 6 554 550 555
1666 7 993 996 999
1667 5 993 996 1000
1668 5 993 996 1001
1669 5 999 996 1000
1670 5 999 996 1001
1671 6 1000 996 1001
1672 7 987 990 993
1673 5 987 990 994
1674 5 987 990 995
1675 5 993 990 994
1676 5 993 990 995
1677 6 994 990 995
1678 7 990 993 996
1679 5 990 993 997
1680 5 990 993 998
1681 5 996 993 997
1682 5 996 993 998
1683 6 997 993 998
1684 10 986 987 990
1685 11 986 987 991
1686 11 986 987 992
1687 5 990 987 991
1688 5 990 987 992
1689 6 991 987 992
1690 8 1062 1061 1063
1691 8 1062 1061 1064
1692 9 1063 1061 1064
1693 7 1062 1065 1068
1694 5 1062 1065 1069
1695 5 1062 1065 1070
1696 5 1068 1065 1069
1697 5 1068 1065 1070
1698 6 1069 1065 1070
1699 12 2587 2588 2589
1700 5 1752 1755 1758
1701 5 1752 1755 1759
1702 5 1752 1755 1760
1703 6 1758 1755 1759
1704 6 1758 1755 1760
1705 6 1759 1755 1760
1706 7 1749 1752 1755
1707 5 1749 1752 1756
1708 5 1749 1752 1757
1709 5 1755 1752 1756
1710 5 1755 1752 1757
1711 6 1756 1752 1757
1712 5 791 794 797
1713 5 791 794 798
1714 5 791 794 799
1715 6 797 794 798
1716 6 797 794 799
1717 6 798 794 799
1718 7 2112 2115 2118
1719 5 2112 2115 2119
1720 5 2112 2115 2120
1721 5 2118 2115 2119
1722 5 2118 2115 2120
1723 6 2119 2115 2120
1724 7 2115 2118 2121
1725 5 2115 2118 2122
1726 5 2115 2118 2123
1727 5 2121 2118 2122
1728 5 2121 2118 2123
1729 6 2122 2118 2123
1730 7 2118 2121 2124
1731 5 2118 2121 2125
1732 5 2118 2121 2126
1733 5 2124 2121 2125
1734 5 2124 2121 2126
1735 6 2125 2121 2126
1736 7 2121 2124 2127
1737 5 2121 2124 2128
1738 5 2121 2124 2129
1739 5 2127 2124 2128
1740 5 2127 2124 2129
1741 6 2128 2124 2129
1742 7 2124 2127 2130
1743 5 2124 2127 2131
1744 5 2124 2127 2132
1745 5 2130 2127 2131
1746 5 2130 2127 2132
1747 6 2131 2127 2132
1748 7 767 771 774
1749 5 767 771 775
1750 5 767 771 776
1751 5 774 771 775
1752 5 774 771 776
1753 6 775 771 776
1754 12 2530 2531 2532
1755 7 1368 1371 1374
1756 5 1368 1371 1375
1757 5 1368 1371 1376
1758 5 1374 1371 1375
1759 5 1374 1371 1376
1760 6 1375 1371 1376
1761 12 2881 2882 2883
1762 1 427 426 428
1763 1 427 426 429
1764 1 427 426 430
1765 2 428 426 429
1766 2 428 426 430
1767 2 429 426 430
1768 12 2656 2657 2658
1769 7 427 431 434
1770 5 427 431 435
1771 5 427 431 436
1772 5 434 431 435
1773 5 434 431 436
1774 6 435 431 436
1775 3 426 427 431
1776 4 426 427 432
1777 4 426 427 433
1778 5 431 427 432
1779 5 431 427 433
1780 6 432 427 433
1781 12 2446 2447 2448
1782 7 431 434 437
1783 5 431 434 438
1784 5 431 434 439
1785 5 437 434 438
1786 5 437 434 439
1787 6 438 434 439
1788 12 2611 2612 2613
1789 5 179 182 185
1790 5 179 182 186
1791 5 179 182 187
1792 6 185 182 186
1793 6 185 182 187
1794 6 186 182 187
1795 12 2938 2939 2940
1796 10 2061 2062 2065
1797 11 2061 2062 2066
1798 11 2061 2062 2067
1799 5 2065 2062 2066
1800 5 2065 2062 2067
1801 6 2066 2062 2067
1802 10 2211 2212 2215
1803 11 2211 2212 2216
1804 11 2211 2212 2217
1805 5 2215 2212 2216
1806 5 2215 2212 2217
1807 6 2216 2212 2217
1808 12 2800 2801 2802
1809 7 856 859 862
1810 5 856 859 863
1811 5 856 859 864
1812 5 862 859 863
1813 5 862 859 864
1814 6 863 859 864
1815 8 2212 2211 2213
1816 8 2212 2211 2214
1817 9 2213 2211 2214
1818 1 852 851 853
1819 1 852 851 854
1820 1 852 851 855
1821 2 853 851 854
1822 2 853 851 855
1823 2 854 851 855
1824 7 852 856 859
1825 5 852 856 860
1826 5 852 856 861
1827 5 859 856 860
1828 5 859 856 861
1829 6 860 856 861
1830 3 851 852 856
1831 4 851 852 857
1832 4 851 852 858
1833 5 856 852 857
1834 5 856 852 858
1835 6 857 852 858
1836 7 155 159 162
1837 5 155 159 163
1838 5 155 159 164
1839 5 162 159 163
1840 5 162 159 164
1841 6 163 159 164
1842 3 154 155 159
1843 4 154 155 160
1844 4 154 155 161
1845 5 159 155 160
1846 5 159 155 161
1847 6 160 155 161
1848 7 1571 1574 1577
1849 5 1571 1574 1578
1850 5 1571 1574 1579
1851 5 1577 1574 1578
1852 5 1577 1574 1579
1853 6 1578 1574 1579
1854 7 1568 1571 1574
1855 5 1568 1571 1575
1856 5 1568 1571 1576
1857 5 1574 1571 1575
1858 5 1574 1571 1576
1859 6 1575 1571 1576
1860 7 1565 1568 1571
1861 5 1565 1568 1572
1862 5 1565 1568 1573
1863 5 1571 1568 1572
1864 5 1571 1568 1573
1865 6 1572 1568 1573
1866 7 1574 1577 1580
1867 5 1574 1577 1581
1868 5 1574 1577 1582
1869 5 1580 1577 1581
1870 5 1580 1577 1582
1871 6 1581 1577 1582
1872 1 155 154 156
1873 1 155 154 157
1874 1 155 154 158
1875 2 156 154 157
1876 2 156 154 158
1877 2 157 154 158
1878 7 1562 1565 1568
1879 5 1562 1565 1569
1880 5 1562 1565 1570
1881 5 1568 1565 1569
1882 5 1568 1565 1570
1883 6 1569 1565 1570
1884 12 2830 2831 2832
1885 7 996 999 1002
1886 5 996 999 1003
1887 5 996 999 1004
1888 5 1002 999 1003
1889 5 1002 999 1004
1890 6 1003 999 1004
1891 7 1065 1068 1071
1892 5 1065 1068 1072
1893 5 1065 1068 1073
1894 5 1071 1068 1072
1895 5 1071 1068 1073
1896 6 1072 1068 1073
1897 5 893 896 899
1898 5 893 896 900
1899 5 893 896 901
1900 6 899 896 900
1901 6 899 896 901
1902 6 900 896 901
1903 7 1068 1071 1074
1904 5 1068 1071 1075
1905 5 1068 1071 1076
1906 5 1074 1071 1075
1907 5 1074 1071 1076
1908 6 1075 1071 1076
1909 12 2758 2759 2760
1910 5 1577 1580 1583
1911 5 1577 1580 1584
1912 5 1577 1580 1585
1913 6 1583 1580 1584
1914 6 1583 1580 1585
1915 6 1584 1580 1585
1916 7 999 1002 1005
1917 5 999 1002 1006
1918 5 999 1002 1007
1919 5 1005 1002 1006
1920 5 1005 1002 1007
1921 6 1006 1002 1007
1922 5 1002 1005 1008
1923 5 1002 1005 1009
1924 5 1002 1005 1010
1925 6 1008 1005 1009
1926 6 1008 1005 1010
1927 6 1009 1005 1010
1928 12 2653 2654 2655
1929 7 1074 1077 1080
1930 5 1074 1077 1081
1931 5 1074 1077 1082
1932 5 1080 1077 1081
1933 5 1080 1077 1082
1934 6 1081 1077 1082
1935 7 890 893 896
1936 5 890 893 897
1937 5 890 893 898
1938 5 896 893 897
1939 5 896 893 898
1940 6 897 893 898
1941 5 2127 2130 2133
1942 5 2127 2130 2134
1943 5 2127 2130 2135
1944 6 2133 2130 2134
1945 6 2133 2130 2135
1946 6 2134 2130 2135
1947 7 1071 1074 1077
1948 5 1071 1074 1078
1949 5 1071 1074 1079
1950 5 1077 1074 1078
1951 5 1077 1074 1079
1952 6 1078 1074 1079
1953 7 1765 1768 1771
1954 5 1765 1768 1772
1955 5 1765 1768 1773
1956 5 1771 1768 1772
1957 5 1771 1768 1773
1958 6 1772 1768 1773
1959 5 1077 1080 1083
1960 5 1077 1080 1084
1961 5 1077 1080 1085
1962 6 1083 1080 1084
1963 6 1083 1080 1085
1964 6 1084 1080 1085
1965 7 1774 1777 1780
1966 5 1774 1777 1781
1967 5 1774 1777 1782
1968 5 1780 1777 1781
1969 5 1780 1777 1782
1970 6 1781 1777 1782
1971 7 1771 1774 1777
1972 5 1771 1774 1778
1973 5 1771 1774 1779
1974 5 1777 1774 1778
1975 5 1777 1774 1779
1976 6 1778 1774 1779
1977 5 1777 1780 1783
1978 5 1777 1780 1784
1979 5 1777 1780 1785
1980 6 1783 1780 1784
1981 6 1783 1780 1785
1982 6 1784 1780 1785
1983 7 1768 1771 1774
1984 5 1768 1771 1775
1985 5 1768 1771 1776
1986 5 1774 1771 1775
1987 5 1774 1771 1776
1988 6 1775 1771 1776
1989 5 434 437 440
1990 5 434 437 441
1991 5 434 437 442
1992 6 440 437 441
1993 6 440 437 442
1994 6 441 437 442
1995 5 145 148 151
1996 5 145 148 152
1997 5 145 148 153
1998 6 151 148 152
1999 6 151 148 153
2000 6 152 148 153
2001 8 1362 1361 1363
2002 8 1362 1361 1364
2003 9 1363 1361 1364
2004 7 1365 1368 1371
2005 5 1365 1368 1372
2006 5 1365 1368 1373
2007 5 1371 1368 1372
2008 5 1371 1368 1373
2009 6 1372 1368 1373
2010 7 1362 1365 1368
2011 5 1362 1365 1369
2012 5 1362 1365 1370
2013 5 1368 1365 1369
2014 5 1368 1365 1370
2015 6 1369 1365 1370
2016 7 142 145 148
2017 5 142 145 149
2018 5 142 145 150
2019 5 148 145 149
2020 5 148 145 150
2021 6 149 145 150
2022 10 1361 1362 1365
2023 11 1361 1362 1366
2024 11 1361 1362 1367
2025 5 1365 1362 1366
2026 5 1365 1362 1367
2027 6 1366 1362 1367
2028 12 2848 2849 2850
2029 7 1315 1318 1321
2030 5 1315 1318 1322
2031 5 1315 1318 1323
2032 5 1321 1318 1322
2033 5 1321 1318 1323
2034 6 1322 1318 1323
2035 7 1318 1321 1324
2036 5 1318 1321 1325
2037 5 1318 1321 1326
2038 5 1324 1321 1325
2039 5 1324 1321 1326
2040 6 1325 1321 1326
2041 10 1561 1562 1565
2042 11 1561 1562 1566
2043 11 1561 1562 1567
2044 5 1565 1562 1566
2045 5 1565 1562 1567
2046 6 1566 1562 1567
2047 7 1321 1324 1327
2048 5 1321 1324 1328
2049 5 1321 1324 1329
2050 5 1327 1324 1328
2051 5 1327 1324 1329
2052 6 1328 1324 1329
2053 7 308 312 315
2054 5 308 312 316
2055 5 308 312 317
2056 5 315 312 316
2057 5 315 312 317
2058 6 316 312 317
2059 12 2641 2642 2643
2060 3 307 308 312
2061 4 307 308 313
2062 4 307 308 314
2063 5 312 308 313
2064 5 312 308 314
2065 6 313 308 314
2066 1 308 307 309
2067 1 308 307 310
2068 1 308 307 311
2069 2 309 307 310
2070 2 309 307 311
2071 2 310 307 311
2072 12 2602 2603 2604
2073 8 1562 1561 1563
2074 8 1562 1561 1564
2075 9 1563 1561 1564
2076 12 2803 2804 2805
2077 7 733 737 740
2078 5 733 737 741
2079 5 733 737 742
2080 5 740 737 741
2081 5 740 737 742
2082 6 741 737 742
2083 12 2962 2963 2964
2084 12 2383 2384 2385
2085 12 2506 2507 2508
2086 12 2377 2378 2379
2087 3 732 733 737
2088 4 732 733 738
2089 4 732 733 739
2090 5 737 733 738
2091 5 737 733 739
2092 6 738 733 739
2093 12 2431 2432 2433
2094 1 733 732 734
2095 1 733 732 735
2096 1 733 732 736
2097 2 734 732 735
2098 2 734 732 736
2099 2 735 732 736
2100 12 2572 2573 2574
2101 12 2887 2888 2889
2102 12 2623 2624 2625
2103 12 2809 2810 2811
2104 12 2878 2879 2880
2105 12 2344 2345 2346
2106 12 2659 2660 2661
2107 12 2935 2936 2937
2108 12 2923 2924 2925
2109 7 1837 1840 1843
2110 5 1837 1840 1844
2111 5 1837 1840 1845
2112 5 1843 1840 1844
2113 5 1843 1840 1845
2114 6 1844 1840 1845
2115 5 1877 1880 1883
2116 5 1877 1880 1884
2117 5 1877 1880 1885
2118 6 1883 1880 1884
2119 6 1883 1880 1885
2120 6 1884 1880 1885
2121 7 1874 1877 1880
2122 5 1874 1877 1881
2123 5 1874 1877 1882
2124 5 1880 1877 1881
2125 5 1880 1877 1882
2126 6 1881 1877 1882
2127 5 2002 2005 2008
2128 5 2002 2005 2009
2129 5 2002 2005 2010
2130 6 2008 2005 2009
2131 6 2008 2005 2010
2132 6 2009 2005 2010
2133 7 1999 2002 2005
2134 5 1999 2002 2006
2135 5 1999 2002 2007
2136 5 2005 2002 2006
2137 5 2005 2002 2007
2138 6 2006 2002 2007
2139 7 1996 1999 2002
2140 5 1996 1999 2003
2141 5 1996 1999 2004
2142 5 2002 1999 2003
2143 5 2002 1999 2004
2144 6 2003 1999 2004
2145 1 240 239 241
2146 1 240 239 242
2147 1 240 239 243
2148 2 241 239 242
2149 2 241 239 243
2150 2 242 239 243
2151 7 2140 2143 2146
2152 5 2140 2143 2147
2153 5 2140 2143 2148
2154 5 2146 2143 2147
2155 5 2146 2143 2148
2156 6 2147 2143 2148
2157 7 138 142 145
2158 5 138 142 146
2159 5 138 142 147
2160 5 145 142 146
2161 5 145 142 147
2162 6 146 142 147
2163 3 239 240 244
2164 4 239 240 245
2165 4 239 240 246
2166 5 244 240 245
2167 5 244 240 246
2168 6 245 240 246
2169 8 1987 1986 1988
2170 8 1987 1986 1989
2171 9 1988 1986 1989
2172 10 1986 1987 1990
2173 11 1986 1987 1991
2174 11 1986 1987 1992
2175 5 1990 1987 1991
2176 5 1990 1987 1992
2177 6 1991 1987 1992
2178 10 2136 2137 2140
2179 11 2136 2137 2141
2180 11 2136 2137 2142
2181 5 2140 2137 2141
2182 5 2140 2137 2142
2183 6 2141 2137 2142
2184 1 138 137 139
2185 1 138 137 140
2186 1 138 137 141
2187 2 139 137 140
2188 2 139 137 141
2189 2 140 137 141
2190 3 137 138 142
2191 4 137 138 143
2192 4 137 138 144
2193 5 142 138 143
2194 5 142 138 144
2195 6 143 138 144
2196 8 2137 2136 2138
2197 8 2137 2136 2139
2198 9 2138 2136 2139
2199 7 1987 1990 1993
2200 5 1987 1990 1994
2201 5 1987 1990 1995
2202 5 1993 1990 1994
2203 5 1993 1990 1995
2204 6 1994 1990 1995
2205 7 2143 2146 2149
2206 5 2143 2146 2150
2207 5 2143 2146 2151
2208 5 2149 2146 2150
2209 5 2149 2146 2151
2210 6 2150 2146 2151
2211 7 1993 1996 1999
2212 5 1993 1996 2000
2213 5 1993 1996 2001
2214 5 1999 1996 2000
2215 5 1999 1996 2001
2216 6 2000 1996 2001
2217 7 1990 1993 1996
2218 5 1990 1993 1997
2219 5 1990 1993 1998
2220 5 1996 1993 1997
2221 5 1996 1993 1998
2222 6 1997 1993 1998
2223 7 2137 2140 2143
2224 5 2137 2140 2144
2225 5 2137 2140 2145
2226 5 2143 2140 2144
2227 5 2143 2140 2145
2228 6 2144 2140 2145
2229 7 1537 1540 1543
2230 5 1537 1540 1544
2231 5 1537 1540 1545
2232 5 1543 1540 1544
2233 5 1543 1540 1545
2234 6 1544 1540 1545
2235 12 2494 2495 2496
2236 12 2620 2621 2622
2237 5 740 743 746
2238 5 740 743 747
2239 5 740 743 748
2240 6 746 743 747
2241 6 746 743 748
2242 6 747 743 748
2243 8 1537 1536 1538
2244 8 1537 1536 1539
2245 9 1538 1536 1539
2246 10 1536 1537 1540
2247 11 1536 1537 1541
2248 11 1536 1537 1542
2249 5 1540 1537 1541
2250 5 1540 1537 1542
2251 6 1541 1537 1542
2252 12 2629 2630 2631
2253 7 1324 1327 1330
2254 5 1324 1327 1331
2255 5 1324 1327 1332
2256 5 1330 1327 1331
2257 5 1330 1327 1332
2258 6 1331 1327 1332
2259 5 1327 1330 1333
2260 5 1327 1330 1334
2261 5 1327 1330 1335
2262 6 1333 1330 1334
2263 6 1333 1330 1335
2264 6 1334 1330 1335
2265 12 2908 2909 2910
2266 12 2953 2954 2955
2267 5 2027 2030 2033
2268 5 2027 2030 2034
2269 5 2027 2030 2035
2270 6 2033 2030 2034
2271 6 2033 2030 2035
2272 6 2034 2030 2035
2273 7 2024 2027 2030
2274 5 2024 2027 2031
2275 5 2024 2027 2032
2276 5 2030 2027 2031
2277 5 2030 2027 2032
2278 6 2031 2027 2032
2279 7 448 451 454
2280 5 448 451 455
2281 5 448 451 456
2282 5 454 451 455
2283 5 454 451 456
2284 6 455 451 456
2285 7 2021 2024 2027
2286 5 2021 2024 2028
2287 5 2021 2024 2029
2288 5 2027 2024 2028
2289 5 2027 2024 2029
2290 6 2028 2024 2029
2291 7 2018 2021 2024
2292 5 2018 2021 2025
2293 5 2018 2021 2026
2294 5 2024 2021 2025
2295 5 2024 2021 2026
2296 6 2025 2021 2026
2297 5 927 930 933
2298 5 927 930 934
2299 5 927 930 935
2300 6 933 930 934
2301 6 933 930 935
2302 6 934 930 935
2303 12 2773 2774 2775
2304 12 2872 2873 2874
2305 12 2617 2618 2619
2306 12 2401 2402 2403
2307 12 2551 2552 2553
2308 3 562 563 567
2309 4 562 563 568
2310 4 562 563 569
2311 5 567 563 568
2312 5 567 563 569
2313 6 568 563 569
2314 12 2392 2393 2394
2315 12 2500 2501 2502
2316 7 1237 1240 1243
2317 5 1237 1240 1244
2318 5 1237 1240 1245
2319 5 1243 1240 1244
2320 5 1243 1240 1245
2321 6 1244 1240 1245
2322 12 2557 2558 2559
2323 1 563 562 564
2324 1 563 562 565
2325 1 563 562 566
2326 2 564 562 565
2327 2 564 562 566
2328 2 565 562 566
2329 12 2524 2525 2526
2330 12 2608 2609 2610
2331 12 2929 2930 2931
2332 12 2731 2732 2733
2333 8 1837 1836 1838
2334 8 1837 1836 1839
2335 9 1838 1836 1839
2336 7 754 757 760
2337 5 754 757 761
2338 5 754 757 762
2339 5 760 757 761
2340 5 760 757 762
2341 6 761 757 762
2342 5 757 760 763
2343 5 757 760 764
2344 5 757 760 765
2345 6 763 760 764
2346 6 763 760 765
2347 6 764 760 765
2348 7 563 567 570
2349 5 563 567 571
2350 5 563 567 572
2351 5 570 567 571
2352 5 570 567 572
2353 6 571 567 572
2354 7 750 754 757
2355 5 750 754 758
2356 5 750 754 759
2357 5 757 754 758
2358 5 757 754 759
2359 6 758 754 759
2360 7 2274 2277 2280
2361 5 2274 2277 2281
2362 5 2274 2277 2282
2363 5 2280 2277 2281
2364 5 2280 2277 2282
2365 6 2281 2277 2282
2366 7 822 825 828
2367 5 822 825 829
2368 5 822 825 830
2369 5 828 825 829
2370 5 828 825 830
2371 6 829 825 830
2372 7 2271 2274 2277
2373 5 2271 2274 2278
2374 5 2271 2274 2279
2375 5 2277 2274 2278
2376 5 2277 2274 2279
2377 6 2278 2274 2279
2378 5 825 828 831
2379 5 825 828 832
2380 5 825 828 833
2381 6 831 828 832
2382 6 831 828 833
2383 6 832 828 833
2384 5 2277 2280 2283
2385 5 2277 2280 2284
2386 5 2277 2280 2285
2387 6 2283 2280 2284
2388 6 2283 2280 2285
2389 6 2284 2280 2285
2390 7 2268 2271 2274
2391 5 2268 2271 2275
2392 5 2268 2271 2276
2393 5 2274 2271 2275
2394 5 2274 2271 2276
2395 6 2275 2271 2276
2396 7 818 822 825
2397 5 818 822 826
2398 5 818 822 827
2399 5 825 822 826
2400 5 825 822 827
2401 6 826 822 827
2402 7 1849 1852 1855
2403 5 1849 1852 1856
2404 5 1849 1852 1857
2405 5 1855 1852 1856
2406 5 1855 1852 1857
2407 6 1856 1852 1857
2408 3 817 818 822
2409 4 817 818 823
2410 4 817 818 824
2411 5 822 818 823
2412 5 822 818 824
2413 6 823 818 824
2414 7 2149 2152 2155
2415 5 2149 2152 2156
2416 5 2149 2152 2157
2417 5 2155 2152 2156
2418 5 2155 2152 2157
2419 6 2156 2152 2157
2420 7 2146 2149 2152
2421 5 2146 2149 2153
2422 5 2146 2149 2154
2423 5 2152 2149 2153
2424 5 2152 2149 2154
2425 6 2153 2149 2154
2426 5 2152 2155 2158
2427 5 2152 2155 2159
2428 5 2152 2155 2160
2429 6 2158 2155 2159
2430 6 2158 2155 2160
2431 6 2159 2155 2160
2432 7 2265 2268 2271
2433 5 2265 2268 2272
2434 5 2265 2268 2273
2435 5 2271 2268 2272
2436 5 2271 2268 2273
2437 6 2272 2268 2273
2438 7 2262 2265 2268
2439 5 2262 2265 2269
2440 5 2262 2265 2270
2441 5 2268 2265 2269
2442 5 2268 2265 2270
2443 6 2269 2265 2270
2444 10 2261 2262 2265
2445 11 2261 2262 2266
2446 11 2261 2262 2267
2447 5 2265 2262 2266
2448 5 2265 2262 2267
2449 6 2266 2262 2267
2450 8 2262 2261 2263
2451 8 2262 2261 2264
2452 9 2263 2261 2264
2453 7 444 448 451
2454 5 444 448 452
2455 5 444 448 453
2456 5 451 448 452
2457 5 451 448 453
2458 6 452 448 453
2459 3 443 444 448
2460 4 443 444 449
2461 4 443 444 450
2462 5 448 444 449
2463 5 448 444 450
2464 6 449 444 450
2465 5 451 454 457
2466 5 451 454 458
2467 5 451 454 459
2468 6 457 454 458
2469 6 457 454 459
2470 6 458 454 459
2471 1 444 443 445
2472 1 444 443 446
2473 1 444 443 447
2474 2 445 443 446
2475 2 445 443 447
2476 2 446 443 447
2477 12 2677 2678 2679
2478 12 2827 2828 2829
2479 8 1687 1686 1688
2480 8 1687 1686 1689
2481 9 1688 1686 1689
2482 12 2350 2351 2352
2483 5 196 199 202
2484 5 196 199 203
2485 5 196 199 204
2486 6 202 199 203
2487 6 202 199 204
2488 6 203 199 204
2489 10 1686 1687 1690
2490 11 1686 1687 1691
2491 11 1686 1687 1692
2492 5 1690 1687 1691
2493 5 1690 1687 1692
2494 6 1691 1687 1692
2495 12 2896 2897 2898
2496 5 264 267 270
2497 5 264 267 271
2498 5 264 267 272
2499 6 270 267 271
2500 6 270 267 272
2501 6 271 267 272
2502 12 2425 2426 2427
2503 12 2626 2627 2628
2504 12 2515 2516 2517
2505 12 2332 2333 2334
2506 8 1587 1586 1588
2507 8 1587 1586 1589
2508 9 1588 1586 1589
2509 10 1586 1587 1590
2510 11 1586 1587 1591
2511 11 1586 1587 1592
2512 5 1590 1587 1591
2513 5 1590 1587 1592
2514 6 1591 1587 1592
2515 7 1590 1593 1596
2516 5 1590 1593 1597
2517 5 1590 1593 1598
2518 5 1596 1593 1597
2519 5 1596 1593 1598
2520 6 1597 1593 1598
2521 12 2371 2372 2373
2522 12 2632 2633 2634
2523 7 1587 1590 1593
2524 5 1587 1590 1594
2525 5 1587 1590 1595
2526 5 1593 1590 1594
2527 5 1593 1590 1595
2528 6 1594 1590 1595
2529 12 2464 2465 2466
2530 8 1162 1161 1163
2531 8 1162 1161 1164
2532 9 1163 1161 1164
2533 10 1161 1162 1165
2534 11 1161 1162 1166
2535 11 1161 1162 1167
2536 5 1165 1162 1166
2537 5 1165 1162 1167
2538 6 1166 1162 1167
2539 7 1162 1165 1168
2540 5 1162 1165 1169
2541 5 1162 1165 1170
2542 5 1168 1165 1169
2543 5 1168 1165 1170
2544 6 1169 1165 1170
2545 7 1165 1168 1171
2546 5 1165 1168 1172
2547 5 1165 1168 1173
2548 5 1171 1168 1172
2549 5 1171 1168 1173
2550 6 1172 1168 1173
2551 12 2428 2429 2430
2552 7 1168 1171 1174
2553 5 1168 1171 1175
2554 5 1168 1171 1176
2555 5 1174 1171 1175
2556 5 1174 1171 1176
2557 6 1175 1171 1176
2558 5 1127 1130 1133
2559 5 1127 1130 1134
2560 5 1127 1130 1135
2561 6 1133 1130 1134
2562 6 1133 1130 1135
2563 6 1134 1130 1135
2564 12 2533 2534 2535
2565 7 1124 1127 1130
2566 5 1124 1127 1131
2567 5 1124 1127 1132
2568 5 1130 1127 1131
2569 5 1130 1127 1132
2570 6 1131 1127 1132
2571 12 2797 2798 2799
2572 12 2911 2912 2913
2573 12 2461 2462 2463
2574 12 2338 2339 2340
2575 7 1118 1121 1124
2576 5 1118 1121 1125
2577 5 1118 1121 1126
2578 5 1124 1121 1125
2579 5 1124 1121 1126
2580 6 1125 1121 1126
2581 7 1121 1124 1127
2582 5 1121 1124 1128
2583 5 1121 1124 1129
2584 5 1127 1124 1128
2585 5 1127 1124 1129
2586 6 1128 1124 1129
2587 12 2374 2375 2376
2588 12 2368 2369 2370
2589 5 332 335 338
2590 5 332 335 339
2591 5 332 335 340
2592 6 338 335 339
2593 6 338 335 340
2594 6 339 335 340
2595 7 329 332 335
2596 5 329 332 336
2597 5 329 332 337
2598 5 335 332 336
2599 5 335 332 337
2600 6 336 332 337
2601 3 324 325 329
2602 4 324 325 330
2603 4 324 325 331
2604 5 329 325 330
2605 5 329 325 331
2606 6 330 325 331
2607 7 325 329 332
2608 5 325 329 333
2609 5 325 329 334
2610 5 332 329 333
2611 5 332 329 334
2612 6 333 329 334
2613 1 325 324 326
2614 1 325 324 327
2615 1 325 324 328
2616 2 326 324 327
2617 2 326 324 328
2618 2 327 324 328
2619 5 2227 2230 2233
2620 5 2227 2230 2234
2621 5 2227 2230 2235
2622 6 2233 2230 2234
2623 6 2233 2230 2235
2624 6 2234 2230 2235
2625 8 1137 1136 1138
2626 8 1137 1136 1139
2627 9 1138 1136 1139
2628 10 1136 1137 1140
2629 11 1136 1137 1141
2630 11 1136 1137 1142
2631 5 1140 1137 1141
2632 5 1140 1137 1142
2633 6 1141 1137 1142
2634 7 1140 1143 1146
2635 5 1140 1143 1147
2636 5 1140 1143 1148
2637 5 1146 1143 1147
2638 5 1146 1143 1148
2639 6 1147 1143 1148
2640 7 1137 1140 1143
2641 5 1137 1140 1144
2642 5 1137 1140 1145
2643 5 1143 1140 1144
2644 5 1143 1140 1145
2645 6 1144 1140 1145
2646 7 1143 1146 1149
2647 5 1143 1146 1150
2648 5 1143 1146 1151
2649 5 1149 1146 1150
2650 5 1149 1146 1151
2651 6 1150 1146 1151
2652 7 1146 1149 1152
2653 5 1146 1149 1153
2654 5 1146 1149 1154
2655 5 1152 1149 1153
2656 5 1152 1149 1154
2657 6 1153 1149 1154
2658 7 1687 1690 1693
2659 5 1687 1690 1694
2660 5 1687 1690 1695
2661 5 1693 1690 1694
2662 5 1693 1690 1695
2663 6 1694 1690 1695
2664 7 1149 1152 1155
2665 5 1149 1152 1156
2666 5 1149 1152 1157
2667 5 1155 1152 1156
2668 5 1155 1152 1157
2669 6 1156 1152 1157
2670 12 2686 2687 2688
2671 12 2650 2651 2652
2672 7 261 264 267
2673 5 261 264 268
2674 5 261 264 269
2675 5 267 264 268
2676 5 267 264 269
2677 6 268 264 269
2678 7 257 261 264
2679 5 257 261 265
2680 5 257 261 266
2681 5 264 261 265
2682 5 264 261 266
2683 6 265 261 266
2684 3 256 257 261
2685 4 256 257 262
2686 4 256 257 263
2687 5 261 257 262
2688 5 261 257 263
2689 6 262 257 263
2690 1 257 256 258
2691 1 257 256 259
2692 1 257 256 260
2693 2 258 256 259
2694 2 258 256 260
2695 2 259 256 260
2696 12 2593 2594 2595
2697 12 2548 2549 2550
2698 5 1152 1155 1158
2699 5 1152 1155 1159
2700 5 1152 1155 1160
2701 6 1158 1155 1159
2702 6 1158 1155 1160
2703 6 1159 1155 1160
2704 8 1812 1811 1813
2705 8 1812 1811 1814
2706 9 1813 1811 1814
2707 1 665 664 666
2708 1 665 664 667
2709 1 665 664 668
2710 2 666 664 667
2711 2 666 664 668
2712 2 667 664 668
2713 3 664 665 669
2714 4 664 665 670
2715 4 664 665 671
2716 5 669 665 670
2717 5 669 665 671
2718 6 670 665 671
2719 7 665 669 672
2720 5 665 669 673
2721 5 665 669 674
2722 5 672 669 673
2723 5 672 669 674
2724 6 673 669 674
2725 7 669 672 675
2726 5 669 672 676
2727 5 669 672 677
2728 5 675 672 676
2729 5 675 672 677
2730 6 676 672 677
2731 5 672 675 678
2732 5 672 675 679
2733 5 672 675 680
2734 6 678 675 679
2735 6 678 675 680
2736 6 679 675 680
2737 12 2671 2672 2673
2738 12 2638 2639 2640
2739 5 774 777 780
2740 5 774 777 781
2741 5 774 777 782
2742 6 780 777 781
2743 6 780 777 782
2744 6 781 777 782
2745 12 2440 2441 2442
2746 7 771 774 777
2747 5 771 774 778
2748 5 771 774 779
2749 5 777 774 778
2750 5 777 774 779
2751 6 778 774 779
2752 7 1174 1177 1180
2753 5 1174 1177 1181
2754 5 1174 1177 1182
2755 5 1180 1177 1181
2756 5 1180 1177 1182
2757 6 1181 1177 1182
2758 7 1171 1174 1177
2759 5 1171 1174 1178
2760 5 1171 1174 1179
2761 5 1177 1174 1178
2762 5 1177 1174 1179
2763 6 1178 1174 1179
2764 7 1371 1374 1377
2765 5 1371 1374 1378
2766 5 1371 1374 1379
2767 5 1377 1374 1378
2768 5 1377 1374 1379
2769 6 1378 1374 1379
2770 7 1374 1377 1380
2771 5 1374 1377 1381
2772 5 1374 1377 1382
2773 5 1380 1377 1381
2774 5 1380 1377 1382
2775 6 1381 1377 1382
2776 5 1177 1180 1183
2777 5 1177 1180 1184
2778 5 1177 1180 1185
2779 6 1183 1180 1184
2780 6 1183 1180 1185
2781 6 1184 1180 1185
2782 7 2224 2227 2230
2783 5 2224 2227 2231
2784 5 2224 2227 2232
2785 5 2230 2227 2231
2786 5 2230 2227 2232
2787 6 2231 2227 2232
2788 5 1202 1205 1208
2789 5 1202 1205 1209
2790 5 1202 1205 1210
2791 6 1208 1205 1209
2792 6 1208 1205 1210
2793 6 1209 1205 1210
2794 5 1377 1380 1383
2795 5 1377 1380 1384
2796 5 1377 1380 1385
2797 6 1383 1380 1384
2798 6 1383 1380 1385
2799 6 1384 1380 1385
2800 7 1199 1202 1205
2801 5 1199 1202 1206
2802 5 1199 1202 1207
2803 5 1205 1202 1206
2804 5 1205 1202 1207
2805 6 1206 1202 1207
2806 7 1690 1693 1696
2807 5 1690 1693 1697
2808 5 1690 1693 1698
2809 5 1696 1693 1697
2810 5 1696 1693 1698
2811 6 1697 1693 1698
2812 7 2221 2224 2227
2813 5 2221 2224 2228
2814 5 2221 2224 2229
2815 5 2227 2224 2228
2816 5 2227 2224 2229
2817 6 2228 2224 2229
2818 7 1696 1699 1702
2819 5 1696 1699 1703
2820 5 1696 1699 1704
2821 5 1702 1699 1703
2822 5 1702 1699 1704
2823 6 1703 1699 1704
2824 7 1699 1702 1705
2825 5 1699 1702 1706
2826 5 1699 1702 1707
2827 5 1705 1702 1706
2828 5 1705 1702 1707
2829 6 1706 1702 1707
2830 7 1693 1696 1699
2831 5 1693 1696 1700
2832 5 1693 1696 1701
2833 5 1699 1696 1700
2834 5 1699 1696 1701
2835 6 1700 1696 1701
2836 7 2218 2221 2224
2837 5 2218 2221 2225
2838 5 2218 2221 2226
2839 5 2224 2221 2225
2840 5 2224 2221 2226
2841 6 2225 2221 2226
2842 7 2215 2218 2221
2843 5 2215 2218 2222
2844 5 2215 2218 2223
2845 5 2221 2218 2222
2846 5 2221 2218 2223
2847 6 2222 2218 2223
2848 7 2212 2215 2218
2849 5 2212 2215 2219
2850 5 2212 2215 2220
2851 5 2218 2215 2219
2852 5 2218 2215 2220
2853 6 2219 2215 2220
2854 7 159 162 165
2855 5 159 162 166
2856 5 159 162 167
2857 5 165 162 166
2858 5 165 162 167
2859 6 166 162 167
2860 5 1827 1830 1833
2861 5 1827 1830 1834
2862 5 1827 1830 1835
2863 6 1833 1830 1834
2864 6 1833 1830 1835
2865 6 1834 1830 1835
2866 7 1824 1827 1830
2867 5 1824 1827 1831
2868 5 1824 1827 1832
2869 5 1830 1827 1831
2870 5 1830 1827 1832
2871 6 1831 1827 1832
2872 5 162 165 168
2873 5 162 165 169
2874 5 162 165 170
2875 6 168 165 169
2876 6 168 165 170
2877 6 169 165 170
2878 7 1821 1824 1827
2879 5 1821 1824 1828
2880 5 1821 1824 1829
2881 5 1827 1824 1828
2882 5 1827 1824 1829
2883 6 1828 1824 1829
2884 12 2566 2567 2568
2885 7 1818 1821 1824
2886 5 1818 1821 1825
2887 5 1818 1821 1826
2888 5 1824 1821 1825
2889 5 1824 1821 1826
2890 6 1825 1821 1826
2891 10 1811 1812 1815
2892 11 1811 1812 1816
2893 11 1811 1812 1817
2894 5 1815 1812 1816
2895 5 1815 1812 1817
2896 6 1816 1812 1817
2897 7 1812 1815 1818
2898 5 1812 1815 1819
2899 5 1812 1815 1820
2900 5 1818 1815 1819
2901 5 1818 1815 1820
2902 6 1819 1815 1820
2903 7 1815 1818 1821
2904 5 1815 1818 1822
2905 5 1815 1818 1823
2906 5 1821 1818 1822
2907 5 1821 1818 1823
2908 6 1822 1818 1823
2909 7 1437 1440 1443
2910 5 1437 1440 1444
2911 5 1437 1440 1445
2912 5 1443 1440 1444
2913 5 1443 1440 1445
2914 6 1444 1440 1445
2915 7 1440 1443 1446
2916 5 1440 1443 1447
2917 5 1440 1443 1448
2918 5 1446 1443 1447
2919 5 1446 1443 1448
2920 6 1447 1443 1448
2921 1 87 86 88
2922 1 87 86 89
2923 1 87 86 90
2924 2 88 86 89
2925 2 88 86 90
2926 2 89 86 90
2927 7 1443 1446 1449
2928 5 1443 1446 1450
2929 5 1443 1446 1451
2930 5 1449 1446 1450
2931 5 1449 1446 1451
2932 6 1450 1446 1451
2933 10 1436 1437 1440
2934 11 1436 1437 1441
2935 11 1436 1437 1442
2936 5 1440 1437 1441
2937 5 1440 1437 1442
2938 6 1441 1437 1442
2939 7 886 890 893
2940 5 886 890 894
2941 5 886 890 895
2942 5 893 890 894
2943 5 893 890 895
2944 6 894 890 895
2945 3 86 87 91
2946 4 86 87 92
2947 4 86 87 93
2948 5 91 87 92
2949 5 91 87 93
2950 6 92 87 93
2951 7 1449 1452 1455
2952 5 1449 1452 1456
2953 5 1449 1452 1457
2954 5 1455 1452 1456
2955 5 1455 1452 1457
2956 6 1456 1452 1457
2957 5 1452 1455 1458
2958 5 1452 1455 1459
2959 5 1452 1455 1460
2960 6 1458 1455 1459
2961 6 1458 1455 1460
2962 6 1459 1455 1460
2963 7 1446 1449 1452
2964 5 1446 1449 1453
2965 5 1446 1449 1454
2966 5 1452 1449 1453
2967 5 1452 1449 1454
2968 6 1453 1449 1454
2969 10 2036 2037 2040
2970 11 2036 2037 2041
2971 11 2036 2037 2042
2972 5 2040 2037 2041
2973 5 2040 2037 2042
2974 6 2041 2037 2042
2975 8 2037 2036 2038
2976 8 2037 2036 2039
2977 9 2038 2036 2039
2978 7 2037 2040 2043
2979 5 2037 2040 2044
2980 5 2037 2040 2045
2981 5 2043 2040 2044
2982 5 2043 2040 2045
2983 6 2044 2040 2045
2984 7 2096 2099 2102
2985 5 2096 2099 2103
2986 5 2096 2099 2104
2987 5 2102 2099 2103
2988 5 2102 2099 2104
2989 6 2103 2099 2104
2990 7 2093 2096 2099
2991 5 2093 2096 2100
2992 5 2093 2096 2101
2993 5 2099 2096 2100
2994 5 2099 2096 2101
2995 6 2100 2096 2101
2996 12 2470 2471 2472
2997 5 2102 2105 2108
2998 5 2102 2105 2109
2999 5 2102 2105 2110
3000 6 2108 2105 2109
3001 6 2108 2105 2110
3002 6 2109 2105 2110
3003 7 2099 2102 2105
3004 5 2099 2102 2106
3005 5 2099 2102 2107
3006 5 2105 2102 2106
3007 5 2105 2102 2107
3008 6 2106 2102 2107
3009 5 213 216 219
3010 5 213 216 220
3011 5 213 216 221
3012 6 219 216 220
3013 6 219 216 221
3014 6 220 216 221
3015 7 206 210 213
3016 5 206 210 214
3017 5 206 210 215
3018 5 213 210 214
3019 5 213 210 215
3020 6 214 210 215
3021 7 210 213 216
3022 5 210 213 217
3023 5 210 213 218
3024 5 216 213 217
3025 5 216 213 218
3026 6 217 213 218
3027 3 205 206 210
3028 4 205 206 211
3029 4 205 206 212
3030 5 210 206 211
3031 5 210 206 212
3032 6 211 206 212
3033 5 1702 1705 1708
3034 5 1702 1705 1709
3035 5 1702 1705 1710
3036 6 1708 1705 1709
3037 6 1708 1705 1710
3038 6 1709 1705 1710
3039 7 312 315 318
3040 5 312 315 319
3041 5 312 315 320
3042 5 318 315 319
3043 5 318 315 320
3044 6 319 315 320
3045 5 315 318 321
3046 5 315 318 322
3047 5 315 318 323
3048 6 321 318 322
3049 6 321 318 323
3050 6 322 318 323
3051 12 2473 2474 2475
3052 12 2491 2492 2493
3053 12 2488 2489 2490
3054 12 2821 2822 2823
3055 12 2755 2756 2757
3056 1 206 205 207
3057 1 206 205 208
3058 1 206 205 209
3059 2 207 205 208
3060 2 207 205 209
3061 2 208 205 209
3062 12 2728 2729 2730
3063 5 621 624 627
3064 5 621 624 628
3065 5 621 624 629
3066 6 627 624 628
3067 6 627 624 629
3068 6 628 624 629
3069 12 2770 2771 2772
3070 7 618 621 624
3071 5 618 621 625
3072 5 618 621 626
3073 5 624 621 625
3074 5 624 621 626
3075 6 625 621 626
3076 7 614 618 621
3077 5 614 618 622
3078 5 614 618 623
3079 5 621 618 622
3080 5 621 618 623
3081 6 622 618 623
3082 5 706 709 712
3083 5 706 709 713
3084 5 706 709 714
3085 6 712 709 713
3086 6 712 709 714
3087 6 713 709 714
3088 3 613 614 618
3089 4 613 614 619
3090 4 613 614 620
3091 5 618 614 619
3092 5 618 614 620
3093 6 619 614 620
3094 5 1052 1055 1058
3095 5 1052 1055 1059
3096 5 1052 1055 1060
3097 6 1058 1055 1059
3098 6 1058 1055 1060
3099 6 1059 1055 1060
3100 7 703 706 709
3101 5 703 706 710
3102 5 703 706 711
3103 5 709 706 710
3104 5 709 706 711
3105 6 710 706 711
3106 1 614 613 615
3107 1 614 613 616
3108 1 614 613 617
3109 2 615 613 616
3110 2 615 613 617
3111 2 616 613 617
3112 8 1237 1236 1238
3113 8 1237 1236 1239
3114 9 1238 1236 1239
3115 3 885 886 890
3116 4 885 886 891
3117 4 885 886 892
3118 5 890 886 891
3119 5 890 886 892
3120 6 891 886 892
3121 7 699 703 706
3122 5 699 703 707
3123 5 699 703 708
3124 5 706 703 707
3125 5 706 703 708
3126 6 707 703 708
3127 1 886 885 887
3128 1 886 885 888
3129 1 886 885 889
3130 2 887 885 888
3131 2 887 885 889
3132 2 888 885 889
3133 3 698 699 703
3134 4 698 699 704
3135 4 698 699 705
3136 5 703 699 704
3137 5 703 699 705
3138 6 704 699 705
3139 1 699 698 700
3140 1 699 698 701
3141 1 699 698 702
3142 2 700 698 701
3143 2 700 698 702
3144 2 701 698 702
3145 8 1437 1436 1438
3146 8 1437 1436 1439
3147 9 1438 1436 1439
3148 12 2521 2522 2523
3149 12 2875 2876 2877
3150 1 903 902 904
3151 1 903 902 905
3152 1 903 902 906
3153 2 904 902 905
3154 2 904 902 906
3155 2 905 902 906
3156 7 1843 1846 1849
3157 5 1843 1846 1850
3158 5 1843 1846 1851
3159 5 1849 1846 1850
3160 5 1849 1846 1851
3161 6 1850 1846 1851
3162 12 2818 2819 2820
3163 7 2090 2093 2096
3164 5 2090 2093 2097
3165 5 2090 2093 2098
3166 5 2096 2093 2097
3167 5 2096 2093 2098
3168 6 2097 2093 2098
3169 12 2866 2867 2868
3170 10 2086 2087 2090
3171 11 2086 2087 2091
3172 11 2086 2087 2092
3173 5 2090 2087 2091
3174 5 2090 2087 2092
3175 6 2091 2087 2092
3176 7 2087 2090 2093
3177 5 2087 2090 2094
3178 5 2087 2090 2095
3179 5 2093 2090 2094
3180 5 2093 2090 2095
3181 6 2094 2090 2095
3182 1 750 749 751
3183 1 750 749 752
3184 1 750 749 753
3185 2 751 749 752
3186 2 751 749 753
3187 2 752 749 753
3188 3 749 750 754
3189 4 749 750 755
3190 4 749 750 756
3191 5 754 750 755
3192 5 754 750 756
3193 6 755 750 756
3194 8 2087 2086 2088
3195 8 2087 2086 2089
3196 9 2088 2086 2089
3197 5 1952 1955 1958
3198 5 1952 1955 1959
3199 5 1952 1955 1960
3200 6 1958 1955 1959
3201 6 1958 1955 1960
3202 6 1959 1955 1960
3203 12 2854 2855 2856
3204 7 1846 1849 1852
3205 5 1846 1849 1853
3206 5 1846 1849 1854
3207 5 1852 1849 1853
3208 5 1852 1849 1854
3209 6 1853 1849 1854
3210 12 2737 2738 2739
3211 7 1840 1843 1846
3212 5 1840 1843 1847
3213 5 1840 1843 1848
3214 5 1846 1843 1847
3215 5 1846 1843 1848
3216 6 1847 1843 1848
3217 5 1852 1855 1858
3218 5 1852 1855 1859
3219 5 1852 1855 1860
3220 6 1858 1855 1859
3221 6 1858 1855 1860
3222 6 1859 1855 1860
3223 7 1949 1952 1955
3224 5 1949 1952 1956
3225 5 1949 1952 1957
3226 5 1955 1952 1956
3227 5 1955 1952 1957
3228 6 1956 1952 1957
3229 7 1946 1949 1952
3230 5 1946 1949 1953
3231 5 1946 1949 1954
3232 5 1952 1949 1953
3233 5 1952 1949 1954
3234 6 1953 1949 1954
3235 7 1546 1549 1552
3236 5 1546 1549 1553
3237 5 1546 1549 1554
3238 5 1552 1549 1553
3239 5 1552 1549 1554
3240 6 1553 1549 1554
3241 5 1552 1555 1558
3242 5 1552 1555 1559
3243 5 1552 1555 1560
3244 6 1558 1555 1559
3245 6 1558 1555 1560
3246 6 1559 1555 1560
3247 7 1549 1552 1555
3248 5 1549 1552 1556
3249 5 1549 1552 1557
3250 5 1555 1552 1556
3251 5 1555 1552 1557
3252 6 1556 1552 1557
3253 7 2171 2174 2177
3254 5 2171 2174 2178
3255 5 2171 2174 2179
3256 5 2177 2174 2178
3257 5 2177 2174 2179
3258 6 2178 2174 2179
3259 5 2177 2180 2183
3260 5 2177 2180 2184
3261 5 2177 2180 2185
3262 6 2183 2180 2184
3263 6 2183 2180 2185
3264 6 2184 2180 2185
3265 7 2174 2177 2180
3266 5 2174 2177 2181
3267 5 2174 2177 2182
3268 5 2180 2177 2181
3269 5 2180 2177 2182
3270 6 2181 2177 2182
3271 7 2168 2171 2174
3272 5 2168 2171 2175
3273 5 2168 2171 2176
3274 5 2174 2171 2175
3275 5 2174 2171 2176
3276 6 2175 2171 2176
3277 7 2015 2018 2021
3278 5 2015 2018 2022
3279 5 2015 2018 2023
3280 5 2021 2018 2022
3281 5 2021 2018 2023
3282 6 2022 2018 2023
3283 10 2011 2012 2015
3284 11 2011 2012 2016
3285 11 2011 2012 2017
3286 5 2015 2012 2016
3287 5 2015 2012 2017
3288 6 2016 2012 2017
3289 8 2012 2011 2013
3290 8 2012 2011 2014
3291 9 2013 2011 2014
3292 7 2012 2015 2018
3293 5 2012 2015 2019
3294 5 2012 2015 2020
3295 5 2018 2015 2019
3296 5 2018 2015 2020
3297 6 2019 2015 2020
3298 7 1543 1546 1549
3299 5 1543 1546 1550
3300 5 1543 1546 1551
3301 5 1549 1546 1550
3302 5 1549 1546 1551
3303 6 1550 1546 1551
3304 12 2767 2768 2769
3305 7 1540 1543 1546
3306 5 1540 1543 1547
3307 5 1540 1543 1548
3308 5 1546 1543 1547
3309 5 1546 1543 1548
3310 6 1547 1543 1548
3311 12 2329 2330 2331
3312 12 2674 2675 2676
3313 7 1240 1243 1246
3314 5 1240 1243 1247
3315 5 1240 1243 1248
3316 5 1246 1243 1247
3317 5 1246 1243 1248
3318 6 1247 1243 1248
3319 7 1915 1918 1921
3320 5 1915 1918 1922
3321 5 1915 1918 1923
3322 5 1921 1918 1922
3323 5 1921 1918 1923
3324 6 1922 1918 1923
3325 12 2323 2324 2325
3326 10 1911 1912 1915
3327 11 1911 1912 1916
3328 11 1911 1912 1917
3329 5 1915 1912 1916
3330 5 1915 1912 1917
3331 6 1916 1912 1917
3332 7 1912 1915 1918
3333 5 1912 1915 1919
3334 5 1912 1915 1920
3335 5 1918 1915 1919
3336 5 1918 1915 1920
3337 6 1919 1915 1920
3338 8 1912 1911 1913
3339 8 1912 1911 1914
3340 9 1913 1911 1914
3341 7 1918 1921 1924
3342 5 1918 1921 1925
3343 5 1918 1921 1926
3344 5 1924 1921 1925
3345 5 1924 1921 1926
3346 6 1925 1921 1926
3347 12 2443 2444 2445
3348 7 1243 1246 1249
3349 5 1243 1246 1250
3350 5 1243 1246 1251
3351 5 1249 1246 1250
3352 5 1249 1246 1251
3353 6 1250 1246 1251
3354 7 1249 1252 1255
3355 5 1249 1252 1256
3356 5 1249 1252 1257
3357 5 1255 1252 1256
3358 5 1255 1252 1257
3359 6 1256 1252 1257
3360 7 1246 1249 1252
3361 5 1246 1249 1253
3362 5 1246 1249 1254
3363 5 1252 1249 1253
3364 5 1252 1249 1254
3365 6 1253 1249 1254
3366 10 1236 1237 1240
3367 11 1236 1237 1241
3368 11 1236 1237 1242
3369 5 1240 1237 1241
3370 5 1240 1237 1242
3371 6 1241 1237 1242
3372 5 723 726 729
3373 5 723 726 730
3374 5 723 726 731
3375 6 729 726 730
3376 6 729 726 731
3377 6 730 726 731
3378 7 869 873 876
3379 5 869 873 877
3380 5 869 873 878
3381 5 876 873 877
3382 5 876 873 878
3383 6 877 873 878
3384 5 876 879 882
3385 5 876 879 883
3386 5 876 879 884
3387 6 882 879 883
3388 6 882 879 884
3389 6 883 879 884
3390 7 873 876 879
3391 5 873 876 880
3392 5 873 876 881
3393 5 879 876 880
3394 5 879 876 881
3395 6 880 876 881
3396 5 1927 1930 1933
3397 5 1927 1930 1934
3398 5 1927 1930 1935
3399 6 1933 1930 1934
3400 6 1933 1930 1935
3401 6 1934 1930 1935
3402 7 567 570 573
3403 5 567 570 574
3404 5 567 570 575
3405 5 573 570 574
3406 5 573 570 575
3407 6 574 570 575
3408 5 570 573 576
3409 5 570 573 577
3410 5 570 573 578
3411 6 576 573 577
3412 6 576 573 578
3413 6 577 573 578
3414 7 720 723 726
3415 5 720 723 727
3416 5 720 723 728
3417 5 726 723 727
3418 5 726 723 728
3419 6 727 723 728
3420 1 716 715 717
3421 1 716 715 718
3422 1 716 715 719
3423 2 717 715 718
3424 2 717 715 719
3425 2 718 715 719
3426 7 716 720 723
3427 5 716 720 724
3428 5 716 720 725
3429 5 723 720 724
3430 5 723 720 725
3431 6 724 720 725
3432 3 715 716 720
3433 4 715 716 721
3434 4 715 716 722
3435 5 720 716 721
3436 5 720 716 722
3437 6 721 716 722
3438 5 1427 1430 1433
3439 5 1427 1430 1434
3440 5 1427 1430 1435
3441 6 1433 1430 1434
3442 6 1433 1430 1435
3443 6 1434 1430 1435
3444 12 2410 2411 2412
3445 8 1112 1111 1113
3446 8 1112 1111 1114
3447 9 1113 1111 1114
3448 10 1111 1112 1115
3449 11 1111 1112 1116
3450 11 1111 1112 1117
3451 5 1115 1112 1116
3452 5 1115 1112 1117
3453 6 1116 1112 1117
3454 7 1112 1115 1118
3455 5 1112 1115 1119
3456 5 1112 1115 1120
3457 5 1118 1115 1119
3458 5 1118 1115 1120
3459 6 1119 1115 1120
3460 3 222 223 227
3461 4 222 223 228
3462 4 222 223 229
3463 5 227 223 228
3464 5 227 223 229
3465 6 228 223 229
3466 12 2311 2312 2313
3467 12 2569 2570 2571
3468 12 2842 2843 2844
3469 5 128 131 134
3470 5 128 131 135
3471 5 128 131 136
3472 6 134 131 135
3473 6 134 131 136
3474 6 135 131 136
3475 1 223 222 224
3476 1 223 222 225
3477 1 223 222 226
3478 2 224 222 225
3479 2 224 222 226
3480 2 225 222 226
3481 5 689 692 695
3482 5 689 692 696
3483 5 689 692 697
3484 6 695 692 696
3485 6 695 692 697
3486 6 696 692 697
3487 12 2647 2648 2649
3488 12 2944 2945 2946
3489 12 2845 2846 2847
3490 12 2341 2342 2343
3491 12 2668 2669 2670
3492 1 682 681 683
3493 1 682 681 684
3494 1 682 681 685
3495 2 683 681 684
3496 2 683 681 685
3497 2 684 681 685
3498 7 682 686 689
3499 5 682 686 690
3500 5 682 686 691
3501 5 689 686 690
3502 5 689 686 691
3503 6 690 686 691
3504 7 193 196 199
3505 5 193 196 200
3506 5 193 196 201
3507 5 199 196 200
3508 5 199 196 201
3509 6 200 196 201
3510 12 2890 2891 2892
3511 12 2635 2636 2637
3512 12 2752 2753 2754
3513 12 2479 2480 2481
3514 12 2449 2450 2451
3515 7 189 193 196
3516 5 189 193 197
3517 5 189 193 198
3518 5 196 193 197
3519 5 196 193 198
3520 6 197 193 198
3521 7 346 349 352
3522 5 346 349 353
3523 5 346 349 354
3524 5 352 349 353
3525 5 352 349 354
3526 6 353 349 354
3527 3 188 189 193
3528 4 188 189 194
3529 4 188 189 195
3530 5 193 189 194
3531 5 193 189 195
3532 6 194 189 195
3533 3 868 869 873
3534 4 868 869 874
3535 4 868 869 875
3536 5 873 869 874
3537 5 873 869 875
3538 6 874 869 875
3539 12 2389 2390 2391
3540 12 2527 2528 2529
3541 5 587 590 593
3542 5 587 590 594
3543 5 587 590 595
3544 6 593 590 594
3545 6 593 590 595
3546 6 594 590 595
3547 7 1593 1596 1599
3548 5 1593 1596 1600
3549 5 1593 1596 1601
3550 5 1599 1596 1600
3551 5 1599 1596 1601
3552 6 1600 1596 1601
3553 3 579 580 584
3554 4 579 580 585
3555 4 579 580 586
3556 5 584 580 585
3557 5 584 580 586
3558 6 585 580 586
3559 5 1602 1605 1608
3560 5 1602 1605 1609
3561 5 1602 1605 1610
3562 6 1608 1605 1609
3563 6 1608 1605 1610
3564 6 1609 1605 1610
3565 7 1599 1602 1605
3566 5 1599 1602 1606
3567 5 1599 1602 1607
3568 5 1605 1602 1606
3569 5 1605 1602 1607
3570 6 1606 1602 1607
3571 7 1596 1599 1602
3572 5 1596 1599 1603
3573 5 1596 1599 1604
3574 5 1602 1599 1603
3575 5 1602 1599 1604
3576 6 1603 1599 1604
3577 7 584 587 590
3578 5 584 587 591
3579 5 584 587 592
3580 5 590 587 591
3581 5 590 587 592
3582 6 591 587 592
3583 7 580 584 587
3584 5 580 584 588
3585 5 580 584 589
3586 5 587 584 588
3587 5 587 584 589
3588 6 588 584 589
3589 1 580 579 581
3590 1 580 579 582
3591 1 580 579 583
3592 2 581 579 582
3593 2 581 579 583
3594 2 582 579 583
3595 12 2314 2315 2316
3596 1 869 868 870
3597 1 869 868 871
3598 1 869 868 872
3599 2 870 868 871
3600 2 870 868 872
3601 2 871 868 872
3602 8 1212 1211 1213
3603 8 1212 1211 1214
3604 9 1213 1211 1214
3605 12 2884 2885 2886
3606 10 1211 1212 1215
3607 11 1211 1212 1216
3608 11 1211 1212 1217
3609 5 1215 1212 1216
3610 5 1215 1212 1217
3611 6 1216 1212 1217
3612 7 1115 1118 1121
3613 5 1115 1118 1122
3614 5 1115 1118 1123
3615 5 1121 1118 1122
3616 5 1121 1118 1123
3617 6 1122 1118 1123
3618 12 2956 2957 2958
3619 12 2704 2705 2706
3620 1 121 120 122
3621 1 121 120 123
3622 1 121 120 124
3623 2 122 120 123
3624 2 122 120 124
3625 2 123 120 124
3626 12 2719 2720 2721
3627 7 125 128 131
3628 5 125 128 132
3629 5 125 128 133
3630 5 131 128 132
3631 5 131 128 133
3632 6 132 128 133
3633 5 468 471 474
3634 5 468 471 475
3635 5 468 471 476
3636 6 474 471 475
3637 6 474 471 476
3638 6 475 471 476
3639 3 120 121 125
3640 4 120 121 126
3641 4 120 121 127
3642 5 125 121 126
3643 5 125 121 127
3644 6 126 121 127
3645 7 121 125 128
3646 5 121 125 129
3647 5 121 125 130
3648 5 128 125 129
3649 5 128 125 130
3650 6 129 125 130
3651 12 2950 2951 2952
3652 7 465 468 471
3653 5 465 468 472
3654 5 465 468 473
3655 5 471 468 472
3656 5 471 468 473
3657 6 472 468 473
3658 7 461 465 468
3659 5 461 465 469
3660 5 461 465 470
3661 5 468 465 469
3662 5 468 465 470
3663 6 469 465 470
3664 12 2590 2591 2592
3665 3 460 461 465
3666 4 460 461 466
3667 4 460 461 467
3668 5 465 461 466
3669 5 465 461 467
3670 6 466 461 467
3671 10 961 962 965
3672 11 961 962 966
3673 11 961 962 967
3674 5 965 962 966
3675 5 965 962 967
3676 6 966 962 967
3677 7 342 346 349
3678 5 342 346 350
3679 5 342 346 351
3680 5 349 346 350
3681 5 349 346 351
3682 6 350 346 351
3683 3 341 342 346
3684 4 341 342 347
3685 4 341 342 348
3686 5 346 342 347
3687 5 346 342 348
3688 6 347 342 348
3689 12 2941 2942 2943
3690 12 2734 2735 2736
3691 1 461 460 462
3692 1 461 460 463
3693 1 461 460 464
3694 2 462 460 463
3695 2 462 460 464
3696 2 463 460 464
3697 8 962 961 963
3698 8 962 961 964
3699 9 963 961 964
3700 1 342 341 343
3701 1 342 341 344
3702 1 342 341 345
3703 2 343 341 344
3704 2 343 341 345
3705 2 344 341 345
3706 8 1187 1186 1188
3707 8 1187 1186 1189
3708 9 1188 1186 1189
3709 12 2437 2438 2439
3710 12 2419 2420 2421
3711 12 2434 2435 2436
3712 1 189 188 190
3713 1 189 188 191
3714 1 189 188 192
3715 2 190 188 191
3716 2 190 188 192
3717 2 191 188 192
3718 8 1287 1286 1288
3719 8 1287 1286 1289
3720 9 1288 1286 1289
3721 12 2404 2405 2406
3722 12 2857 2858 2859
3723 1 274 273 275
3724 1 274 273 276
3725 1 274 273 277
3726 2 275 273 276
3727 2 275 273 277
3728 2 276 273 277
3729 10 1286 1287 1290
3730 11 1286 1287 1291
3731 11 1286 1287 1292
3732 5 1290 1287 1291
3733 5 1290 1287 1292
3734 6 1291 1287 1292
3735 7 1287 1290 1293
3736 5 1287 1290 1294
3737 5 1287 1290 1295
3738 5 1293 1290 1294
3739 5 1293 1290 1295
3740 6 1294 1290 1295
3741 12 2317 2318 2319
3742 12 2851 2852 2853
3743 10 1711 1712 1715
3744 11 1711 1712 1716
3745 11 1711 1712 1717
3746 5 1715 1712 1716
3747 5 1715 1712 1717
3748 6 1716 1712 1717
3749 12 2926 2927 2928
3750 8 1712 1711 1713
3751 8 1712 1711 1714
3752 9 1713 1711 1714
3753 7 1712 1715 1718
3754 5 1712 1715 1719
3755 5 1712 1715 1720
3756 5 1718 1715 1719
3757 5 1718 1715 1720
3758 6 1719 1715 1720
3759 7 529 533 536
3760 5 529 533 537
3761 5 529 533 538
3762 5 536 533 537
3763 5 536 533 538
3764 6 537 533 538
3765 7 533 536 539
3766 5 533 536 540
3767 5 533 536 541
3768 5 539 536 540
3769 5 539 536 541
3770 6 540 536 541
3771 12 2455 2456 2457
3772 5 1727 1730 1733
3773 5 1727 1730 1734
3774 5 1727 1730 1735
3775 6 1733 1730 1734
3776 6 1733 1730 1735
3777 6 1734 1730 1735
3778 7 1724 1727 1730
3779 5 1724 1727 1731
3780 5 1724 1727 1732
3781 5 1730 1727 1731
3782 5 1730 1727 1732
3783 6 1731 1727 1732
3784 7 1715 1718 1721
3785 5 1715 1718 1722
3786 5 1715 1718 1723
3787 5 1721 1718 1722
3788 5 1721 1718 1723
3789 6 1722 1718 1723
3790 7 1718 1721 1724
3791 5 1718 1721 1725
3792 5 1718 1721 1726
3793 5 1724 1721 1725
3794 5 1724 1721 1726
3795 6 1725 1721 1726
3796 7 1721 1724 1727
3797 5 1721 1724 1728
3798 5 1721 1724 1729
3799 5 1727 1724 1728
3800 5 1727 1724 1729
3801 6 1728 1724 1729
3802 12 2965 2966 2967
3803 12 2362 2363 2364
3804 12 2683 2684 2685
3805 5 2252 2255 2258
3806 5 2252 2255 2259
3807 5 2252 2255 2260
3808 6 2258 2255 2259
3809 6 2258 2255 2260
3810 6 2259 2255 2260
3811 3 528 529 533
3812 4 528 529 534
3813 4 528 529 535
3814 5 533 529 534
3815 5 533 529 535
3816 6 534 529 535
3817 7 2246 2249 2252
3818 5 2246 2249 2253
3819 5 2246 2249 2254
3820 5 2252 2249 2253
3821 5 2252 2249 2254
3822 6 2253 2249 2254
3823 7 2249 2252 2255
3824 5 2249 2252 2256
3825 5 2249 2252 2257
3826 5 2255 2252 2256
3827 5 2255 2252 2257
3828 6 2256 2252 2257
3829 8 2237 2236 2238
3830 8 2237 2236 2239
3831 9 2238 2236 2239
3832 10 2236 2237 2240
3833 11 2236 2237 2241
3834 11 2236 2237 2242
3835 5 2240 2237 2241
3836 5 2240 2237 2242
3837 6 2241 2237 2242
3838 7 2237 2240 2243
3839 5 2237 2240 2244
3840 5 2237 2240 2245
3841 5 2243 2240 2244
3842 5 2243 2240 2245
3843 6 2244 2240 2245
3844 7 2243 2246 2249
3845 5 2243 2246 2250
3846 5 2243 2246 2251
3847 5 2249 2246 2250
3848 5 2249 2246 2251
3849 6 2250 2246 2251
3850 7 2240 2243 2246
3851 5 2240 2243 2247
3852 5 2240 2243 2248
3853 5 2246 2243 2247
3854 5 2246 2243 2248
3855 6 2247 2243 2248
3856 5 298 301 304
3857 5 298 301 305
3858 5 298 301 306
3859 6 304 301 305
3860 6 304 301 306
3861 6 305 301 306
3862 3 273 274 278
3863 4 273 274 279
3864 4 273 274 280
3865 5 278 274 279
3866 5 278 274 280
3867 6 279 274 280
3868 10 1186 1187 1190
3869 11 1186 1187 1191
3870 11 1186 1187 1192
3871 5 1190 1187 1191
3872 5 1190 1187 1192
3873 6 1191 1187 1192
3874 7 1187 1190 1193
3875 5 1187 1190 1194
3876 5 1187 1190 1195
3877 5 1193 1190 1194
3878 5 1193 1190 1195
3879 6 1194 1190 1195
3880 5 1102 1105 1108
3881 5 1102 1105 1109
3882 5 1102 1105 1110
3883 6 1108 1105 1109
3884 6 1108 1105 1110
3885 6 1109 1105 1110
3886 7 1196 1199 1202
3887 5 1196 1199 1203
3888 5 1196 1199 1204
3889 5 1202 1199 1203
3890 5 1202 1199 1204
3891 6 1203 1199 1204
3892 7 1193 1196 1199
3893 5 1193 1196 1200
3894 5 1193 1196 1201
3895 5 1199 1196 1200
3896 5 1199 1196 1201
3897 6 1200 1196 1201
3898 7 274 278 281
3899 5 274 278 282
3900 5 274 278 283
3901 5 281 278 282
3902 5 281 278 283
3903 6 282 278 283
3904 5 281 284 287
3905 5 281 284 288
3906 5 281 284 289
3907 6 287 284 288
3908 6 287 284 289
3909 6 288 284 289
3910 7 1190 1193 1196
3911 5 1190 1193 1197
3912 5 1190 1193 1198
3913 5 1196 1193 1197
3914 5 1196 1193 1198
3915 6 1197 1193 1198
3916 7 278 281 284
3917 5 278 281 285
3918 5 278 281 286
3919 5 284 281 285
3920 5 284 281 286
3921 6 285 281 286
3922 7 295 298 301
3923 5 295 298 302
3924 5 295 298 303
3925 5 301 298 302
3926 5 301 298 303
3927 6 302 298 303
3928 7 1290 1293 1296
3929 5 1290 1293 1297
3930 5 1290 1293 1298
3931 5 1296 1293 1297
3932 5 1296 1293 1298
3933 6 1297 1293 1298
3934 7 1668 1671 1674
3935 5 1668 1671 1675
3936 5 1668 1671 1676
3937 5 1674 1671 1675
3938 5 1674 1671 1676
3939 6 1675 1671 1676
3940 7 1299 1302 1305
3941 5 1299 1302 1306
3942 5 1299 1302 1307
3943 5 1305 1302 1306
3944 5 1305 1302 1307
3945 6 1306 1302 1307
3946 7 1296 1299 1302
3947 5 1296 1299 1303
3948 5 1296 1299 1304
3949 5 1302 1299 1303
3950 5 1302 1299 1304
3951 6 1303 1299 1304
3952 7 1671 1674 1677
3953 5 1671 1674 1678
3954 5 1671 1674 1679
3955 5 1677 1674 1678
3956 5 1677 1674 1679
3957 6 1678 1674 1679
3958 7 1293 1296 1299
3959 5 1293 1296 1300
3960 5 1293 1296 1301
3961 5 1299 1296 1300
3962 5 1299 1296 1301
3963 6 1300 1296 1301
3964 7 1674 1677 1680
3965 5 1674 1677 1681
3966 5 1674 1677 1682
3967 5 1680 1677 1681
3968 5 1680 1677 1682
3969 6 1681 1677 1682
3970 5 1677 1680 1683
3971 5 1677 1680 1684
3972 5 1677 1680 1685
3973 6 1683 1680 1684
3974 6 1683 1680 1685
3975 6 1684 1680 1685
3976 5 1302 1305 1308
3977 5 1302 1305 1309
3978 5 1302 1305 1310
3979 6 1308 1305 1309
3980 6 1308 1305 1310
3981 6 1309 1305 1310
3982 12 2836 2837 2838
3983 12 2539 2540 2541
3984 1 529 528 530
3985 1 529 528 531
3986 1 529 528 532
3987 2 530 528 531
3988 2 530 528 532
3989 2 531 528 532
3990 7 87 91 94
3991 5 87 91 95
3992 5 87 91 96
3993 5 94 91 95
3994 5 94 91 96
3995 6 95 91 96
3996 12 2563 2564 2565
3997 10 1961 1962 1965
3998 11 1961 1962 1966
3999 11 1961 1962 1967
4000 5 1965 1962 1966
4001 5 1965 1962 1967
4002 6 1966 1962 1967
4003 5 94 97 100
4004 5 94 97 101
4005 5 94 97 102
4006 6 100 97 101
4007 6 100 97 102
4008 6 101 97 102
4009 7 91 94 97
4010 5 91 94 98
4011 5 91 94 99
4012 5 97 94 98
4013 5 97 94 99
4014 6 98 94 99
4015 12 2689 2690 2691
4016 8 1962 1961 1963
4017 8 1962 1961 1964
4018 9 1963 1961 1964
4019 12 2833 2834 2835
4020 12 2785 2786 2787
4021 7 2040 2043 2046
4022 5 2040 2043 2047
4023 5 2040 2043 2048
4024 5 2046 2043 2047
4025 5 2046 2043 2048
4026 6 2047 2043 2048
4027 12 2482 2483 2484
4028 12 2779 2780 2781
4029 12 2512 2513 2514
4030 5 2052 2055 2058
4031 5 2052 2055 2059
4032 5 2052 2055 2060
4033 6 2058 2055 2059
4034 6 2058 2055 2060
4035 6 2059 2055 2060
4036 7 2046 2049 2052
4037 5 2046 2049 2053
4038 5 2046 2049 2054
4039 5 2052 2049 2053
4040 5 2052 2049 2054
4041 6 2053 2049 2054
4042 12 2701 2702 2703
4043 12 2596 2597 2598
4044 7 635 638 641
4045 5 635 638 642
4046 5 635 638 643
4047 5 641 638 642
4048 5 641 638 643
4049 6 642 638 643
4050 5 638 641 644
4051 5 638 641 645
4052 5 638 641 646
4053 6 644 641 645
4054 6 644 641 646
4055 6 645 641 646
4056 7 2049 2052 2055
4057 5 2049 2052 2056
4058 5 2049 2052 2057
4059 5 2055 2052 2056
4060 5 2055 2052 2057
4061 6 2056 2052 2057
4062 7 2043 2046 2049
4063 5 2043 2046 2050
4064 5 2043 2046 2051
4065 5 2049 2046 2050
4066 5 2049 2046 2051
4067 6 2050 2046 2051
4068 12 2320 2321 2322
4069 7 291 295 298
4070 5 291 295 299
4071 5 291 295 300
4072 5 298 295 299
4073 5 298 295 300
4074 6 299 295 300
4075 7 1937 1940 1943
4076 5 1937 1940 1944
4077 5 1937 1940 1945
4078 5 1943 1940 1944
4079 5 1943 1940 1945
4080 6 1944 1940 1945
4081 12 2545 2546 2547
4082 7 1099 1102 1105
4083 5 1099 1102 1106
4084 5 1099 1102 1107
4085 5 1105 1102 1106
4086 5 1105 1102 1107
4087 6 1106 1102 1107
4088 7 1096 1099 1102
4089 5 1096 1099 1103
4090 5 1096 1099 1104
4091 5 1102 1099 1103
4092 5 1102 1099 1104
4093 6 1103 1099 1104
4094 1 291 290 292
4095 1 291 290 293
4096 1 291 290 294
4097 2 292 290 293
4098 2 292 290 294
4099 2 293 290 294
4100 3 290 291 295
4101 4 290 291 296
4102 4 290 291 297
4103 5 295 291 296
4104 5 295 291 297
4105 6 296 291 297
4106 12 2761 2762 2763
4107 12 2869 2870 2871
4108 7 1087 1090 1093
4109 5 1087 1090 1094
4110 5 1087 1090 1095
4111 5 1093 1090 1094
4112 5 1093 1090 1095
4113 6 1094 1090 1095
4114 7 1093 1096 1099
4115 5 1093 1096 1100
4116 5 1093 1096 1101
4117 5 1099 1096 1100
4118 5 1099 1096 1101
4119 6 1100 1096 1101
4120 7 1090 1093 1096
4121 5 1090 1093 1097
4122 5 1090 1093 1098
4123 5 1096 1093 1097
4124 5 1096 1093 1098
4125 6 1097 1093 1098
4126 12 2467 2468 2469
4127 7 1049 1052 1055
4128 5 1049 1052 1056
4129 5 1049 1052 1057
4130 5 1055 1052 1056
4131 5 1055 1052 1057
4132 6 1056 1052 1057
4133 5 1252 1255 1258
4134 5 1252 1255 1259
4135 5 1252 1255 1260
4136 6 1258 1255 1259
4137 6 1258 1255 1260
4138 6 1259 1255 1260
4139 5 910 913 916
4140 5 910 913 917
4141 5 910 913 918
4142 6 916 913 917
4143 6 916 913 918
4144 6 917 913 918
4145 7 1046 1049 1052
4146 5 1046 1049 1053
4147 5 1046 1049 1054
4148 5 1052 1049 1053
4149 5 1052 1049 1054
4150 6 1053 1049 1054
4151 7 1043 1046 1049
4152 5 1043 1046 1050
4153 5 1043 1046 1051
4154 5 1049 1046 1050
4155 5 1049 1046 1051
4156 6 1050 1046 1051
4157 7 1974 1977 1980
4158 5 1974 1977 1981
4159 5 1974 1977 1982
4160 5 1980 1977 1981
4161 5 1980 1977 1982
4162 6 1981 1977 1982
4163 7 1968 1971 1974
4164 5 1968 1971 1975
4165 5 1968 1971 1976
4166 5 1974 1971 1975
4167 5 1974 1971 1976
4168 6 1975 1971 1976
4169 7 907 910 913
4170 5 907 910 914
4171 5 907 910 915
4172 5 913 910 914
4173 5 913 910 915
4174 6 914 910 915
4175 7 1962 1965 1968
4176 5 1962 1965 1969
4177 5 1962 1965 1970
4178 5 1968 1965 1969
4179 5 1968 1965 1970
4180 6 1969 1965 1970
4181 7 1965 1968 1971
4182 5 1965 1968 1972
4183 5 1965 1968 1973
4184 5 1971 1968 1972
4185 5 1971 1968 1973
4186 6 1972 1968 1973
4187 7 903 907 910
4188 5 903 907 911
4189 5 903 907 912
4190 5 910 907 911
4191 5 910 907 912
4192 6 911 907 912
4193 3 902 903 907
4194 4 902 903 908
4195 4 902 903 909
4196 5 907 903 908
4197 5 907 903 909
4198 6 908 903 909
4199 12 2932 2933 2934
4200 12 2536 2537 2538
4201 7 1971 1974 1977
4202 5 1971 1974 1978
4203 5 1971 1974 1979
4204 5 1977 1974 1978
4205 5 1977 1974 1979
4206 6 1978 1974 1979
4207 7 1424 1427 1430
4208 5 1424 1427 1431
4209 5 1424 1427 1432
4210 5 1430 1427 1431
4211 5 1430 1427 1432
4212 6 1431 1427 1432
4213 12 2416 2417 2418
4214 12 2359 2360 2361
4215 12 2662 2663 2664
4216 7 1421 1424 1427
4217 5 1421 1424 1428
4218 5 1421 1424 1429
4219 5 1427 1424 1428
4220 5 1427 1424 1429
4221 6 1428 1424 1429
4222 7 1418 1421 1424
4223 5 1418 1421 1425
4224 5 1418 1421 1426
4225 5 1424 1421 1425
4226 5 1424 1421 1426
4227 6 1425 1421 1426
4228 8 2162 2161 2163
4229 8 2162 2161 2164
4230 9 2163 2161 2164
4231 7 1412 1415 1418
4232 5 1412 1415 1419
4233 5 1412 1415 1420
4234 5 1418 1415 1419
4235 5 1418 1415 1420
4236 6 1419 1415 1420
4237 7 1940 1943 1946
4238 5 1940 1943 1947
4239 5 1940 1943 1948
4240 5 1946 1943 1947
4241 5 1946 1943 1948
4242 6 1947 1943 1948
4243 7 2165 2168 2171
4244 5 2165 2168 2172
4245 5 2165 2168 2173
4246 5 2171 2168 2172
4247 5 2171 2168 2173
4248 6 2172 2168 2173
4249 7 1943 1946 1949
4250 5 1943 1946 1950
4251 5 1943 1946 1951
4252 5 1949 1946 1950
4253 5 1949 1946 1951
4254 6 1950 1946 1951
4255 10 2161 2162 2165
4256 11 2161 2162 2166
4257 11 2161 2162 2167
4258 5 2165 2162 2166
4259 5 2165 2162 2167
4260 6 2166 2162 2167
4261 8 1937 1936 1938
4262 8 1937 1936 1939
4263 9 1938 1936 1939
4264 7 2162 2165 2168
4265 5 2162 2165 2169
4266 5 2162 2165 2170
4267 5 2168 2165 2169
4268 5 2168 2165 2170
4269 6 2169 2165 2170
4270 10 1936 1937 1940
4271 11 1936 1937 1941
4272 11 1936 1937 1942
4273 5 1940 1937 1941
4274 5 1940 1937 1942
4275 6 1941 1937 1942
4276 10 1411 1412 1415
4277 11 1411 1412 1416
4278 11 1411 1412 1417
4279 5 1415 1412 1416
4280 5 1415 1412 1417
4281 6 1416 1412 1417
4282 1 801 800 802
4283 1 801 800 803
4284 1 801 800 804
4285 2 802 800 803
4286 2 802 800 804
4287 2 803 800 804
4288 7 1415 1418 1421
4289 5 1415 1418 1422
4290 5 1415 1418 1423
4291 5 1421 1418 1422
4292 5 1421 1418 1423
4293 6 1422 1418 1423
4294 8 1412 1411 1413
4295 8 1412 1411 1414
4296 9 1413 1411 1414
4297 12 2605 2606 2607
4298 7 1040 1043 1046
4299 5 1040 1043 1047
4300 5 1040 1043 1048
4301 5 1046 1043 1047
4302 5 1046 1043 1048
4303 6 1047 1043 1048
4304 12 2764 2765 2766
4305 3 681 682 686
4306 4 681 682 687
4307 4 681 682 688
4308 5 686 682 687
4309 5 686 682 688
4310 6 687 682 688
4311 10 1036 1037 1040
4312 11 1036 1037 1041
4313 11 1036 1037 1042
4314 5 1040 1037 1041
4315 5 1040 1037 1042
4316 6 1041 1037 1042
4317 7 801 805 808
4318 5 801 805 809
4319 5 801 805 810
4320 5 808 805 809
4321 5 808 805 810
4322 6 809 805 810
4323 12 2578 2579 2580
4324 7 686 689 692
4325 5 686 689 693
4326 5 686 689 694
4327 5 692 689 693
4328 5 692 689 694
4329 6 693 689 694
4330 7 1037 1040 1043
4331 5 1037 1040 1044
4332 5 1037 1040 1045
4333 5 1043 1040 1044
4334 5 1043 1040 1045
4335 6 1044 1040 1045
4336 12 2509 2510 2511
4337 8 1037 1036 1038
4338 8 1037 1036 1039
4339 9 1038 1036 1039
4340 7 108 111 114
4341 5 108 111 115
4342 5 108 111 116
4343 5 114 111 115
4344 5 114 111 116
4345 6 115 111 116

Dihedrals

1 7 955 952 949 946
2 4 955 952 949 953
3 4 955 952 949 954
4 4 956 952 949 946
5 6 956 952 949 953
6 6 956 952 949 954
7 4 957 952 949 946
8 6 957 952 949 953
9 6 957 952 949 954
10 4 958 955 952 949
11 6 958 955 952 956
12 6 958 955 952 957
13 4 959 955 952 949
14 6 959 955 952 956
15 6 959 955 952 957
16 4 960 955 952 949
17 6 960 955 952 956
18 6 960 955 952 957
19 7 952 949 946 943
20 4 952 949 946 950
21 4 952 949 946 951
22 4 953 949 946 943
23 6 953 949 946 950
24 6 953 949 946 951
25 4 954 949 946 943
26 6 954 949 946 950
27 6 954 949 946 951
28 7 949 946 943 940
29 4 949 946 943 947
30 4 949 946 943 948
31 4 950 946 943 940
32 6 950 946 943 947
33 6 950 946 943 948
34 4 951 946 943 940
35 6 951 946 943 947
36 6 951 946 943 948
37 4 983 980 977 974
38 6 983 980 977 981
39 6 983 980 977 982
40 4 984 980 977 974
41 6 984 980 977 981
42 6 984 980 977 982
43 4 985 980 977 974
44 6 985 980 977 981
45 6 985 980 977 982
46 4 1483 1480 1477 1474
47 6 1483 1480 1477 1481
48 6 1483 1480 1477 1482
49 4 1484 1480 1477 1474
50 6 1484 1480 1477 1481
51 6 1484 1480 1477 1482
52 4 1485 1480 1477 1474
53 6 1485 1480 1477 1481
54 6 1485 1480 1477 1482
55 7 1927 1924 1921 1918
56 4 1927 1924 1921 1925
57 4 1927 1924 1921 1926
58 4 1928 1924 1921 1918
59 6 1928 1924 1921 1925
60 6 1928 1924 1921 1926
61 4 1929 1924 1921 1918
62 6 1929 1924 1921 1925
63 6 1929 1924 1921 1926
64 7 1930 1927 1924 1921
65 4 1930 1927 1924 1928
66 4 1930 1927 1924 1929
67 4 1931 1927 1924 1921
68 6 1931 1927 1924 1928
69 6 1931 1927 1924 1929
70 4 1932 1927 1924 1921
71 6 1932 1927 1924 1928
72 6 1932 1927 1924 1929
73 4 1533 1530 1527 1524
74 6 1533 1530 1527 1531
75 6 1533 1530 1527 1532
76 4 1534 1530 1527 1524
77 6 1534 1530 1527 1531
78 6 1534 1530 1527 1532
79 4 1535 1530 1527 1524
80 6 1535 1530 1527 1531
81 6 1535 1530 1527 1532
82 7 1530 1527 1524 1521
83 4 1530 1527 1524 1528
84 4 1530 1527 1524 1529
85 4 1531 1527 1524 1521
86 6 1531 1527 1524 1528
87 6 1531 1527 1524 1529
88 4 1532 1527 1524 1521
89 6 1532 1527 1524 1528
90 6 1532 1527 1524 1529
91 7 1527 1524 1521 1518
92 4 1527 1524 1521 1525
93 4 1527 1524 1521 1526
94 4 1528 1524 1521 1518
95 6 1528 1524 1521 1525
96 6 1528 1524 1521 1526
97 4 1529 1524 1521 1518
98 6 1529 1524 1521 1525
99 6 1529 1524 1521 1526
100 7 1280 1277 1274 1271
101 4 1280 1277 1274 1278
102 4 1280 1277 1274 1279
103 4 1281 1277 1274 1271
104 6 1281 1277 1274 1278
105 6 1281 1277 1274 1279
106 4 1282 1277 1274 1271
107 6 1282 1277 1274 1278
108 6 1282 1277 1274 1279
109 7 1274 1271 1268 1265
110 4 1274 1271 1268 1272
111 4 1274 1271 1268 1273
112 4 1275 1271 1268 1265
113 6 1275 1271 1268 1272
114 6 1275 1271 1268 1273
115 4 1276 1271 1268 1265
116 6 1276 1271 1268 1272
117 6 1276 1271 1268 1273
118 7 1277 1274 1271 1268
119 4 1277 1274 1271 1275
120 4 1277 1274 1271 1276
121 4 1278 1274 1271 1268
122 6 1278 1274 1271 1275
123 6 1278 1274 1271 1276
124 4 1279 1274 1271 1268
125 6 1279 1274 1271 1275
126 6 1279 1274 1271 1276
127 4 1283 1280 1277 1274
128 6 1283 1280 1277 1281
129 6 1283 1280 1277 1282
130 4 1284 1280 1277 1274
131 6 1284 1280 1277 1281
132 6 1284 1280 1277 1282
133 4 1285 1280 1277 1274
134 6 1285 1280 1277 1281
135 6 1285 1280 1277 1282
136 7 1524 1521 1518 1515
137 4 1524 1521 1518 1522
138 4 1524 1521 1518 1523
139 4 1525 1521 1518 1515
140 6 1525 1521 1518 1522
141 6 1525 1521 1518 1523
142 4 1526 1521 1518 1515
143 6 1526 1521 1518 1522
144 6 1526 1521 1518 1523
145 7 1905 1902 1899 1896
146 4 1905 1902 1899 1903
147 4 1905 1902 1899 1904
148 4 1906 1902 1899 1896
149 6 1906 1902 1899 1903
150 6 1906 1902 1899 1904
151 4 1907 1902 1899 1896
152 6 1907 1902 1899 1903
153 6 1907 1902 1899 1904
154 7 1271 1268 1265 1262
155 4 1271 1268 1265 1269
156 4 1271 1268 1265 1270
157 4 1272 1268 1265 1262
158 6 1272 1268 1265 1269
159 6 1272 1268 1265 1270
160 4 1273 1268 1265 1262
161 6 1273 1268 1265 1269
162 6 1273 1268 1265 1270
163 10 1268 1265 1262 1261
164 4 1268 1265 1262 1266
165 4 1268 1265 1262 1267
166 11 1269 1265 1262 1261
167 6 1269 1265 1262 1266
168 6 1269 1265 1262 1267
169 11 1270 1265 1262 1261
170 6 1270 1265 1262 1266
171 6 1270 1265 1262 1267
172 7 1649 1646 1643 1640
173 4 1649 1646 1643 1647
174 4 1649 1646 1643 1648
175 4 1650 1646 1643 1640
176 6 1650 1646 1643 1647
177 6 1650 1646 1643 1648
178 4 1651 1646 1643 1640
179 6 1651 1646 1643 1647
180 6 1651 1646 1643 1648
181 4 236 233 230 227
182 6 236 233 230 234
183 6 236 233 230 235
184 4 237 233 230 227
185 6 237 233 230 234
186 6 237 233 230 235
187 4 238 233 230 227
188 6 238 233 230 234
189 6 238 233 230 235
190 8 1265 1262 1261 1263
191 8 1265 1262 1261 1264
192 9 1266 1262 1261 1263
193 9 1266 1262 1261 1264
194 9 1267 1262 1261 1263
195 9 1267 1262 1261 1264
196 12 1262 1263 1261 1264
197 3 230 227 223 222
198 4 230 227 223 228
199 4 230 227 223 229
200 5 231 227 223 222
201 6 231 227 223 228
202 6 231 227 223 229
203 5 232 227 223 222
204 6 232 227 223 228
205 6 232 227 223 229
206 7 1646 1643 1640 1637
207 4 1646 1643 1640 1644
208 4 1646 1643 1640 1645
209 4 1647 1643 1640 1637
210 6 1647 1643 1640 1644
211 6 1647 1643 1640 1645
212 4 1648 1643 1640 1637
213 6 1648 1643 1640 1644
214 6 1648 1643 1640 1645
215 10 1643 1640 1637 1636
216 4 1643 1640 1637 1641
217 4 1643 1640 1637 1642
218 11 1644 1640 1637 1636
219 6 1644 1640 1637 1641
220 6 1644 1640 1637 1642
221 11 1645 1640 1637 1636
222 6 1645 1640 1637 1641
223 6 1645 1640 1637 1642
224 8 1640 1637 1636 1638
225 8 1640 1637 1636 1639
226 9 1641 1637 1636 1638
227 9 1641 1637 1636 1639
228 9 1642 1637 1636 1638
229 9 1642 1637 1636 1639
230 4 2308 2305 2302 2299
231 6 2308 2305 2302 2306
232 6 2308 2305 2302 2307
233 4 2309 2305 2302 2299
234 6 2309 2305 2302 2306
235 6 2309 2305 2302 2307
236 4 2310 2305 2302 2299
237 6 2310 2305 2302 2306
238 6 2310 2305 2302 2307
239 12 1637 1638 1636 1639
240 7 233 230 227 223
241 4 233 230 227 231
242 4 233 230 227 232
243 4 234 230 227 223
244 6 234 230 227 231
245 6 234 230 227 232
246 4 235 230 227 223
247 6 235 230 227 231
248 6 235 230 227 232
249 7 1799 1796 1793 1790
250 4 1799 1796 1793 1797
251 4 1799 1796 1793 1798
252 4 1800 1796 1793 1790
253 6 1800 1796 1793 1797
254 6 1800 1796 1793 1798
255 4 1801 1796 1793 1790
256 6 1801 1796 1793 1797
257 6 1801 1796 1793 1798
258 7 980 977 974 971
259 4 980 977 974 978
260 4 980 977 974 979
261 4 981 977 974 971
262 6 981 977 974 978
263 6 981 977 974 979
264 4 982 977 974 971
265 6 982 977 974 978
266 6 982 977 974 979
267 3 26 23 19 18
268 4 26 23 19 24
269 4 26 23 19 25
270 5 27 23 19 18
271 6 27 23 19 24
272 6 27 23 19 25
273 5 28 23 19 18
274 6 28 23 19 24
275 6 28 23 19 25
276 4 32 29 26 23
277 6 32 29 26 30
278 6 32 29 26 31
279 4 33 29 26 23
280 6 33 29 26 30
281 6 33 29 26 31
282 4 34 29 26 23
283 6 34 29 26 30
284 6 34 29 26 31
285 7 29 26 23 19
286 4 29 26 23 27
287 4 29 26 23 28
288 4 30 26 23 19
289 6 30 26 23 27
290 6 30 26 23 28
291 4 31 26 23 19
292 6 31 26 23 27
293 6 31 26 23 28
294 7 977 974 971 968
295 4 977 974 971 975
296 4 977 974 971 976
297 4 978 974 971 968
298 6 978 974 971 975
299 6 978 974 971 976
300 4 979 974 971 968
301 6 979 974 971 975
302 6 979 974 971 976
303 7 974 971 968 965
304 4 974 971 968 972
305 4 974 971 968 973
306 4 975 971 968 965
307 6 975 971 968 972
308 6 975 971 968 973
309 4 976 971 968 965
310 6 976 971 968 972
311 6 976 971 968 973
312 4 814 811 808 805
313 6 814 811 808 812
314 6 814 811 808 813
315 4 815 811 808 805
316 6 815 811 808 812
317 6 815 811 808 813
318 4 816 811 808 805
319 6 816 811 808 812
320 6 816 811 808 813
321 7 1480 1477 1474 1471
322 4 1480 1477 1474 1478
323 4 1480 1477 1474 1479
324 4 1481 1477 1474 1471
325 6 1481 1477 1474 1478
326 6 1481 1477 1474 1479
327 4 1482 1477 1474 1471
328 6 1482 1477 1474 1478
329 6 1482 1477 1474 1479
330 7 811 808 805 801
331 4 811 808 805 809
332 4 811 808 805 810
333 4 812 808 805 801
334 6 812 808 805 809
335 6 812 808 805 810
336 4 813 808 805 801
337 6 813 808 805 809
338 6 813 808 805 810
339 7 1630 1627 1624 1621
340 4 1630 1627 1624 1628
341 4 1630 1627 1624 1629
342 4 1631 1627 1624 1621
343 6 1631 1627 1624 1628
344 6 1631 1627 1624 1629
345 4 1632 1627 1624 1621
346 6 1632 1627 1624 1628
347 6 1632 1627 1624 1629
348 7 1627 1624 1621 1618
349 4 1627 1624 1621 1625
350 4 1627 1624 1621 1626
351 4 1628 1624 1621 1618
352 6 1628 1624 1621 1625
353 6 1628 1624 1621 1626
354 4 1629 1624 1621 1618
355 6 1629 1624 1621 1625
356 6 1629 1624 1621 1626
357 4 355 352 349 346
358 6 355 352 349 353
359 6 355 352 349 354
360 4 356 352 349 346
361 6 356 352 349 353
362 6 356 352 349 354
363 4 357 352 349 346
364 6 357 352 349 353
365 6 357 352 349 354
366 7 2074 2071 2068 2065
367 4 2074 2071 2068 2072
368 4 2074 2071 2068 2073
369 4 2075 2071 2068 2065
370 6 2075 2071 2068 2072
371 6 2075 2071 2068 2073
372 4 2076 2071 2068 2065
373 6 2076 2071 2068 2072
374 6 2076 2071 2068 2073
375 10 2068 2065 2062 2061
376 4 2068 2065 2062 2066
377 4 2068 2065 2062 2067
378 11 2069 2065 2062 2061
379 6 2069 2065 2062 2066
380 6 2069 2065 2062 2067
381 11 2070 2065 2062 2061
382 6 2070 2065 2062 2066
383 6 2070 2065 2062 2067
384 4 1633 1630 1627 1624
385 6 1633 1630 1627 1631
386 6 1633 1630 1627 1632
387 4 1634 1630 1627 1624
388 6 1634 1630 1627 1631
389 6 1634 1630 1627 1632
390 4 1635 1630 1627 1624
391 6 1635 1630 1627 1631
392 6 1635 1630 1627 1632
393 7 2080 2077 2074 2071
394 4 2080 2077 2074 2078
395 4 2080 2077 2074 2079
396 4 2081 2077 2074 2071
397 6 2081 2077 2074 2078
398 6 2081 2077 2074 2079
399 4 2082 2077 2074 2071
400 6 2082 2077 2074 2078
401 6 2082 2077 2074 2079
402 4 2083 2080 2077 2074
403 6 2083 2080 2077 2081
404 6 2083 2080 2077 2082
405 4 2084 2080 2077 2074
406 6 2084 2080 2077 2081
407 6 2084 2080 2077 2082
408 4 2085 2080 2077 2074
409 6 2085 2080 2077 2081
410 6 2085 2080 2077 2082
411 7 2077 2074 2071 2068
412 4 2077 2074 2071 2075
413 4 2077 2074 2071 2076
414 4 2078 2074 2071 2068
415 6 2078 2074 2071 2075
416 6 2078 2074 2071 2076
417 4 2079 2074 2071 2068
418 6 2079 2074 2071 2075
419 6 2079 2074 2071 2076
420 7 2071 2068 2065 2062
421 4 2071 2068 2065 2069
422 4 2071 2068 2065 2070
423 4 2072 2068 2065 2062
424 6 2072 2068 2065 2069
425 6 2072 2068 2065 2070
426 4 2073 2068 2065 2062
427 6 2073 2068 2065 2069
428 6 2073 2068 2065 2070
429 12 2187 2188 2186 2189
430 4 1233 1230 1227 1224
431 6 1233 1230 1227 1231
432 6 1233 1230 1227 1232
433 4 1234 1230 1227 1224
434 6 1234 1230 1227 1231
435 6 1234 1230 1227 1232
436 4 1235 1230 1227 1224
437 6 1235 1230 1227 1231
438 6 1235 1230 1227 1232
439 10 1218 1215 1212 1211
440 4 1218 1215 1212 1216
441 4 1218 1215 1212 1217
442 11 1219 1215 1212 1211
443 6 1219 1215 1212 1216
444 6 1219 1215 1212 1217
445 11 1220 1215 1212 1211
446 6 1220 1215 1212 1216
447 6 1220 1215 1212 1217
448 7 1621 1618 1615 1612
449 4 1621 1618 1615 1619
450 4 1621 1618 1615 1620
451 4 1622 1618 1615 1612
452 6 1622 1618 1615 1619
453 6 1622 1618 1615 1620
454 4 1623 1618 1615 1612
455 6 1623 1618 1615 1619
456 6 1623 1618 1615 1620
457 7 1624 1621 1618 1615
458 4 1624 1621 1618 1622
459 4 1624 1621 1618 1623
460 4 1625 1621 1618 1615
461 6 1625 1621 1618 1622
462 6 1625 1621 1618 1623
463 4 1626 1621 1618 1615
464 6 1626 1621 1618 1622
465 6 1626 1621 1618 1623
466 7 1230 1227 1224 1221
467 4 1230 1227 1224 1228
468 4 1230 1227 1224 1229
469 4 1231 1227 1224 1221
470 6 1231 1227 1224 1228
471 6 1231 1227 1224 1229
472 4 1232 1227 1224 1221
473 6 1232 1227 1224 1228
474 6 1232 1227 1224 1229
475 7 1227 1224 1221 1218
476 4 1227 1224 1221 1225
477 4 1227 1224 1221 1226
478 4 1228 1224 1221 1218
479 6 1228 1224 1221 1225
480 6 1228 1224 1221 1226
481 4 1229 1224 1221 1218
482 6 1229 1224 1221 1225
483 6 1229 1224 1221 1226
484 7 1224 1221 1218 1215
485 4 1224 1221 1218 1222
486 4 1224 1221 1218 1223
487 4 1225 1221 1218 1215
488 6 1225 1221 1218 1222
489 6 1225 1221 1218 1223
490 4 1226 1221 1218 1215
491 6 1226 1221 1218 1222
492 6 1226 1221 1218 1223
493 8 2190 2187 2186 2188
494 8 2190 2187 2186 2189
495 9 2191 2187 2186 2188
496 9 2191 2187 2186 2189
497 9 2192 2187 2186 2188
498 9 2192 2187 2186 2189
499 7 1221 1218 1215 1212
500 4 1221 1218 1215 1219
501 4 1221 1218 1215 1220
502 4 1222 1218 1215 1212
503 6 1222 1218 1215 1219
504 6 1222 1218 1215 1220
505 4 1223 1218 1215 1212
506 6 1223 1218 1215 1219
507 6 1223 1218 1215 1220
508 10 2193 2190 2187 2186
509 4 2193 2190 2187 2191
510 4 2193 2190 2187 2192
511 11 2194 2190 2187 2186
512 6 2194 2190 2187 2191
513 6 2194 2190 2187 2192
514 11 2195 2190 2187 2186
515 6 2195 2190 2187 2191
516 6 2195 2190 2187 2192
517 4 1908 1905 1902 1899
518 6 1908 1905 1902 1906
519 6 1908 1905 1902 1907
520 4 1909 1905 1902 1899
521 6 1909 1905 1902 1906
522 6 1909 1905 1902 1907
523 4 1910 1905 1902 1899
524 6 1910 1905 1902 1906
525 6 1910 1905 1902 1907
526 1 74 70 69 71
527 1 74 70 69 72
528 1 74 70 69 73
529 2 75 70 69 71
530 2 75 70 69 72
531 2 75 70 69 73
532 2 76 70 69 71
533 2 76 70 69 72
534 2 76 70 69 73
535 3 77 74 70 69
536 4 77 74 70 75
537 4 77 74 70 76
538 5 78 74 70 69
539 6 78 74 70 75
540 6 78 74 70 76
541 5 79 74 70 69
542 6 79 74 70 75
543 6 79 74 70 76
544 7 80 77 74 70
545 4 80 77 74 78
546 4 80 77 74 79
547 4 81 77 74 70
548 6 81 77 74 78
549 6 81 77 74 79
550 4 82 77 74 70
551 6 82 77 74 78
552 6 82 77 74 79
553 12 1737 1738 1736 1739
554 4 83 80 77 74
555 6 83 80 77 81
556 6 83 80 77 82
557 4 84 80 77 74
558 6 84 80 77 81
559 6 84 80 77 82
560 4 85 80 77 74
561 6 85 80 77 81
562 6 85 80 77 82
563 12 1212 1213 1211 1214
564 4 1808 1805 1802 1799
565 6 1808 1805 1802 1806
566 6 1808 1805 1802 1807
567 4 1809 1805 1802 1799
568 6 1809 1805 1802 1806
569 6 1809 1805 1802 1807
570 4 1810 1805 1802 1799
571 6 1810 1805 1802 1806
572 6 1810 1805 1802 1807
573 7 1805 1802 1799 1796
574 4 1805 1802 1799 1803
575 4 1805 1802 1799 1804
576 4 1806 1802 1799 1796
577 6 1806 1802 1799 1803
578 6 1806 1802 1799 1804
579 4 1807 1802 1799 1796
580 6 1807 1802 1799 1803
581 6 1807 1802 1799 1804
582 7 2305 2302 2299 2296
583 4 2305 2302 2299 2303
584 4 2305 2302 2299 2304
585 4 2306 2302 2299 2296
586 6 2306 2302 2299 2303
587 6 2306 2302 2299 2304
588 4 2307 2302 2299 2296
589 6 2307 2302 2299 2303
590 6 2307 2302 2299 2304
591 7 1802 1799 1796 1793
592 4 1802 1799 1796 1800
593 4 1802 1799 1796 1801
594 4 1803 1799 1796 1793
595 6 1803 1799 1796 1800
596 6 1803 1799 1796 1801
597 4 1804 1799 1796 1793
598 6 1804 1799 1796 1800
599 6 1804 1799 1796 1801
600 1 516 512 511 513
601 1 516 512 511 514
602 1 516 512 511 515
603 2 517 512 511 513
604 2 517 512 511 514
605 2 517 512 511 515
606 2 518 512 511 513
607 2 518 512 511 514
608 2 518 512 511 515
609 4 525 522 519 516
610 6 525 522 519 523
611 6 525 522 519 524
612 4 526 522 519 516
613 6 526 522 519 523
614 6 526 522 519 524
615 4 527 522 519 516
616 6 527 522 519 523
617 6 527 522 519 524
618 3 519 516 512 511
619 4 519 516 512 517
620 4 519 516 512 518
621 5 520 516 512 511
622 6 520 516 512 517
623 6 520 516 512 518
624 5 521 516 512 511
625 6 521 516 512 517
626 6 521 516 512 518
627 7 2302 2299 2296 2293
628 4 2302 2299 2296 2300
629 4 2302 2299 2296 2301
630 4 2303 2299 2296 2293
631 6 2303 2299 2296 2300
632 6 2303 2299 2296 2301
633 4 2304 2299 2296 2293
634 6 2304 2299 2296 2300
635 6 2304 2299 2296 2301
636 7 2296 2293 2290 2287
637 4 2296 2293 2290 2294
638 4 2296 2293 2290 2295
639 4 2297 2293 2290 2287
640 6 2297 2293 2290 2294
641 6 2297 2293 2290 2295
642 4 2298 2293 2290 2287
643 6 2298 2293 2290 2294
644 6 2298 2293 2290 2295
645 7 522 519 516 512
646 4 522 519 516 520
647 4 522 519 516 521
648 4 523 519 516 512
649 6 523 519 516 520
650 6 523 519 516 521
651 4 524 519 516 512
652 6 524 519 516 520
653 6 524 519 516 521
654 7 2299 2296 2293 2290
655 4 2299 2296 2293 2297
656 4 2299 2296 2293 2298
657 4 2300 2296 2293 2290
658 6 2300 2296 2293 2297
659 6 2300 2296 2293 2298
660 4 2301 2296 2293 2290
661 6 2301 2296 2293 2297
662 6 2301 2296 2293 2298
663 8 1740 1737 1736 1738
664 8 1740 1737 1736 1739
665 9 1741 1737 1736 1738
666 9 1741 1737 1736 1739
667 9 1742 1737 1736 1738
668 9 1742 1737 1736 1739
669 7 971 968 965 962
670 4 971 968 965 969
671 4 971 968 965 970
672 4 972 968 965 962
673 6 972 968 965 969
674 6 972 968 965 970
675 4 973 968 965 962
676 6 973 968 965 969
677 6 973 968 965 970
678 4 508 505 502 499
679 6 508 505 502 506
680 6 508 505 502 507
681 4 509 505 502 499
682 6 509 505 502 506
683 6 509 505 502 507
684 4 510 505 502 499
685 6 510 505 502 506
686 6 510 505 502 507
687 7 505 502 499 495
688 4 505 502 499 503
689 4 505 502 499 504
690 4 506 502 499 495
691 6 506 502 499 503
692 6 506 502 499 504
693 4 507 502 499 495
694 6 507 502 499 503
695 6 507 502 499 504
696 3 502 499 495 494
697 4 502 499 495 500
698 4 502 499 495 501
699 5 503 499 495 494
700 6 503 499 495 500
701 6 503 499 495 501
702 5 504 499 495 494
703 6 504 499 495 500
704 6 504 499 495 501
705 10 968 965 962 961
706 4 968 965 962 966
707 4 968 965 962 967
708 11 969 965 962 961
709 6 969 965 962 966
710 6 969 965 962 967
711 11 970 965 962 961
712 6 970 965 962 966
713 6 970 965 962 967
714 1 652 648 647 649
715 1 652 648 647 650
716 1 652 648 647 651
717 2 653 648 647 649
718 2 653 648 647 650
719 2 653 648 647 651
720 2 654 648 647 649
721 2 654 648 647 650
722 2 654 648 647 651
723 12 1662 1663 1661 1664
724 3 655 652 648 647
725 4 655 652 648 653
726 4 655 652 648 654
727 5 656 652 648 647
728 6 656 652 648 653
729 6 656 652 648 654
730 5 657 652 648 647
731 6 657 652 648 653
732 6 657 652 648 654
733 8 1665 1662 1661 1663
734 8 1665 1662 1661 1664
735 9 1666 1662 1661 1663
736 9 1666 1662 1661 1664
737 9 1667 1662 1661 1663
738 9 1667 1662 1661 1664
739 3 842 839 835 834
740 4 842 839 835 840
741 4 842 839 835 841
742 5 843 839 835 834
743 6 843 839 835 840
744 6 843 839 835 841
745 5 844 839 835 834
746 6 844 839 835 840
747 6 844 839 835 841
748 7 658 655 652 648
749 4 658 655 652 656
750 4 658 655 652 657
751 4 659 655 652 648
752 6 659 655 652 656
753 6 659 655 652 657
754 4 660 655 652 648
755 6 660 655 652 656
756 6 660 655 652 657
757 4 661 658 655 652
758 6 661 658 655 659
759 6 661 658 655 660
760 4 662 658 655 652
761 6 662 658 655 659
762 6 662 658 655 660
763 4 663 658 655 652
764 6 663 658 655 659
765 6 663 658 655 660
766 10 1668 1665 1662 1661
767 4 1668 1665 1662 1666
768 4 1668 1665 1662 1667
769 11 1669 1665 1662 1661
770 6 1669 1665 1662 1666
771 6 1669 1665 1662 1667
772 11 1670 1665 1662 1661
773 6 1670 1665 1662 1666
774 6 1670 1665 1662 1667
775 10 1618 1615 1612 1611
776 4 1618 1615 1612 1616
777 4 1618 1615 1612 1617
778 11 1619 1615 1612 1611
779 6 1619 1615 1612 1616
780 6 1619 1615 1612 1617
781 11 1620 1615 1612 1611
782 6 1620 1615 1612 1616
783 6 1620 1615 1612 1617
784 12 1612 1613 1611 1614
785 7 2196 2193 2190 2187
786 4 2196 2193 2190 2194
787 4 2196 2193 2190 2195
788 4 2197 2193 2190 2187
789 6 2197 2193 2190 2194
790 6 2197 2193 2190 2195
791 4 2198 2193 2190 2187
792 6 2198 2193 2190 2194
793 6 2198 2193 2190 2195
794 7 2199 2196 2193 2190
795 4 2199 2196 2193 2197
796 4 2199 2196 2193 2198
797 4 2200 2196 2193 2190
798 6 2200 2196 2193 2197
799 6 2200 2196 2193 2198
800 4 2201 2196 2193 2190
801 6 2201 2196 2193 2197
802 6 2201 2196 2193 2198
803 8 1615 1612 1611 1613
804 8 1615 1612 1611 1614
805 9 1616 1612 1611 1613
806 9 1616 1612 1611 1614
807 9 1617 1612 1611 1613
808 9 1617 1612 1611 1614
809 7 2202 2199 2196 2193
810 4 2202 2199 2196 2200
811 4 2202 2199 2196 2201
812 4 2203 2199 2196 2193
813 6 2203 2199 2196 2200
814 6 2203 2199 2196 2201
815 4 2204 2199 2196 2193
816 6 2204 2199 2196 2200
817 6 2204 2199 2196 2201
818 4 372 369 366 363
819 6 372 369 366 370
820 6 372 369 366 371
821 4 373 369 366 363
822 6 373 369 366 370
823 6 373 369 366 371
824 4 374 369 366 363
825 6 374 369 366 370
826 6 374 369 366 371
827 4 542 539 536 533
828 6 542 539 536 540
829 6 542 539 536 541
830 4 543 539 536 533
831 6 543 539 536 540
832 6 543 539 536 541
833 4 544 539 536 533
834 6 544 539 536 540
835 6 544 539 536 541
836 7 2205 2202 2199 2196
837 4 2205 2202 2199 2203
838 4 2205 2202 2199 2204
839 4 2206 2202 2199 2196
840 6 2206 2202 2199 2203
841 6 2206 2202 2199 2204
842 4 2207 2202 2199 2196
843 6 2207 2202 2199 2203
844 6 2207 2202 2199 2204
845 4 2208 2205 2202 2199
846 6 2208 2205 2202 2206
847 6 2208 2205 2202 2207
848 4 2209 2205 2202 2199
849 6 2209 2205 2202 2206
850 6 2209 2205 2202 2207
851 4 2210 2205 2202 2199
852 6 2210 2205 2202 2206
853 6 2210 2205 2202 2207
854 7 1746 1743 1740 1737
855 4 1746 1743 1740 1744
856 4 1746 1743 1740 1745
857 4 1747 1743 1740 1737
858 6 1747 1743 1740 1744
859 6 1747 1743 1740 1745
860 4 1748 1743 1740 1737
861 6 1748 1743 1740 1744
862 6 1748 1743 1740 1745
863 7 1749 1746 1743 1740
864 4 1749 1746 1743 1747
865 4 1749 1746 1743 1748
866 4 1750 1746 1743 1740
867 6 1750 1746 1743 1747
868 6 1750 1746 1743 1748
869 4 1751 1746 1743 1740
870 6 1751 1746 1743 1747
871 6 1751 1746 1743 1748
872 7 1752 1749 1746 1743
873 4 1752 1749 1746 1750
874 4 1752 1749 1746 1751
875 4 1753 1749 1746 1743
876 6 1753 1749 1746 1750
877 6 1753 1749 1746 1751
878 4 1754 1749 1746 1743
879 6 1754 1749 1746 1750
880 6 1754 1749 1746 1751
881 10 1018 1015 1012 1011
882 4 1018 1015 1012 1016
883 4 1018 1015 1012 1017
884 11 1019 1015 1012 1011
885 6 1019 1015 1012 1016
886 6 1019 1015 1012 1017
887 11 1020 1015 1012 1011
888 6 1020 1015 1012 1016
889 6 1020 1015 1012 1017
890 12 1012 1013 1011 1014
891 10 1743 1740 1737 1736
892 4 1743 1740 1737 1741
893 4 1743 1740 1737 1742
894 11 1744 1740 1737 1736
895 6 1744 1740 1737 1741
896 6 1744 1740 1737 1742
897 11 1745 1740 1737 1736
898 6 1745 1740 1737 1741
899 6 1745 1740 1737 1742
900 1 397 393 392 394
901 1 397 393 392 395
902 1 397 393 392 396
903 2 398 393 392 394
904 2 398 393 392 395
905 2 398 393 392 396
906 2 399 393 392 394
907 2 399 393 392 395
908 2 399 393 392 396
909 3 400 397 393 392
910 4 400 397 393 398
911 4 400 397 393 399
912 5 401 397 393 392
913 6 401 397 393 398
914 6 401 397 393 399
915 5 402 397 393 392
916 6 402 397 393 398
917 6 402 397 393 399
918 7 403 400 397 393
919 4 403 400 397 401
920 4 403 400 397 402
921 4 404 400 397 393
922 6 404 400 397 401
923 6 404 400 397 402
924 4 405 400 397 393
925 6 405 400 397 401
926 6 405 400 397 402
927 8 1015 1012 1011 1013
928 8 1015 1012 1011 1014
929 9 1016 1012 1011 1013
930 9 1016 1012 1011 1014
931 9 1017 1012 1011 1013
932 9 1017 1012 1011 1014
933 3 638 635 631 630
934 4 638 635 631 636
935 4 638 635 631 637
936 5 639 635 631 630
937 6 639 635 631 636
938 6 639 635 631 637
939 5 640 635 631 630
940 6 640 635 631 636
941 6 640 635 631 637
942 1 635 631 630 632
943 1 635 631 630 633
944 1 635 631 630 634
945 2 636 631 630 632
946 2 636 631 630 633
947 2 636 631 630 634
948 2 637 631 630 632
949 2 637 631 630 633
950 2 637 631 630 634
951 1 499 495 494 496
952 1 499 495 494 497
953 1 499 495 494 498
954 2 500 495 494 496
955 2 500 495 494 497
956 2 500 495 494 498
957 2 501 495 494 496
958 2 501 495 494 497
959 2 501 495 494 498
960 4 406 403 400 397
961 6 406 403 400 404
962 6 406 403 400 405
963 4 407 403 400 397
964 6 407 403 400 404
965 6 407 403 400 405
966 4 408 403 400 397
967 6 408 403 400 404
968 6 408 403 400 405
969 1 839 835 834 836
970 1 839 835 834 837
971 1 839 835 834 838
972 2 840 835 834 836
973 2 840 835 834 837
974 2 840 835 834 838
975 2 841 835 834 836
976 2 841 835 834 837
977 2 841 835 834 838
978 4 423 420 417 414
979 6 423 420 417 421
980 6 423 420 417 422
981 4 424 420 417 414
982 6 424 420 417 421
983 6 424 420 417 422
984 4 425 420 417 414
985 6 425 420 417 421
986 6 425 420 417 422
987 7 1671 1668 1665 1662
988 4 1671 1668 1665 1669
989 4 1671 1668 1665 1670
990 4 1672 1668 1665 1662
991 6 1672 1668 1665 1669
992 6 1672 1668 1665 1670
993 4 1673 1668 1665 1662
994 6 1673 1668 1665 1669
995 6 1673 1668 1665 1670
996 3 366 363 359 358
997 4 366 363 359 364
998 4 366 363 359 365
999 5 367 363 359 358
1000 6 367 363 359 364
1001 6 367 363 359 365
1002 5 368 363 359 358
1003 6 368 363 359 364
1004 6 368 363 359 365
1005 7 369 366 363 359
1006 4 369 366 363 367
1007 4 369 366 363 368
1008 4 370 366 363 359
1009 6 370 366 363 367
1010 6 370 366 363 368
1011 4 371 366 363 359
1012 6 371 366 363 367
1013 6 371 366 363 368
1014 1 363 359 358 360
1015 1 363 359 358 361
1016 1 363 359 358 362
1017 2 364 359 358 360
1018 2 364 359 358 361
1019 2 364 359 358 362
1020 2 365 359 358 360
1021 2 365 359 358 361
1022 2 365 359 358 362
1023 12 1762 1763 1761 1764
1024 7 1021 1018 1015 1012
1025 4 1021 1018 1015 1019
1026 4 1021 1018 1015 1020
1027 4 1022 1018 1015 1012
1028 6 1022 1018 1015 1019
1029 6 1022 1018 1015 1020
1030 4 1023 1018 1015 1012
1031 6 1023 1018 1015 1019
1032 6 1023 1018 1015 1020
1033 7 1030 1027 1024 1021
1034 4 1030 1027 1024 1028
1035 4 1030 1027 1024 1029
1036 4 1031 1027 1024 1021
1037 6 1031 1027 1024 1028
1038 6 1031 1027 1024 1029
1039 4 1032 1027 1024 1021
1040 6 1032 1027 1024 1028
1041 6 1032 1027 1024 1029
1042 7 1024 1021 1018 1015
1043 4 1024 1021 1018 1022
1044 4 1024 1021 1018 1023
1045 4 1025 1021 1018 1015
1046 6 1025 1021 1018 1022
1047 6 1025 1021 1018 1023
1048 4 1026 1021 1018 1015
1049 6 1026 1021 1018 1022
1050 6 1026 1021 1018 1023
1051 7 1027 1024 1021 1018
1052 4 1027 1024 1021 1025
1053 4 1027 1024 1021 1026
1054 4 1028 1024 1021 1018
1055 6 1028 1024 1021 1025
1056 6 1028 1024 1021 1026
1057 4 1029 1024 1021 1018
1058 6 1029 1024 1021 1025
1059 6 1029 1024 1021 1026
1060 4 1033 1030 1027 1024
1061 6 1033 1030 1027 1031
1062 6 1033 1030 1027 1032
1063 4 1034 1030 1027 1024
1064 6 1034 1030 1027 1031
1065 6 1034 1030 1027 1032
1066 4 1035 1030 1027 1024
1067 6 1035 1030 1027 1031
1068 6 1035 1030 1027 1032
1069 4 491 488 485 482
1070 6 491 488 485 489
1071 6 491 488 485 490
1072 4 492 488 485 482
1073 6 492 488 485 489
1074 6 492 488 485 490
1075 4 493 488 485 482
1076 6 493 488 485 489
1077 6 493 488 485 490
1078 7 488 485 482 478
1079 4 488 485 482 486
1080 4 488 485 482 487
1081 4 489 485 482 478
1082 6 489 485 482 486
1083 6 489 485 482 487
1084 4 490 485 482 478
1085 6 490 485 482 486
1086 6 490 485 482 487
1087 8 1315 1312 1311 1313
1088 8 1315 1312 1311 1314
1089 9 1316 1312 1311 1313
1090 9 1316 1312 1311 1314
1091 9 1317 1312 1311 1313
1092 9 1317 1312 1311 1314
1093 10 1318 1315 1312 1311
1094 4 1318 1315 1312 1316
1095 4 1318 1315 1312 1317
1096 11 1319 1315 1312 1311
1097 6 1319 1315 1312 1316
1098 6 1319 1315 1312 1317
1099 11 1320 1315 1312 1311
1100 6 1320 1315 1312 1316
1101 6 1320 1315 1312 1317
1102 3 485 482 478 477
1103 4 485 482 478 483
1104 4 485 482 478 484
1105 5 486 482 478 477
1106 6 486 482 478 483
1107 6 486 482 478 484
1108 5 487 482 478 477
1109 6 487 482 478 483
1110 6 487 482 478 484
1111 1 482 478 477 479
1112 1 482 478 477 480
1113 1 482 478 477 481
1114 2 483 478 477 479
1115 2 483 478 477 480
1116 2 483 478 477 481
1117 2 484 478 477 479
1118 2 484 478 477 480
1119 2 484 478 477 481
1120 12 1312 1313 1311 1314
1121 7 420 417 414 410
1122 4 420 417 414 418
1123 4 420 417 414 419
1124 4 421 417 414 410
1125 6 421 417 414 418
1126 6 421 417 414 419
1127 4 422 417 414 410
1128 6 422 417 414 418
1129 6 422 417 414 419
1130 1 414 410 409 411
1131 1 414 410 409 412
1132 1 414 410 409 413
1133 2 415 410 409 411
1134 2 415 410 409 412
1135 2 415 410 409 413
1136 2 416 410 409 411
1137 2 416 410 409 412
1138 2 416 410 409 413
1139 3 417 414 410 409
1140 4 417 414 410 415
1141 4 417 414 410 416
1142 5 418 414 410 409
1143 6 418 414 410 415
1144 6 418 414 410 416
1145 5 419 414 410 409
1146 6 419 414 410 415
1147 6 419 414 410 416
1148 12 1087 1088 1086 1089
1149 8 1090 1087 1086 1088
1150 8 1090 1087 1086 1089
1151 9 1091 1087 1086 1088
1152 9 1091 1087 1086 1089
1153 9 1092 1087 1086 1088
1154 9 1092 1087 1086 1089
1155 4 117 114 111 108
1156 6 117 114 111 115
1157 6 117 114 111 116
1158 4 118 114 111 108
1159 6 118 114 111 115
1160 6 118 114 111 116
1161 4 119 114 111 108
1162 6 119 114 111 115
1163 6 119 114 111 116
1164 8 1765 1762 1761 1763
1165 8 1765 1762 1761 1764
1166 9 1766 1762 1761 1763
1167 9 1766 1762 1761 1764
1168 9 1767 1762 1761 1763
1169 9 1767 1762 1761 1764
1170 1 380 376 375 377
1171 1 380 376 375 378
1172 1 380 376 375 379
1173 2 381 376 375 377
1174 2 381 376 375 378
1175 2 381 376 375 379
1176 2 382 376 375 377
1177 2 382 376 375 378
1178 2 382 376 375 379
1179 12 1512 1513 1511 1514
1180 4 1983 1980 1977 1974
1181 6 1983 1980 1977 1981
1182 6 1983 1980 1977 1982
1183 4 1984 1980 1977 1974
1184 6 1984 1980 1977 1981
1185 6 1984 1980 1977 1982
1186 4 1985 1980 1977 1974
1187 6 1985 1980 1977 1981
1188 6 1985 1980 1977 1982
1189 7 1521 1518 1515 1512
1190 4 1521 1518 1515 1519
1191 4 1521 1518 1515 1520
1192 4 1522 1518 1515 1512
1193 6 1522 1518 1515 1519
1194 6 1522 1518 1515 1520
1195 4 1523 1518 1515 1512
1196 6 1523 1518 1515 1519
1197 6 1523 1518 1515 1520
1198 3 383 380 376 375
1199 4 383 380 376 381
1200 4 383 380 376 382
1201 5 384 380 376 375
1202 6 384 380 376 381
1203 6 384 380 376 382
1204 5 385 380 376 375
1205 6 385 380 376 381
1206 6 385 380 376 382
1207 8 1515 1512 1511 1513
1208 8 1515 1512 1511 1514
1209 9 1516 1512 1511 1513
1210 9 1516 1512 1511 1514
1211 9 1517 1512 1511 1513
1212 9 1517 1512 1511 1514
1213 10 1518 1515 1512 1511
1214 4 1518 1515 1512 1516
1215 4 1518 1515 1512 1517
1216 11 1519 1515 1512 1511
1217 6 1519 1515 1512 1516
1218 6 1519 1515 1512 1517
1219 11 1520 1515 1512 1511
1220 6 1520 1515 1512 1516
1221 6 1520 1515 1512 1517
1222 7 386 383 380 376
1223 4 386 383 380 384
1224 4 386 383 380 385
1225 4 387 383 380 376
1226 6 387 383 380 384
1227 6 387 383 380 385
1228 4 388 383 380 376
1229 6 388 383 380 384
1230 6 388 383 380 385
1231 4 389 386 383 380
1232 6 389 386 383 387
1233 6 389 386 383 388
1234 4 390 386 383 380
1235 6 390 386 383 387
1236 6 390 386 383 388
1237 4 391 386 383 380
1238 6 391 386 383 387
1239 6 391 386 383 388
1240 7 1655 1652 1649 1646
1241 4 1655 1652 1649 1653
1242 4 1655 1652 1649 1654
1243 4 1656 1652 1649 1646
1244 6 1656 1652 1649 1653
1245 6 1656 1652 1649 1654
1246 4 1657 1652 1649 1646
1247 6 1657 1652 1649 1653
1248 6 1657 1652 1649 1654
1249 7 1652 1649 1646 1643
1250 4 1652 1649 1646 1650
1251 4 1652 1649 1646 1651
1252 4 1653 1649 1646 1643
1253 6 1653 1649 1646 1650
1254 6 1653 1649 1646 1651
1255 4 1654 1649 1646 1643
1256 6 1654 1649 1646 1650
1257 6 1654 1649 1646 1651
1258 10 1868 1865 1862 1861
1259 4 1868 1865 1862 1866
1260 4 1868 1865 1862 1867
1261 11 1869 1865 1862 1861
1262 6 1869 1865 1862 1866
1263 6 1869 1865 1862 1867
1264 11 1870 1865 1862 1861
1265 6 1870 1865 1862 1866
1266 6 1870 1865 1862 1867
1267 7 1871 1868 1865 1862
1268 4 1871 1868 1865 1869
1269 4 1871 1868 1865 1870
1270 4 1872 1868 1865 1862
1271 6 1872 1868 1865 1869
1272 6 1872 1868 1865 1870
1273 4 1873 1868 1865 1862
1274 6 1873 1868 1865 1869
1275 6 1873 1868 1865 1870
1276 4 1658 1655 1652 1649
1277 6 1658 1655 1652 1656
1278 6 1658 1655 1652 1657
1279 4 1659 1655 1652 1649
1280 6 1659 1655 1652 1656
1281 6 1659 1655 1652 1657
1282 4 1660 1655 1652 1649
1283 6 1660 1655 1652 1656
1284 6 1660 1655 1652 1657
1285 7 1877 1874 1871 1868
1286 4 1877 1874 1871 1875
1287 4 1877 1874 1871 1876
1288 4 1878 1874 1871 1868
1289 6 1878 1874 1871 1875
1290 6 1878 1874 1871 1876
1291 4 1879 1874 1871 1868
1292 6 1879 1874 1871 1875
1293 6 1879 1874 1871 1876
1294 7 1874 1871 1868 1865
1295 4 1874 1871 1868 1872
1296 4 1874 1871 1868 1873
1297 4 1875 1871 1868 1865
1298 6 1875 1871 1868 1872
1299 6 1875 1871 1868 1873
1300 4 1876 1871 1868 1865
1301 6 1876 1871 1868 1872
1302 6 1876 1871 1868 1873
1303 8 1865 1862 1861 1863
1304 8 1865 1862 1861 1864
1305 9 1866 1862 1861 1863
1306 9 1866 1862 1861 1864
1307 9 1867 1862 1861 1863
1308 9 1867 1862 1861 1864
1309 10 1768 1765 1762 1761
1310 4 1768 1765 1762 1766
1311 4 1768 1765 1762 1767
1312 11 1769 1765 1762 1761
1313 6 1769 1765 1762 1766
1314 6 1769 1765 1762 1767
1315 11 1770 1765 1762 1761
1316 6 1770 1765 1762 1766
1317 6 1770 1765 1762 1767
1318 12 1412 1413 1411 1414
1319 12 1862 1863 1861 1864
1320 1 805 801 800 802
1321 1 805 801 800 803
1322 1 805 801 800 804
1323 2 806 801 800 802
1324 2 806 801 800 803
1325 2 806 801 800 804
1326 2 807 801 800 802
1327 2 807 801 800 803
1328 2 807 801 800 804
1329 1 108 104 103 105
1330 1 108 104 103 106
1331 1 108 104 103 107
1332 2 109 104 103 105
1333 2 109 104 103 106
1334 2 109 104 103 107
1335 2 110 104 103 105
1336 2 110 104 103 106
1337 2 110 104 103 107
1338 3 111 108 104 103
1339 4 111 108 104 109
1340 4 111 108 104 110
1341 5 112 108 104 103
1342 6 112 108 104 109
1343 6 112 108 104 110
1344 5 113 108 104 103
1345 6 113 108 104 109
1346 6 113 108 104 110
1347 1 23 19 18 20
1348 1 23 19 18 21
1349 1 23 19 18 22
1350 2 24 19 18 20
1351 2 24 19 18 21
1352 2 24 19 18 22
1353 2 25 19 18 20
1354 2 25 19 18 21
1355 2 25 19 18 22
1356 7 1477 1474 1471 1468
1357 4 1477 1474 1471 1475
1358 4 1477 1474 1471 1476
1359 4 1478 1474 1471 1468
1360 6 1478 1474 1471 1475
1361 6 1478 1474 1471 1476
1362 4 1479 1474 1471 1468
1363 6 1479 1474 1471 1475
1364 6 1479 1474 1471 1476
1365 12 1462 1463 1461 1464
1366 7 1474 1471 1468 1465
1367 4 1474 1471 1468 1472
1368 4 1474 1471 1468 1473
1369 4 1475 1471 1468 1465
1370 6 1475 1471 1468 1472
1371 6 1475 1471 1468 1473
1372 4 1476 1471 1468 1465
1373 6 1476 1471 1468 1472
1374 6 1476 1471 1468 1473
1375 8 1465 1462 1461 1463
1376 8 1465 1462 1461 1464
1377 9 1466 1462 1461 1463
1378 9 1466 1462 1461 1464
1379 9 1467 1462 1461 1463
1380 9 1467 1462 1461 1464
1381 10 1468 1465 1462 1461
1382 4 1468 1465 1462 1466
1383 4 1468 1465 1462 1467
1384 11 1469 1465 1462 1461
1385 6 1469 1465 1462 1466
1386 6 1469 1465 1462 1467
1387 11 1470 1465 1462 1461
1388 6 1470 1465 1462 1466
1389 6 1470 1465 1462 1467
1390 7 1471 1468 1465 1462
1391 4 1471 1468 1465 1469
1392 4 1471 1468 1465 1470
1393 4 1472 1468 1465 1462
1394 6 1472 1468 1465 1469
1395 6 1472 1468 1465 1470
1396 4 1473 1468 1465 1462
1397 6 1473 1468 1465 1469
1398 6 1473 1468 1465 1470
1399 7 743 740 737 733
1400 4 743 740 737 741
1401 4 743 740 737 742
1402 4 744 740 737 733
1403 6 744 740 737 741
1404 6 744 740 737 742
1405 4 745 740 737 733
1406 6 745 740 737 741
1407 6 745 740 737 742
1408 7 1352 1349 1346 1343
1409 4 1352 1349 1346 1350
1410 4 1352 1349 1346 1351
1411 4 1353 1349 1346 1343
1412 6 1353 1349 1346 1350
1413 6 1353 1349 1346 1351
1414 4 1354 1349 1346 1343
1415 6 1354 1349 1346 1350
1416 6 1354 1349 1346 1351
1417 7 1346 1343 1340 1337
1418 4 1346 1343 1340 1344
1419 4 1346 1343 1340 1345
1420 4 1347 1343 1340 1337
1421 6 1347 1343 1340 1344
1422 6 1347 1343 1340 1345
1423 4 1348 1343 1340 1337
1424 6 1348 1343 1340 1344
1425 6 1348 1343 1340 1345
1426 7 1349 1346 1343 1340
1427 4 1349 1346 1343 1347
1428 4 1349 1346 1343 1348
1429 4 1350 1346 1343 1340
1430 6 1350 1346 1343 1347
1431 6 1350 1346 1343 1348
1432 4 1351 1346 1343 1340
1433 6 1351 1346 1343 1347
1434 6 1351 1346 1343 1348
1435 4 1358 1355 1352 1349
1436 6 1358 1355 1352 1356
1437 6 1358 1355 1352 1357
1438 4 1359 1355 1352 1349
1439 6 1359 1355 1352 1356
1440 6 1359 1355 1352 1357
1441 4 1360 1355 1352 1349
1442 6 1360 1355 1352 1356
1443 6 1360 1355 1352 1357
1444 7 1899 1896 1893 1890
1445 4 1899 1896 1893 1897
1446 4 1899 1896 1893 1898
1447 4 1900 1896 1893 1890
1448 6 1900 1896 1893 1897
1449 6 1900 1896 1893 1898
1450 4 1901 1896 1893 1890
1451 6 1901 1896 1893 1897
1452 6 1901 1896 1893 1898
1453 7 1896 1893 1890 1887
1454 4 1896 1893 1890 1894
1455 4 1896 1893 1890 1895
1456 4 1897 1893 1890 1887
1457 6 1897 1893 1890 1894
1458 6 1897 1893 1890 1895
1459 4 1898 1893 1890 1887
1460 6 1898 1893 1890 1894
1461 6 1898 1893 1890 1895
1462 10 1893 1890 1887 1886
1463 4 1893 1890 1887 1891
1464 4 1893 1890 1887 1892
1465 11 1894 1890 1887 1886
1466 6 1894 1890 1887 1891
1467 6 1894 1890 1887 1892
1468 11 1895 1890 1887 1886
1469 6 1895 1890 1887 1891
1470 6 1895 1890 1887 1892
1471 8 1890 1887 1886 1888
1472 8 1890 1887 1886 1889
1473 9 1891 1887 1886 1888
1474 9 1891 1887 1886 1889
1475 9 1892 1887 1886 1888
1476 9 1892 1887 1886 1889
1477 3 927 924 920 919
1478 4 927 924 920 925
1479 4 927 924 920 926
1480 5 928 924 920 919
1481 6 928 924 920 925
1482 6 928 924 920 926
1483 5 929 924 920 919
1484 6 929 924 920 925
1485 6 929 924 920 926
1486 10 943 940 937 936
1487 4 943 940 937 941
1488 4 943 940 937 942
1489 11 944 940 937 936
1490 6 944 940 937 941
1491 6 944 940 937 942
1492 11 945 940 937 936
1493 6 945 940 937 941
1494 6 945 940 937 942
1495 7 1902 1899 1896 1893
1496 4 1902 1899 1896 1900
1497 4 1902 1899 1896 1901
1498 4 1903 1899 1896 1893
1499 6 1903 1899 1896 1900
1500 6 1903 1899 1896 1901
1501 4 1904 1899 1896 1893
1502 6 1904 1899 1896 1900
1503 6 1904 1899 1896 1901
1504 7 930 927 924 920
1505 4 930 927 924 928
1506 4 930 927 924 929
1507 4 931 927 924 920
1508 6 931 927 924 928
1509 6 931 927 924 929
1510 4 932 927 924 920
1511 6 932 927 924 928
1512 6 932 927 924 929
1513 7 1505 1502 1499 1496
1514 4 1505 1502 1499 1503
1515 4 1505 1502 1499 1504
1516 4 1506 1502 1499 1496
1517 6 1506 1502 1499 1503
1518 6 1506 1502 1499 1504
1519 4 1507 1502 1499 1496
1520 6 1507 1502 1499 1503
1521 6 1507 1502 1499 1504
1522 7 1496 1493 1490 1487
1523 4 1496 1493 1490 1494
1524 4 1496 1493 1490 1495
1525 4 1497 1493 1490 1487
1526 6 1497 1493 1490 1494
1527 6 1497 1493 1490 1495
1528 4 1498 1493 1490 1487
1529 6 1498 1493 1490 1494
1530 6 1498 1493 1490 1495
1531 7 1499 1496 1493 1490
1532 4 1499 1496 1493 1497
1533 4 1499 1496 1493 1498
1534 4 1500 1496 1493 1490
1535 6 1500 1496 1493 1497
1536 6 1500 1496 1493 1498
1537 4 1501 1496 1493 1490
1538 6 1501 1496 1493 1497
1539 6 1501 1496 1493 1498
1540 7 1502 1499 1496 1493
1541 4 1502 1499 1496 1500
1542 4 1502 1499 1496 1501
1543 4 1503 1499 1496 1493
1544 6 1503 1499 1496 1500
1545 6 1503 1499 1496 1501
1546 4 1504 1499 1496 1493
1547 6 1504 1499 1496 1500
1548 6 1504 1499 1496 1501
1549 10 1493 1490 1487 1486
1550 4 1493 1490 1487 1491
1551 4 1493 1490 1487 1492
1552 11 1494 1490 1487 1486
1553 6 1494 1490 1487 1491
1554 6 1494 1490 1487 1492
1555 11 1495 1490 1487 1486
1556 6 1495 1490 1487 1491
1557 6 1495 1490 1487 1492
1558 4 1508 1505 1502 1499
1559 6 1508 1505 1502 1506
1560 6 1508 1505 1502 1507
1561 4 1509 1505 1502 1499
1562 6 1509 1505 1502 1506
1563 6 1509 1505 1502 1507
1564 4 1510 1505 1502 1499
1565 6 1510 1505 1502 1506
1566 6 1510 1505 1502 1507
1567 7 1355 1352 1349 1346
1568 4 1355 1352 1349 1353
1569 4 1355 1352 1349 1354
1570 4 1356 1352 1349 1346
1571 6 1356 1352 1349 1353
1572 6 1356 1352 1349 1354
1573 4 1357 1352 1349 1346
1574 6 1357 1352 1349 1353
1575 6 1357 1352 1349 1354
1576 4 66 63 60 57
1577 6 66 63 60 64
1578 6 66 63 60 65
1579 4 67 63 60 57
1580 6 67 63 60 64
1581 6 67 63 60 65
1582 4 68 63 60 57
1583 6 68 63 60 64
1584 6 68 63 60 65
1585 4 49 46 43 40
1586 6 49 46 43 47
1587 6 49 46 43 48
1588 4 50 46 43 40
1589 6 50 46 43 47
1590 6 50 46 43 48
1591 4 51 46 43 40
1592 6 51 46 43 47
1593 6 51 46 43 48
1594 7 46 43 40 36
1595 4 46 43 40 44
1596 4 46 43 40 45
1597 4 47 43 40 36
1598 6 47 43 40 44
1599 6 47 43 40 45
1600 4 48 43 40 36
1601 6 48 43 40 44
1602 6 48 43 40 45
1603 3 43 40 36 35
1604 4 43 40 36 41
1605 4 43 40 36 42
1606 5 44 40 36 35
1607 6 44 40 36 41
1608 6 44 40 36 42
1609 5 45 40 36 35
1610 6 45 40 36 41
1611 6 45 40 36 42
1612 7 250 247 244 240
1613 4 250 247 244 248
1614 4 250 247 244 249
1615 4 251 247 244 240
1616 6 251 247 244 248
1617 6 251 247 244 249
1618 4 252 247 244 240
1619 6 252 247 244 248
1620 6 252 247 244 249
1621 4 253 250 247 244
1622 6 253 250 247 251
1623 6 253 250 247 252
1624 4 254 250 247 244
1625 6 254 250 247 251
1626 6 254 250 247 252
1627 4 255 250 247 244
1628 6 255 250 247 251
1629 6 255 250 247 252
1630 8 1840 1837 1836 1838
1631 8 1840 1837 1836 1839
1632 9 1841 1837 1836 1838
1633 9 1841 1837 1836 1839
1634 9 1842 1837 1836 1838
1635 9 1842 1837 1836 1839
1636 3 247 244 240 239
1637 4 247 244 240 245
1638 4 247 244 240 246
1639 5 248 244 240 239
1640 6 248 244 240 245
1641 6 248 244 240 246
1642 5 249 244 240 239
1643 6 249 244 240 245
1644 6 249 244 240 246
1645 10 1793 1790 1787 1786
1646 4 1793 1790 1787 1791
1647 4 1793 1790 1787 1792
1648 11 1794 1790 1787 1786
1649 6 1794 1790 1787 1791
1650 6 1794 1790 1787 1792
1651 11 1795 1790 1787 1786
1652 6 1795 1790 1787 1791
1653 6 1795 1790 1787 1792
1654 8 1790 1787 1786 1788
1655 8 1790 1787 1786 1789
1656 9 1791 1787 1786 1788
1657 9 1791 1787 1786 1789
1658 9 1792 1787 1786 1788
1659 9 1792 1787 1786 1789
1660 4 15 12 9 6
1661 6 15 12 9 13
1662 6 15 12 9 14
1663 4 16 12 9 6
1664 6 16 12 9 13
1665 6 16 12 9 14
1666 4 17 12 9 6
1667 6 17 12 9 13
1668 6 17 12 9 14
1669 7 12 9 6 2
1670 4 12 9 6 10
1671 4 12 9 6 11
1672 4 13 9 6 2
1673 6 13 9 6 10
1674 6 13 9 6 11
1675 4 14 9 6 2
1676 6 14 9 6 10
1677 6 14 9 6 11
1678 12 1787 1788 1786 1789
1679 3 9 6 2 1
1680 4 9 6 2 7
1681 4 9 6 2 8
1682 5 10 6 2 1
1683 6 10 6 2 7
1684 6 10 6 2 8
1685 5 11 6 2 1
1686 6 11 6 2 7
1687 6 11 6 2 8
1688 7 946 943 940 937
1689 4 946 943 940 944
1690 4 946 943 940 945
1691 4 947 943 940 937
1692 6 947 943 940 944
1693 6 947 943 940 945
1694 4 948 943 940 937
1695 6 948 943 940 944
1696 6 948 943 940 945
1697 1 924 920 919 921
1698 1 924 920 919 922
1699 1 924 920 919 923
1700 2 925 920 919 921
1701 2 925 920 919 922
1702 2 925 920 919 923
1703 2 926 920 919 921
1704 2 926 920 919 922
1705 2 926 920 919 923
1706 8 940 937 936 938
1707 8 940 937 936 939
1708 9 941 937 936 938
1709 9 941 937 936 939
1710 9 942 937 936 938
1711 9 942 937 936 939
1712 1 6 2 1 3
1713 1 6 2 1 4
1714 1 6 2 1 5
1715 2 7 2 1 3
1716 2 7 2 1 4
1717 2 7 2 1 5
1718 2 8 2 1 3
1719 2 8 2 1 4
1720 2 8 2 1 5
1721 12 937 938 936 939
1722 4 610 607 604 601
1723 6 610 607 604 608
1724 6 610 607 604 609
1725 4 611 607 604 601
1726 6 611 607 604 608
1727 6 611 607 604 609
1728 4 612 607 604 601
1729 6 612 607 604 608
1730 6 612 607 604 609
1731 8 1390 1387 1386 1388
1732 8 1390 1387 1386 1389
1733 9 1391 1387 1386 1388
1734 9 1391 1387 1386 1389
1735 9 1392 1387 1386 1388
1736 9 1392 1387 1386 1389
1737 8 1340 1337 1336 1338
1738 8 1340 1337 1336 1339
1739 9 1341 1337 1336 1338
1740 9 1341 1337 1336 1339
1741 9 1342 1337 1336 1338
1742 9 1342 1337 1336 1339
1743 7 1405 1402 1399 1396
1744 4 1405 1402 1399 1403
1745 4 1405 1402 1399 1404
1746 4 1406 1402 1399 1396
1747 6 1406 1402 1399 1403
1748 6 1406 1402 1399 1404
1749 4 1407 1402 1399 1396
1750 6 1407 1402 1399 1403
1751 6 1407 1402 1399 1404
1752 4 1408 1405 1402 1399
1753 6 1408 1405 1402 1406
1754 6 1408 1405 1402 1407
1755 4 1409 1405 1402 1399
1756 6 1409 1405 1402 1406
1757 6 1409 1405 1402 1407
1758 4 1410 1405 1402 1399
1759 6 1410 1405 1402 1406
1760 6 1410 1405 1402 1407
1761 7 1402 1399 1396 1393
1762 4 1402 1399 1396 1400
1763 4 1402 1399 1396 1401
1764 4 1403 1399 1396 1393
1765 6 1403 1399 1396 1400
1766 6 1403 1399 1396 1401
1767 4 1404 1399 1396 1393
1768 6 1404 1399 1396 1400
1769 6 1404 1399 1396 1401
1770 3 179 176 172 171
1771 4 179 176 172 177
1772 4 179 176 172 178
1773 5 180 176 172 171
1774 6 180 176 172 177
1775 6 180 176 172 178
1776 5 181 176 172 171
1777 6 181 176 172 177
1778 6 181 176 172 178
1779 10 1343 1340 1337 1336
1780 4 1343 1340 1337 1341
1781 4 1343 1340 1337 1342
1782 11 1344 1340 1337 1336
1783 6 1344 1340 1337 1341
1784 6 1344 1340 1337 1342
1785 11 1345 1340 1337 1336
1786 6 1345 1340 1337 1341
1787 6 1345 1340 1337 1342
1788 1 176 172 171 173
1789 1 176 172 171 174
1790 1 176 172 171 175
1791 2 177 172 171 173
1792 2 177 172 171 174
1793 2 177 172 171 175
1794 2 178 172 171 173
1795 2 178 172 171 174
1796 2 178 172 171 175
1797 12 1337 1338 1336 1339
1798 8 1490 1487 1486 1488
1799 8 1490 1487 1486 1489
1800 9 1491 1487 1486 1488
1801 9 1491 1487 1486 1489
1802 9 1492 1487 1486 1488
1803 9 1492 1487 1486 1489
1804 1 57 53 52 54
1805 1 57 53 52 55
1806 1 57 53 52 56
1807 2 58 53 52 54
1808 2 58 53 52 55
1809 2 58 53 52 56
1810 2 59 53 52 54
1811 2 59 53 52 55
1812 2 59 53 52 56
1813 12 1487 1488 1486 1489
1814 1 788 784 783 785
1815 1 788 784 783 786
1816 1 788 784 783 787
1817 2 789 784 783 785
1818 2 789 784 783 786
1819 2 789 784 783 787
1820 2 790 784 783 785
1821 2 790 784 783 786
1822 2 790 784 783 787
1823 7 63 60 57 53
1824 4 63 60 57 61
1825 4 63 60 57 62
1826 4 64 60 57 53
1827 6 64 60 57 61
1828 6 64 60 57 62
1829 4 65 60 57 53
1830 6 65 60 57 61
1831 6 65 60 57 62
1832 1 40 36 35 37
1833 1 40 36 35 38
1834 1 40 36 35 39
1835 2 41 36 35 37
1836 2 41 36 35 38
1837 2 41 36 35 39
1838 2 42 36 35 37
1839 2 42 36 35 38
1840 2 42 36 35 39
1841 3 60 57 53 52
1842 4 60 57 53 58
1843 4 60 57 53 59
1844 5 61 57 53 52
1845 6 61 57 53 58
1846 6 61 57 53 59
1847 5 62 57 53 52
1848 6 62 57 53 58
1849 6 62 57 53 59
1850 12 987 988 986 989
1851 8 2115 2112 2111 2113
1852 8 2115 2112 2111 2114
1853 9 2116 2112 2111 2113
1854 9 2116 2112 2111 2114
1855 9 2117 2112 2111 2113
1856 9 2117 2112 2111 2114
1857 7 794 791 788 784
1858 4 794 791 788 792
1859 4 794 791 788 793
1860 4 795 791 788 784
1861 6 795 791 788 792
1862 6 795 791 788 793
1863 4 796 791 788 784
1864 6 796 791 788 792
1865 6 796 791 788 793
1866 1 771 767 766 768
1867 1 771 767 766 769
1868 1 771 767 766 770
1869 2 772 767 766 768
1870 2 772 767 766 769
1871 2 772 767 766 770
1872 2 773 767 766 768
1873 2 773 767 766 769
1874 2 773 767 766 770
1875 7 1796 1793 1790 1787
1876 4 1796 1793 1790 1794
1877 4 1796 1793 1790 1795
1878 4 1797 1793 1790 1787
1879 6 1797 1793 1790 1794
1880 6 1797 1793 1790 1795
1881 4 1798 1793 1790 1787
1882 6 1798 1793 1790 1794
1883 6 1798 1793 1790 1795
1884 12 2112 2113 2111 2114
1885 10 2293 2290 2287 2286
1886 4 2293 2290 2287 2291
1887 4 2293 2290 2287 2292
1888 11 2294 2290 2287 2286
1889 6 2294 2290 2287 2291
1890 6 2294 2290 2287 2292
1891 11 2295 2290 2287 2286
1892 6 2295 2290 2287 2291
1893 6 2295 2290 2287 2292
1894 8 2290 2287 2286 2288
1895 8 2290 2287 2286 2289
1896 9 2291 2287 2286 2288
1897 9 2291 2287 2286 2289
1898 9 2292 2287 2286 2288
1899 9 2292 2287 2286 2289
1900 7 1399 1396 1393 1390
1901 4 1399 1396 1393 1397
1902 4 1399 1396 1393 1398
1903 4 1400 1396 1393 1390
1904 6 1400 1396 1393 1397
1905 6 1400 1396 1393 1398
1906 4 1401 1396 1393 1390
1907 6 1401 1396 1393 1397
1908 6 1401 1396 1393 1398
1909 7 1396 1393 1390 1387
1910 4 1396 1393 1390 1394
1911 4 1396 1393 1390 1395
1912 4 1397 1393 1390 1387
1913 6 1397 1393 1390 1394
1914 6 1397 1393 1390 1395
1915 4 1398 1393 1390 1387
1916 6 1398 1393 1390 1394
1917 6 1398 1393 1390 1395
1918 7 182 179 176 172
1919 4 182 179 176 180
1920 4 182 179 176 181
1921 4 183 179 176 172
1922 6 183 179 176 180
1923 6 183 179 176 181
1924 4 184 179 176 172
1925 6 184 179 176 180
1926 6 184 179 176 181
1927 1 601 597 596 598
1928 1 601 597 596 599
1929 1 601 597 596 600
1930 2 602 597 596 598
1931 2 602 597 596 599
1932 2 602 597 596 600
1933 2 603 597 596 598
1934 2 603 597 596 599
1935 2 603 597 596 600
1936 3 604 601 597 596
1937 4 604 601 597 602
1938 4 604 601 597 603
1939 5 605 601 597 596
1940 6 605 601 597 602
1941 6 605 601 597 603
1942 5 606 601 597 596
1943 6 606 601 597 602
1944 6 606 601 597 603
1945 7 607 604 601 597
1946 4 607 604 601 605
1947 4 607 604 601 606
1948 4 608 604 601 597
1949 6 608 604 601 605
1950 6 608 604 601 606
1951 4 609 604 601 597
1952 6 609 604 601 605
1953 6 609 604 601 606
1954 12 1387 1388 1386 1389
1955 10 1393 1390 1387 1386
1956 4 1393 1390 1387 1391
1957 4 1393 1390 1387 1392
1958 11 1394 1390 1387 1386
1959 6 1394 1390 1387 1391
1960 6 1394 1390 1387 1392
1961 11 1395 1390 1387 1386
1962 6 1395 1390 1387 1391
1963 6 1395 1390 1387 1392
1964 7 845 842 839 835
1965 4 845 842 839 843
1966 4 845 842 839 844
1967 4 846 842 839 835
1968 6 846 842 839 843
1969 6 846 842 839 844
1970 4 847 842 839 835
1971 6 847 842 839 843
1972 6 847 842 839 844
1973 4 848 845 842 839
1974 6 848 845 842 846
1975 6 848 845 842 847
1976 4 849 845 842 839
1977 6 849 845 842 846
1978 6 849 845 842 847
1979 4 850 845 842 839
1980 6 850 845 842 846
1981 6 850 845 842 847
1982 4 865 862 859 856
1983 6 865 862 859 863
1984 6 865 862 859 864
1985 4 866 862 859 856
1986 6 866 862 859 863
1987 6 866 862 859 864
1988 4 867 862 859 856
1989 6 867 862 859 863
1990 6 867 862 859 864
1991 12 1062 1063 1061 1064
1992 4 559 556 553 550
1993 6 559 556 553 557
1994 6 559 556 553 558
1995 4 560 556 553 550
1996 6 560 556 553 557
1997 6 560 556 553 558
1998 4 561 556 553 550
1999 6 561 556 553 557
2000 6 561 556 553 558
2001 3 791 788 784 783
2002 4 791 788 784 789
2003 4 791 788 784 790
2004 5 792 788 784 783
2005 6 792 788 784 789
2006 6 792 788 784 790
2007 5 793 788 784 783
2008 6 793 788 784 789
2009 6 793 788 784 790
2010 7 556 553 550 546
2011 4 556 553 550 554
2012 4 556 553 550 555
2013 4 557 553 550 546
2014 6 557 553 550 554
2015 6 557 553 550 555
2016 4 558 553 550 546
2017 6 558 553 550 554
2018 6 558 553 550 555
2019 8 1065 1062 1061 1063
2020 8 1065 1062 1061 1064
2021 9 1066 1062 1061 1063
2022 9 1066 1062 1061 1064
2023 9 1067 1062 1061 1063
2024 9 1067 1062 1061 1064
2025 1 550 546 545 547
2026 1 550 546 545 548
2027 1 550 546 545 549
2028 2 551 546 545 547
2029 2 551 546 545 548
2030 2 551 546 545 549
2031 2 552 546 545 547
2032 2 552 546 545 548
2033 2 552 546 545 549
2034 3 553 550 546 545
2035 4 553 550 546 551
2036 4 553 550 546 552
2037 5 554 550 546 545
2038 6 554 550 546 551
2039 6 554 550 546 552
2040 5 555 550 546 545
2041 6 555 550 546 551
2042 6 555 550 546 552
2043 7 999 996 993 990
2044 4 999 996 993 997
2045 4 999 996 993 998
2046 4 1000 996 993 990
2047 6 1000 996 993 997
2048 6 1000 996 993 998
2049 4 1001 996 993 990
2050 6 1001 996 993 997
2051 6 1001 996 993 998
2052 10 993 990 987 986
2053 4 993 990 987 991
2054 4 993 990 987 992
2055 11 994 990 987 986
2056 6 994 990 987 991
2057 6 994 990 987 992
2058 11 995 990 987 986
2059 6 995 990 987 991
2060 6 995 990 987 992
2061 7 996 993 990 987
2062 4 996 993 990 994
2063 4 996 993 990 995
2064 4 997 993 990 987
2065 6 997 993 990 994
2066 6 997 993 990 995
2067 4 998 993 990 987
2068 6 998 993 990 994
2069 6 998 993 990 995
2070 8 990 987 986 988
2071 8 990 987 986 989
2072 9 991 987 986 988
2073 9 991 987 986 989
2074 9 992 987 986 988
2075 9 992 987 986 989
2076 10 1068 1065 1062 1061
2077 4 1068 1065 1062 1066
2078 4 1068 1065 1062 1067
2079 11 1069 1065 1062 1061
2080 6 1069 1065 1062 1066
2081 6 1069 1065 1062 1067
2082 11 1070 1065 1062 1061
2083 6 1070 1065 1062 1066
2084 6 1070 1065 1062 1067
2085 4 1758 1755 1752 1749
2086 6 1758 1755 1752 1756
2087 6 1758 1755 1752 1757
2088 4 1759 1755 1752 1749
2089 6 1759 1755 1752 1756
2090 6 1759 1755 1752 1757
2091 4 1760 1755 1752 1749
2092 6 1760 1755 1752 1756
2093 6 1760 1755 1752 1757
2094 7 1755 1752 1749 1746
2095 4 1755 1752 1749 1753
2096 4 1755 1752 1749 1754
2097 4 1756 1752 1749 1746
2098 6 1756 1752 1749 1753
2099 6 1756 1752 1749 1754
2100 4 1757 1752 1749 1746
2101 6 1757 1752 1749 1753
2102 6 1757 1752 1749 1754
2103 4 797 794 791 788
2104 6 797 794 791 795
2105 6 797 794 791 796
2106 4 798 794 791 788
2107 6 798 794 791 795
2108 6 798 794 791 796
2109 4 799 794 791 788
2110 6 799 794 791 795
2111 6 799 794 791 796
2112 10 2118 2115 2112 2111
2113 4 2118 2115 2112 2116
2114 4 2118 2115 2112 2117
2115 11 2119 2115 2112 2111
2116 6 2119 2115 2112 2116
2117 6 2119 2115 2112 2117
2118 11 2120 2115 2112 2111
2119 6 2120 2115 2112 2116
2120 6 2120 2115 2112 2117
2121 7 2121 2118 2115 2112
2122 4 2121 2118 2115 2119
2123 4 2121 2118 2115 2120
2124 4 2122 2118 2115 2112
2125 6 2122 2118 2115 2119
2126 6 2122 2118 2115 2120
2127 4 2123 2118 2115 2112
2128 6 2123 2118 2115 2119
2129 6 2123 2118 2115 2120
2130 7 2124 2121 2118 2115
2131 4 2124 2121 2118 2122
2132 4 2124 2121 2118 2123
2133 4 2125 2121 2118 2115
2134 6 2125 2121 2118 2122
2135 6 2125 2121 2118 2123
2136 4 2126 2121 2118 2115
2137 6 2126 2121 2118 2122
2138 6 2126 2121 2118 2123
2139 7 2127 2124 2121 2118
2140 4 2127 2124 2121 2125
2141 4 2127 2124 2121 2126
2142 4 2128 2124 2121 2118
2143 6 2128 2124 2121 2125
2144 6 2128 2124 2121 2126
2145 4 2129 2124 2121 2118
2146 6 2129 2124 2121 2125
2147 6 2129 2124 2121 2126
2148 7 2130 2127 2124 2121
2149 4 2130 2127 2124 2128
2150 4 2130 2127 2124 2129
2151 4 2131 2127 2124 2121
2152 6 2131 2127 2124 2128
2153 6 2131 2127 2124 2129
2154 4 2132 2127 2124 2121
2155 6 2132 2127 2124 2128
2156 6 2132 2127 2124 2129
2157 3 774 771 767 766
2158 4 774 771 767 772
2159 4 774 771 767 773
2160 5 775 771 767 766
2161 6 775 771 767 772
2162 6 775 771 767 773
2163 5 776 771 767 766
2164 6 776 771 767 772
2165 6 776 771 767 773
2166 12 2287 2288 2286 2289
2167 7 1374 1371 1368 1365
2168 4 1374 1371 1368 1372
2169 4 1374 1371 1368 1373
2170 4 1375 1371 1368 1365
2171 6 1375 1371 1368 1372
2172 6 1375 1371 1368 1373
2173 4 1376 1371 1368 1365
2174 6 1376 1371 1368 1372
2175 6 1376 1371 1368 1373
2176 3 434 431 427 426
2177 4 434 431 427 432
2178 4 434 431 427 433
2179 5 435 431 427 426
2180 6 435 431 427 432
2181 6 435 431 427 433
2182 5 436 431 427 426
2183 6 436 431 427 432
2184 6 436 431 427 433
2185 1 431 427 426 428
2186 1 431 427 426 429
2187 1 431 427 426 430
2188 2 432 427 426 428
2189 2 432 427 426 429
2190 2 432 427 426 430
2191 2 433 427 426 428
2192 2 433 427 426 429
2193 2 433 427 426 430
2194 7 437 434 431 427
2195 4 437 434 431 435
2196 4 437 434 431 436
2197 4 438 434 431 427
2198 6 438 434 431 435
2199 6 438 434 431 436
2200 4 439 434 431 427
2201 6 439 434 431 435
2202 6 439 434 431 436
2203 12 2062 2063 2061 2064
2204 4 185 182 179 176
2205 6 185 182 179 183
2206 6 185 182 179 184
2207 4 186 182 179 176
2208 6 186 182 179 183
2209 6 186 182 179 184
2210 4 187 182 179 176
2211 6 187 182 179 183
2212 6 187 182 179 184
2213 12 2212 2213 2211 2214
2214 8 2065 2062 2061 2063
2215 8 2065 2062 2061 2064
2216 9 2066 2062 2061 2063
2217 9 2066 2062 2061 2064
2218 9 2067 2062 2061 2063
2219 9 2067 2062 2061 2064
2220 8 2215 2212 2211 2213
2221 8 2215 2212 2211 2214
2222 9 2216 2212 2211 2213
2223 9 2216 2212 2211 2214
2224 9 2217 2212 2211 2213
2225 9 2217 2212 2211 2214
2226 7 862 859 856 852
2227 4 862 859 856 860
2228 4 862 859 856 861
2229 4 863 859 856 852
2230 6 863 859 856 860
2231 6 863 859 856 861
2232 4 864 859 856 852
2233 6 864 859 856 860
2234 6 864 859 856 861
2235 3 859 856 852 851
2236 4 859 856 852 857
2237 4 859 856 852 858
2238 5 860 856 852 851
2239 6 860 856 852 857
2240 6 860 856 852 858
2241 5 861 856 852 851
2242 6 861 856 852 857
2243 6 861 856 852 858
2244 1 856 852 851 853
2245 1 856 852 851 854
2246 1 856 852 851 855
2247 2 857 852 851 853
2248 2 857 852 851 854
2249 2 857 852 851 855
2250 2 858 852 851 853
2251 2 858 852 851 854
2252 2 858 852 851 855
2253 3 162 159 155 154
2254 4 162 159 155 160
2255 4 162 159 155 161
2256 5 163 159 155 154
2257 6 163 159 155 160
2258 6 163 159 155 161
2259 5 164 159 155 154
2260 6 164 159 155 160
2261 6 164 159 155 161
2262 1 159 155 154 156
2263 1 159 155 154 157
2264 1 159 155 154 158
2265 2 160 155 154 156
2266 2 160 155 154 157
2267 2 160 155 154 158
2268 2 161 155 154 156
2269 2 161 155 154 157
2270 2 161 155 154 158
2271 7 1577 1574 1571 1568
2272 4 1577 1574 1571 1575
2273 4 1577 1574 1571 1576
2274 4 1578 1574 1571 1568
2275 6 1578 1574 1571 1575
2276 6 1578 1574 1571 1576
2277 4 1579 1574 1571 1568
2278 6 1579 1574 1571 1575
2279 6 1579 1574 1571 1576
2280 7 1574 1571 1568 1565
2281 4 1574 1571 1568 1572
2282 4 1574 1571 1568 1573
2283 4 1575 1571 1568 1565
2284 6 1575 1571 1568 1572
2285 6 1575 1571 1568 1573
2286 4 1576 1571 1568 1565
2287 6 1576 1571 1568 1572
2288 6 1576 1571 1568 1573
2289 7 1571 1568 1565 1562
2290 4 1571 1568 1565 1569
2291 4 1571 1568 1565 1570
2292 4 1572 1568 1565 1562
2293 6 1572 1568 1565 1569
2294 6 1572 1568 1565 1570
2295 4 1573 1568 1565 1562
2296 6 1573 1568 1565 1569
2297 6 1573 1568 1565 1570
2298 7 1580 1577 1574 1571
2299 4 1580 1577 1574 1578
2300 4 1580 1577 1574 1579
2301 4 1581 1577 1574 1571
2302 6 1581 1577 1574 1578
2303 6 1581 1577 1574 1579
2304 4 1582 1577 1574 1571
2305 6 1582 1577 1574 1578
2306 6 1582 1577 1574 1579
2307 10 1568 1565 1562 1561
2308 4 1568 1565 1562 1566
2309 4 1568 1565 1562 1567
2310 11 1569 1565 1562 1561
2311 6 1569 1565 1562 1566
2312 6 1569 1565 1562 1567
2313 11 1570 1565 1562 1561
2314 6 1570 1565 1562 1566
2315 6 1570 1565 1562 1567
2316 7 1002 999 996 993
2317 4 1002 999 996 1000
2318 4 1002 999 996 1001
2319 4 1003 999 996 993
2320 6 1003 999 996 1000
2321 6 1003 999 996 1001
2322 4 1004 999 996 993
2323 6 1004 999 996 1000
2324 6 1004 999 996 1001
2325 7 1071 1068 1065 1062
2326 4 1071 1068 1065 1069
2327 4 1071 1068 1065 1070
2328 4 1072 1068 1065 1062
2329 6 1072 1068 1065 1069
2330 6 1072 1068 1065 1070
2331 4 1073 1068 1065 1062
2332 6 1073 1068 1065 1069
2333 6 1073 1068 1065 1070
2334 4 899 896 893 890
2335 6 899 896 893 897
2336 6 899 896 893 898
2337 4 900 896 893 890
2338 6 900 896 893 897
2339 6 900 896 893 898
2340 4 901 896 893 890
2341 6 901 896 893 897
2342 6 901 896 893 898
2343 7 1074 1071 1068 1065
2344 4 1074 1071 1068 1072
2345 4 1074 1071 1068 1073
2346 4 1075 1071 1068 1065
2347 6 1075 1071 1068 1072
2348 6 1075 1071 1068 1073
2349 4 1076 1071 1068 1065
2350 6 1076 1071 1068 1072
2351 6 1076 1071 1068 1073
2352 4 1583 1580 1577 1574
2353 6 1583 1580 1577 1581
2354 6 1583 1580 1577 1582
2355 4 1584 1580 1577 1574
2356 6 1584 1580 1577 1581
2357 6 1584 1580 1577 1582
2358 4 1585 1580 1577 1574
2359 6 1585 1580 1577 1581
2360 6 1585 1580 1577 1582
2361 7 1005 1002 999 996
2362 4 1005 1002 999 1003
2363 4 1005 1002 999 1004
2364 4 1006 1002 999 996
2365 6 1006 1002 999 1003
2366 6 1006 1002 999 1004
2367 4 1007 1002 999 996
2368 6 1007 1002 999 1003
2369 6 1007 1002 999 1004
2370 4 1008 1005 1002 999
2371 6 1008 1005 1002 1006
2372 6 1008 1005 1002 1007
2373 4 1009 1005 1002 999
2374 6 1009 1005 1002 1006
2375 6 1009 1005 1002 1007
2376 4 1010 1005 1002 999
2377 6 1010 1005 1002 1006
2378 6 1010 1005 1002 1007
2379 7 1080 1077 1074 1071
2380 4 1080 1077 1074 1078
2381 4 1080 1077 1074 1079
2382 4 1081 1077 1074 1071
2383 6 1081 1077 1074 1078
2384 6 1081 1077 1074 1079
2385 4 1082 1077 1074 1071
2386 6 1082 1077 1074 1078
2387 6 1082 1077 1074 1079
2388 7 896 893 890 886
2389 4 896 893 890 894
2390 4 896 893 890 895
2391 4 897 893 890 886
2392 6 897 893 890 894
2393 6 897 893 890 895
2394 4 898 893 890 886
2395 6 898 893 890 894
2396 6 898 893 890 895
2397 4 2133 2130 2127 2124
2398 6 2133 2130 2127 2131
2399 6 2133 2130 2127 2132
2400 4 2134 2130 2127 2124
2401 6 2134 2130 2127 2131
2402 6 2134 2130 2127 2132
2403 4 2135 2130 2127 2124
2404 6 2135 2130 2127 2131
2405 6 2135 2130 2127 2132
2406 7 1077 1074 1071 1068
2407 4 1077 1074 1071 1075
2408 4 1077 1074 1071 1076
2409 4 1078 1074 1071 1068
2410 6 1078 1074 1071 1075
2411 6 1078 1074 1071 1076
2412 4 1079 1074 1071 1068
2413 6 1079 1074 1071 1075
2414 6 1079 1074 1071 1076
2415 7 1771 1768 1765 1762
2416 4 1771 1768 1765 1769
2417 4 1771 1768 1765 1770
2418 4 1772 1768 1765 1762
2419 6 1772 1768 1765 1769
2420 6 1772 1768 1765 1770
2421 4 1773 1768 1765 1762
2422 6 1773 1768 1765 1769
2423 6 1773 1768 1765 1770
2424 4 1083 1080 1077 1074
2425 6 1083 1080 1077 1081
2426 6 1083 1080 1077 1082
2427 4 1084 1080 1077 1074
2428 6 1084 1080 1077 1081
2429 6 1084 1080 1077 1082
2430 4 1085 1080 1077 1074
2431 6 1085 1080 1077 1081
2432 6 1085 1080 1077 1082
2433 7 1780 1777 1774 1771
2434 4 1780 1777 1774 1778
2435 4 1780 1777 1774 1779
2436 4 1781 1777 1774 1771
2437 6 1781 1777 1774 1778
2438 6 1781 1777 1774 1779
2439 4 1782 1777 1774 1771
2440 6 1782 1777 1774 1778
2441 6 1782 1777 1774 1779
2442 7 1777 1774 1771 1768
2443 4 1777 1774 1771 1775
2444 4 1777 1774 1771 1776
2445 4 1778 1774 1771 1768
2446 6 1778 1774 1771 1775
2447 6 1778 1774 1771 1776
2448 4 1779 1774 1771 1768
2449 6 1779 1774 1771 1775
2450 6 1779 1774 1771 1776
2451 4 1783 1780 1777 1774
2452 6 1783 1780 1777 1781
2453 6 1783 1780 1777 1782
2454 4 1784 1780 1777 1774
2455 6 1784 1780 1777 1781
2456 6 1784 1780 1777 1782
2457 4 1785 1780 1777 1774
2458 6 1785 1780 1777 1781
2459 6 1785 1780 1777 1782
2460 7 1774 1771 1768 1765
2461 4 1774 1771 1768 1772
2462 4 1774 1771 1768 1773
2463 4 1775 1771 1768 1765
2464 6 1775 1771 1768 1772
2465 6 1775 1771 1768 1773
2466 4 1776 1771 1768 1765
2467 6 1776 1771 1768 1772
2468 6 1776 1771 1768 1773
2469 4 440 437 434 431
2470 6 440 437 434 438
2471 6 440 437 434 439
2472 4 441 437 434 431
2473 6 441 437 434 438
2474 6 441 437 434 439
2475 4 442 437 434 431
2476 6 442 437 434 438
2477 6 442 437 434 439
2478 4 151 148 145 142
2479 6 151 148 145 149
2480 6 151 148 145 150
2481 4 152 148 145 142
2482 6 152 148 145 149
2483 6 152 148 145 150
2484 4 153 148 145 142
2485 6 153 148 145 149
2486 6 153 148 145 150
2487 7 1371 1368 1365 1362
2488 4 1371 1368 1365 1369
2489 4 1371 1368 1365 1370
2490 4 1372 1368 1365 1362
2491 6 1372 1368 1365 1369
2492 6 1372 1368 1365 1370
2493 4 1373 1368 1365 1362
2494 6 1373 1368 1365 1369
2495 6 1373 1368 1365 1370
2496 10 1368 1365 1362 1361
2497 4 1368 1365 1362 1366
2498 4 1368 1365 1362 1367
2499 11 1369 1365 1362 1361
2500 6 1369 1365 1362 1366
2501 6 1369 1365 1362 1367
2502 11 1370 1365 1362 1361
2503 6 1370 1365 1362 1366
2504 6 1370 1365 1362 1367
2505 7 148 145 142 138
2506 4 148 145 142 146
2507 4 148 145 142 147
2508 4 149 145 142 138
2509 6 149 145 142 146
2510 6 149 145 142 147
2511 4 150 145 142 138
2512 6 150 145 142 146
2513 6 150 145 142 147
2514 8 1365 1362 1361 1363
2515 8 1365 1362 1361 1364
2516 9 1366 1362 1361 1363
2517 9 1366 1362 1361 1364
2518 9 1367 1362 1361 1363
2519 9 1367 1362 1361 1364
2520 7 1321 1318 1315 1312
2521 4 1321 1318 1315 1319
2522 4 1321 1318 1315 1320
2523 4 1322 1318 1315 1312
2524 6 1322 1318 1315 1319
2525 6 1322 1318 1315 1320
2526 4 1323 1318 1315 1312
2527 6 1323 1318 1315 1319
2528 6 1323 1318 1315 1320
2529 7 1324 1321 1318 1315
2530 4 1324 1321 1318 1322
2531 4 1324 1321 1318 1323
2532 4 1325 1321 1318 1315
2533 6 1325 1321 1318 1322
2534 6 1325 1321 1318 1323
2535 4 1326 1321 1318 1315
2536 6 1326 1321 1318 1322
2537 6 1326 1321 1318 1323
2538 12 1362 1363 1361 1364
2539 8 1565 1562 1561 1563
2540 8 1565 1562 1561 1564
2541 9 1566 1562 1561 1563
2542 9 1566 1562 1561 1564
2543 9 1567 1562 1561 1563
2544 9 1567 1562 1561 1564
2545 7 1327 1324 1321 1318
2546 4 1327 1324 1321 1325
2547 4 1327 1324 1321 1326
2548 4 1328 1324 1321 1318
2549 6 1328 1324 1321 1325
2550 6 1328 1324 1321 1326
2551 4 1329 1324 1321 1318
2552 6 1329 1324 1321 1325
2553 6 1329 1324 1321 1326
2554 3 315 312 308 307
2555 4 315 312 308 313
2556 4 315 312 308 314
2557 5 316 312 308 307
2558 6 316 312 308 313
2559 6 316 312 308 314
2560 5 317 312 308 307
2561 6 317 312 308 313
2562 6 317 312 308 314
2563 1 312 308 307 309
2564 1 312 308 307 310
2565 1 312 308 307 311
2566 2 313 308 307 309
2567 2 313 308 307 310
2568 2 313 308 307 311
2569 2 314 308 307 309
2570 2 314 308 307 310
2571 2 314 308 307 311
2572 12 1562 1563 1561 1564
2573 3 740 737 733 732
2574 4 740 737 733 738
2575 4 740 737 733 739
2576 5 741 737 733 732
2577 6 741 737 733 738
2578 6 741 737 733 739
2579 5 742 737 733 732
2580 6 742 737 733 738
2581 6 742 737 733 739
2582 12 1887 1888 1886 1889
2583 1 737 733 732 734
2584 1 737 733 732 735
2585 1 737 733 732 736
2586 2 738 733 732 734
2587 2 738 733 732 735
2588 2 738 733 732 736
2589 2 739 733 732 734
2590 2 739 733 732 735
2591 2 739 733 732 736
2592 10 1843 1840 1837 1836
2593 4 1843 1840 1837 1841
2594 4 1843 1840 1837 1842
2595 11 1844 1840 1837 1836
2596 6 1844 1840 1837 1841
2597 6 1844 1840 1837 1842
2598 11 1845 1840 1837 1836
2599 6 1845 1840 1837 1841
2600 6 1845 1840 1837 1842
2601 4 1883 1880 1877 1874
2602 6 1883 1880 1877 1881
2603 6 1883 1880 1877 1882
2604 4 1884 1880 1877 1874
2605 6 1884 1880 1877 1881
2606 6 1884 1880 1877 1882
2607 4 1885 1880 1877 1874
2608 6 1885 1880 1877 1881
2609 6 1885 1880 1877 1882
2610 7 1880 1877 1874 1871
2611 4 1880 1877 1874 1878
2612 4 1880 1877 1874 1879
2613 4 1881 1877 1874 1871
2614 6 1881 1877 1874 1878
2615 6 1881 1877 1874 1879
2616 4 1882 1877 1874 1871
2617 6 1882 1877 1874 1878
2618 6 1882 1877 1874 1879
2619 4 2008 2005 2002 1999
2620 6 2008 2005 2002 2006
2621 6 2008 2005 2002 2007
2622 4 2009 2005 2002 1999
2623 6 2009 2005 2002 2006
2624 6 2009 2005 2002 2007
2625 4 2010 2005 2002 1999
2626 6 2010 2005 2002 2006
2627 6 2010 2005 2002 2007
2628 7 2005 2002 1999 1996
2629 4 2005 2002 1999 2003
2630 4 2005 2002 1999 2004
2631 4 2006 2002 1999 1996
2632 6 2006 2002 1999 2003
2633 6 2006 2002 1999 2004
2634 4 2007 2002 1999 1996
2635 6 2007 2002 1999 2003
2636 6 2007 2002 1999 2004
2637 7 2002 1999 1996 1993
2638 4 2002 1999 1996 2000
2639 4 2002 1999 1996 2001
2640 4 2003 1999 1996 1993
2641 6 2003 1999 1996 2000
2642 6 2003 1999 1996 2001
2643 4 2004 1999 1996 1993
2644 6 2004 1999 1996 2000
2645 6 2004 1999 1996 2001
2646 7 2146 2143 2140 2137
2647 4 2146 2143 2140 2144
2648 4 2146 2143 2140 2145
2649 4 2147 2143 2140 2137
2650 6 2147 2143 2140 2144
2651 6 2147 2143 2140 2145
2652 4 2148 2143 2140 2137
2653 6 2148 2143 2140 2144
2654 6 2148 2143 2140 2145
2655 3 145 142 138 137
2656 4 145 142 138 143
2657 4 145 142 138 144
2658 5 146 142 138 137
2659 6 146 142 138 143
2660 6 146 142 138 144
2661 5 147 142 138 137
2662 6 147 142 138 143
2663 6 147 142 138 144
2664 1 244 240 239 241
2665 1 244 240 239 242
2666 1 244 240 239 243
2667 2 245 240 239 241
2668 2 245 240 239 242
2669 2 245 240 239 243
2670 2 246 240 239 241
2671 2 246 240 239 242
2672 2 246 240 239 243
2673 8 1990 1987 1986 1988
2674 8 1990 1987 1986 1989
2675 9 1991 1987 1986 1988
2676 9 1991 1987 1986 1989
2677 9 1992 1987 1986 1988
2678 9 1992 1987 1986 1989
2679 8 2140 2137 2136 2138
2680 8 2140 2137 2136 2139
2681 9 2141 2137 2136 2138
2682 9 2141 2137 2136 2139
2683 9 2142 2137 2136 2138
2684 9 2142 2137 2136 2139
2685 1 142 138 137 139
2686 1 142 138 137 140
2687 1 142 138 137 141
2688 2 143 138 137 139
2689 2 143 138 137 140
2690 2 143 138 137 141
2691 2 144 138 137 139
2692 2 144 138 137 140
2693 2 144 138 137 141
2694 12 2137 2138 2136 2139
2695 10 1993 1990 1987 1986
2696 4 1993 1990 1987 1991
2697 4 1993 1990 1987 1992
2698 11 1994 1990 1987 1986
2699 6 1994 1990 1987 1991
2700 6 1994 1990 1987 1992
2701 11 1995 1990 1987 1986
2702 6 1995 1990 1987 1991
2703 6 1995 1990 1987 1992
2704 12 1987 1988 1986 1989
2705 7 2149 2146 2143 2140
2706 4 2149 2146 2143 2147
2707 4 2149 2146 2143 2148
2708 4 2150 2146 2143 2140
2709 6 2150 2146 2143 2147
2710 6 2150 2146 2143 2148
2711 4 2151 2146 2143 2140
2712 6 2151 2146 2143 2147
2713 6 2151 2146 2143 2148
2714 7 1999 1996 1993 1990
2715 4 1999 1996 1993 1997
2716 4 1999 1996 1993 1998
2717 4 2000 1996 1993 1990
2718 6 2000 1996 1993 1997
2719 6 2000 1996 1993 1998
2720 4 2001 1996 1993 1990
2721 6 2001 1996 1993 1997
2722 6 2001 1996 1993 1998
2723 7 1996 1993 1990 1987
2724 4 1996 1993 1990 1994
2725 4 1996 1993 1990 1995
2726 4 1997 1993 1990 1987
2727 6 1997 1993 1990 1994
2728 6 1997 1993 1990 1995
2729 4 1998 1993 1990 1987
2730 6 1998 1993 1990 1994
2731 6 1998 1993 1990 1995
2732 10 2143 2140 2137 2136
2733 4 2143 2140 2137 2141
2734 4 2143 2140 2137 2142
2735 11 2144 2140 2137 2136
2736 6 2144 2140 2137 2141
2737 6 2144 2140 2137 2142
2738 11 2145 2140 2137 2136
2739 6 2145 2140 2137 2141
2740 6 2145 2140 2137 2142
2741 10 1543 1540 1537 1536
2742 4 1543 1540 1537 1541
2743 4 1543 1540 1537 1542
2744 11 1544 1540 1537 1536
2745 6 1544 1540 1537 1541
2746 6 1544 1540 1537 1542
2747 11 1545 1540 1537 1536
2748 6 1545 1540 1537 1541
2749 6 1545 1540 1537 1542
2750 4 746 743 740 737
2751 6 746 743 740 744
2752 6 746 743 740 745
2753 4 747 743 740 737
2754 6 747 743 740 744
2755 6 747 743 740 745
2756 4 748 743 740 737
2757 6 748 743 740 744
2758 6 748 743 740 745
2759 12 1537 1538 1536 1539
2760 8 1540 1537 1536 1538
2761 8 1540 1537 1536 1539
2762 9 1541 1537 1536 1538
2763 9 1541 1537 1536 1539
2764 9 1542 1537 1536 1538
2765 9 1542 1537 1536 1539
2766 7 1330 1327 1324 1321
2767 4 1330 1327 1324 1328
2768 4 1330 1327 1324 1329
2769 4 1331 1327 1324 1321
2770 6 1331 1327 1324 1328
2771 6 1331 1327 1324 1329
2772 4 1332 1327 1324 1321
2773 6 1332 1327 1324 1328
2774 6 1332 1327 1324 1329
2775 4 1333 1330 1327 1324
2776 6 1333 1330 1327 1331
2777 6 1333 1330 1327 1332
2778 4 1334 1330 1327 1324
2779 6 1334 1330 1327 1331
2780 6 1334 1330 1327 1332
2781 4 1335 1330 1327 1324
2782 6 1335 1330 1327 1331
2783 6 1335 1330 1327 1332
2784 4 2033 2030 2027 2024
2785 6 2033 2030 2027 2031
2786 6 2033 2030 2027 2032
2787 4 2034 2030 2027 2024
2788 6 2034 2030 2027 2031
2789 6 2034 2030 2027 2032
2790 4 2035 2030 2027 2024
2791 6 2035 2030 2027 2031
2792 6 2035 2030 2027 2032
2793 7 2030 2027 2024 2021
2794 4 2030 2027 2024 2028
2795 4 2030 2027 2024 2029
2796 4 2031 2027 2024 2021
2797 6 2031 2027 2024 2028
2798 6 2031 2027 2024 2029
2799 4 2032 2027 2024 2021
2800 6 2032 2027 2024 2028
2801 6 2032 2027 2024 2029
2802 7 454 451 448 444
2803 4 454 451 448 452
2804 4 454 451 448 453
2805 4 455 451 448 444
2806 6 455 451 448 452
2807 6 455 451 448 453
2808 4 456 451 448 444
2809 6 456 451 448 452
2810 6 456 451 448 453
2811 7 2027 2024 2021 2018
2812 4 2027 2024 2021 2025
2813 4 2027 2024 2021 2026
2814 4 2028 2024 2021 2018
2815 6 2028 2024 2021 2025
2816 6 2028 2024 2021 2026
2817 4 2029 2024 2021 2018
2818 6 2029 2024 2021 2025
2819 6 2029 2024 2021 2026
2820 7 2024 2021 2018 2015
2821 4 2024 2021 2018 2022
2822 4 2024 2021 2018 2023
2823 4 2025 2021 2018 2015
2824 6 2025 2021 2018 2022
2825 6 2025 2021 2018 2023
2826 4 2026 2021 2018 2015
2827 6 2026 2021 2018 2022
2828 6 2026 2021 2018 2023
2829 4 933 930 927 924
2830 6 933 930 927 931
2831 6 933 930 927 932
2832 4 934 930 927 924
2833 6 934 930 927 931
2834 6 934 930 927 932
2835 4 935 930 927 924
2836 6 935 930 927 931
2837 6 935 930 927 932
2838 1 567 563 562 564
2839 1 567 563 562 565
2840 1 567 563 562 566
2841 2 568 563 562 564
2842 2 568 563 562 565
2843 2 568 563 562 566
2844 2 569 563 562 564
2845 2 569 563 562 565
2846 2 569 563 562 566
2847 10 1243 1240 1237 1236
2848 4 1243 1240 1237 1241
2849 4 1243 1240 1237 1242
2850 11 1244 1240 1237 1236
2851 6 1244 1240 1237 1241
2852 6 1244 1240 1237 1242
2853 11 1245 1240 1237 1236
2854 6 1245 1240 1237 1241
2855 6 1245 1240 1237 1242
2856 12 1837 1838 1836 1839
2857 7 760 757 754 750
2858 4 760 757 754 758
2859 4 760 757 754 759
2860 4 761 757 754 750
2861 6 761 757 754 758
2862 6 761 757 754 759
2863 4 762 757 754 750
2864 6 762 757 754 758
2865 6 762 757 754 759
2866 4 763 760 757 754
2867 6 763 760 757 761
2868 6 763 760 757 762
2869 4 764 760 757 754
2870 6 764 760 757 761
2871 6 764 760 757 762
2872 4 765 760 757 754
2873 6 765 760 757 761
2874 6 765 760 757 762
2875 3 570 567 563 562
2876 4 570 567 563 568
2877 4 570 567 563 569
2878 5 571 567 563 562
2879 6 571 567 563 568
2880 6 571 567 563 569
2881 5 572 567 563 562
2882 6 572 567 563 568
2883 6 572 567 563 569
2884 3 757 754 750 749
2885 4 757 754 750 755
2886 4 757 754 750 756
2887 5 758 754 750 749
2888 6 758 754 750 755
2889 6 758 754 750 756
2890 5 759 754 750 749
2891 6 759 754 750 755
2892 6 759 754 750 756
2893 7 2280 2277 2274 2271
2894 4 2280 2277 2274 2278
2895 4 2280 2277 2274 2279
2896 4 2281 2277 2274 2271
2897 6 2281 2277 2274 2278
2898 6 2281 2277 2274 2279
2899 4 2282 2277 2274 2271
2900 6 2282 2277 2274 2278
2901 6 2282 2277 2274 2279
2902 7 828 825 822 818
2903 4 828 825 822 826
2904 4 828 825 822 827
2905 4 829 825 822 818
2906 6 829 825 822 826
2907 6 829 825 822 827
2908 4 830 825 822 818
2909 6 830 825 822 826
2910 6 830 825 822 827
2911 7 2277 2274 2271 2268
2912 4 2277 2274 2271 2275
2913 4 2277 2274 2271 2276
2914 4 2278 2274 2271 2268
2915 6 2278 2274 2271 2275
2916 6 2278 2274 2271 2276
2917 4 2279 2274 2271 2268
2918 6 2279 2274 2271 2275
2919 6 2279 2274 2271 2276
2920 4 831 828 825 822
2921 6 831 828 825 829
2922 6 831 828 825 830
2923 4 832 828 825 822
2924 6 832 828 825 829
2925 6 832 828 825 830
2926 4 833 828 825 822
2927 6 833 828 825 829
2928 6 833 828 825 830
2929 4 2283 2280 2277 2274
2930 6 2283 2280 2277 2281
2931 6 2283 2280 2277 2282
2932 4 2284 2280 2277 2274
2933 6 2284 2280 2277 2281
2934 6 2284 2280 2277 2282
2935 4 2285 2280 2277 2274
2936 6 2285 2280 2277 2281
2937 6 2285 2280 2277 2282
2938 7 2274 2271 2268 2265
2939 4 2274 2271 2268 2272
2940 4 2274 2271 2268 2273
2941 4 2275 2271 2268 2265
2942 6 2275 2271 2268 2272
2943 6 2275 2271 2268 2273
2944 4 2276 2271 2268 2265
2945 6 2276 2271 2268 2272
2946 6 2276 2271 2268 2273
2947 3 825 822 818 817
2948 4 825 822 818 823
2949 4 825 822 818 824
2950 5 826 822 818 817
2951 6 826 822 818 823
2952 6 826 822 818 824
2953 5 827 822 818 817
2954 6 827 822 818 823
2955 6 827 822 818 824
2956 7 1855 1852 1849 1846
2957 4 1855 1852 1849 1853
2958 4 1855 1852 1849 1854
2959 4 1856 1852 1849 1846
2960 6 1856 1852 1849 1853
2961 6 1856 1852 1849 1854
2962 4 1857 1852 1849 1846
2963 6 1857 1852 1849 1853
2964 6 1857 1852 1849 1854
2965 1 822 818 817 819
2966 1 822 818 817 820
2967 1 822 818 817 821
2968 2 823 818 817 819
2969 2 823 818 817 820
2970 2 823 818 817 821
2971 2 824 818 817 819
2972 2 824 818 817 820
2973 2 824 818 817 821
2974 7 2155 2152 2149 2146
2975 4 2155 2152 2149 2153
2976 4 2155 2152 2149 2154
2977 4 2156 2152 2149 2146
2978 6 2156 2152 2149 2153
2979 6 2156 2152 2149 2154
2980 4 2157 2152 2149 2146
2981 6 2157 2152 2149 2153
2982 6 2157 2152 2149 2154
2983 7 2152 2149 2146 2143
2984 4 2152 2149 2146 2150
2985 4 2152 2149 2146 2151
2986 4 2153 2149 2146 2143
2987 6 2153 2149 2146 2150
2988 6 2153 2149 2146 2151
2989 4 2154 2149 2146 2143
2990 6 2154 2149 2146 2150
2991 6 2154 2149 2146 2151
2992 4 2158 2155 2152 2149
2993 6 2158 2155 2152 2156
2994 6 2158 2155 2152 2157
2995 4 2159 2155 2152 2149
2996 6 2159 2155 2152 2156
2997 6 2159 2155 2152 2157
2998 4 2160 2155 2152 2149
2999 6 2160 2155 2152 2156
3000 6 2160 2155 2152 2157
3001 7 2271 2268 2265 2262
3002 4 2271 2268 2265 2269
3003 4 2271 2268 2265 2270
3004 4 2272 2268 2265 2262
3005 6 2272 2268 2265 2269
3006 6 2272 2268 2265 2270
3007 4 2273 2268 2265 2262
3008 6 2273 2268 2265 2269
3009 6 2273 2268 2265 2270
3010 10 2268 2265 2262 2261
3011 4 2268 2265 2262 2266
3012 4 2268 2265 2262 2267
3013 11 2269 2265 2262 2261
3014 6 2269 2265 2262 2266
3015 6 2269 2265 2262 2267
3016 11 2270 2265 2262 2261
3017 6 2270 2265 2262 2266
3018 6 2270 2265 2262 2267
3019 8 2265 2262 2261 2263
3020 8 2265 2262 2261 2264
3021 9 2266 2262 2261 2263
3022 9 2266 2262 2261 2264
3023 9 2267 2262 2261 2263
3024 9 2267 2262 2261 2264
3025 12 2262 2263 2261 2264
3026 3 451 448 444 443
3027 4 451 448 444 449
3028 4 451 448 444 450
3029 5 452 448 444 443
3030 6 452 448 444 449
3031 6 452 448 444 450
3032 5 453 448 444 443
3033 6 453 448 444 449
3034 6 453 448 444 450
3035 1 448 444 443 445
3036 1 448 444 443 446
3037 1 448 444 443 447
3038 2 449 444 443 445
3039 2 449 444 443 446
3040 2 449 444 443 447
3041 2 450 444 443 445
3042 2 450 444 443 446
3043 2 450 444 443 447
3044 4 457 454 451 448
3045 6 457 454 451 455
3046 6 457 454 451 456
3047 4 458 454 451 448
3048 6 458 454 451 455
3049 6 458 454 451 456
3050 4 459 454 451 448
3051 6 459 454 451 455
3052 6 459 454 451 456
3053 12 1687 1688 1686 1689
3054 4 202 199 196 193
3055 6 202 199 196 200
3056 6 202 199 196 201
3057 4 203 199 196 193
3058 6 203 199 196 200
3059 6 203 199 196 201
3060 4 204 199 196 193
3061 6 204 199 196 200
3062 6 204 199 196 201
3063 8 1690 1687 1686 1688
3064 8 1690 1687 1686 1689
3065 9 1691 1687 1686 1688
3066 9 1691 1687 1686 1689
3067 9 1692 1687 1686 1688
3068 9 1692 1687 1686 1689
3069 4 270 267 264 261
3070 6 270 267 264 268
3071 6 270 267 264 269
3072 4 271 267 264 261
3073 6 271 267 264 268
3074 6 271 267 264 269
3075 4 272 267 264 261
3076 6 272 267 264 268
3077 6 272 267 264 269
3078 12 1587 1588 1586 1589
3079 8 1590 1587 1586 1588
3080 8 1590 1587 1586 1589
3081 9 1591 1587 1586 1588
3082 9 1591 1587 1586 1589
3083 9 1592 1587 1586 1588
3084 9 1592 1587 1586 1589
3085 7 1596 1593 1590 1587
3086 4 1596 1593 1590 1594
3087 4 1596 1593 1590 1595
3088 4 1597 1593 1590 1587
3089 6 1597 1593 1590 1594
3090 6 1597 1593 1590 1595
3091 4 1598 1593 1590 1587
3092 6 1598 1593 1590 1594
3093 6 1598 1593 1590 1595
3094 10 1593 1590 1587 1586
3095 4 1593 1590 1587 1591
3096 4 1593 1590 1587 1592
3097 11 1594 1590 1587 1586
3098 6 1594 1590 1587 1591
3099 6 1594 1590 1587 1592
3100 11 1595 1590 1587 1586
3101 6 1595 1590 1587 1591
3102 6 1595 1590 1587 1592
3103 12 1162 1163 1161 1164
3104 8 1165 1162 1161 1163
3105 8 1165 1162 1161 1164
3106 9 1166 1162 1161 1163
3107 9 1166 1162 1161 1164
3108 9 1167 1162 1161 1163
3109 9 1167 1162 1161 1164
3110 10 1168 1165 1162 1161
3111 4 1168 1165 1162 1166
3112 4 1168 1165 1162 1167
3113 11 1169 1165 1162 1161
3114 6 1169 1165 1162 1166
3115 6 1169 1165 1162 1167
3116 11 1170 1165 1162 1161
3117 6 1170 1165 1162 1166
3118 6 1170 1165 1162 1167
3119 7 1171 1168 1165 1162
3120 4 1171 1168 1165 1169
3121 4 1171 1168 1165 1170
3122 4 1172 1168 1165 1162
3123 6 1172 1168 1165 1169
3124 6 1172 1168 1165 1170
3125 4 1173 1168 1165 1162
3126 6 1173 1168 1165 1169
3127 6 1173 1168 1165 1170
3128 7 1174 1171 1168 1165
3129 4 1174 1171 1168 1172
3130 4 1174 1171 1168 1173
3131 4 1175 1171 1168 1165
3132 6 1175 1171 1168 1172
3133 6 1175 1171 1168 1173
3134 4 1176 1171 1168 1165
3135 6 1176 1171 1168 1172
3136 6 1176 1171 1168 1173
3137 4 1133 1130 1127 1124
3138 6 1133 1130 1127 1131
3139 6 1133 1130 1127 1132
3140 4 1134 1130 1127 1124
3141 6 1134 1130 1127 1131
3142 6 1134 1130 1127 1132
3143 4 1135 1130 1127 1124
3144 6 1135 1130 1127 1131
3145 6 1135 1130 1127 1132
3146 7 1130 1127 1124 1121
3147 4 1130 1127 1124 1128
3148 4 1130 1127 1124 1129
3149 4 1131 1127 1124 1121
3150 6 1131 1127 1124 1128
3151 6 1131 1127 1124 1129
3152 4 1132 1127 1124 1121
3153 6 1132 1127 1124 1128
3154 6 1132 1127 1124 1129
3155 7 1124 1121 1118 1115
3156 4 1124 1121 1118 1122
3157 4 1124 1121 1118 1123
3158 4 1125 1121 1118 1115
3159 6 1125 1121 1118 1122
3160 6 1125 1121 1118 1123
3161 4 1126 1121 1118 1115
3162 6 1126 1121 1118 1122
3163 6 1126 1121 1118 1123
3164 7 1127 1124 1121 1118
3165 4 1127 1124 1121 1125
3166 4 1127 1124 1121 1126
3167 4 1128 1124 1121 1118
3168 6 1128 1124 1121 1125
3169 6 1128 1124 1121 1126
3170 4 1129 1124 1121 1118
3171 6 1129 1124 1121 1125
3172 6 1129 1124 1121 1126
3173 4 338 335 332 329
3174 6 338 335 332 336
3175 6 338 335 332 337
3176 4 339 335 332 329
3177 6 339 335 332 336
3178 6 339 335 332 337
3179 4 340 335 332 329
3180 6 340 335 332 336
3181 6 340 335 332 337
3182 7 335 332 329 325
3183 4 335 332 329 333
3184 4 335 332 329 334
3185 4 336 332 329 325
3186 6 336 332 329 333
3187 6 336 332 329 334
3188 4 337 332 329 325
3189 6 337 332 329 333
3190 6 337 332 329 334
3191 1 329 325 324 326
3192 1 329 325 324 327
3193 1 329 325 324 328
3194 2 330 325 324 326
3195 2 330 325 324 327
3196 2 330 325 324 328
3197 2 331 325 324 326
3198 2 331 325 324 327
3199 2 331 325 324 328
3200 3 332 329 325 324
3201 4 332 329 325 330
3202 4 332 329 325 331
3203 5 333 329 325 324
3204 6 333 329 325 330
3205 6 333 329 325 331
3206 5 334 329 325 324
3207 6 334 329 325 330
3208 6 334 329 325 331
3209 4 2233 2230 2227 2224
3210 6 2233 2230 2227 2231
3211 6 2233 2230 2227 2232
3212 4 2234 2230 2227 2224
3213 6 2234 2230 2227 2231
3214 6 2234 2230 2227 2232
3215 4 2235 2230 2227 2224
3216 6 2235 2230 2227 2231
3217 6 2235 2230 2227 2232
3218 8 1140 1137 1136 1138
3219 8 1140 1137 1136 1139
3220 9 1141 1137 1136 1138
3221 9 1141 1137 1136 1139
3222 9 1142 1137 1136 1138
3223 9 1142 1137 1136 1139
3224 7 1146 1143 1140 1137
3225 4 1146 1143 1140 1144
3226 4 1146 1143 1140 1145
3227 4 1147 1143 1140 1137
3228 6 1147 1143 1140 1144
3229 6 1147 1143 1140 1145
3230 4 1148 1143 1140 1137
3231 6 1148 1143 1140 1144
3232 6 1148 1143 1140 1145
3233 10 1143 1140 1137 1136
3234 4 1143 1140 1137 1141
3235 4 1143 1140 1137 1142
3236 11 1144 1140 1137 1136
3237 6 1144 1140 1137 1141
3238 6 1144 1140 1137 1142
3239 11 1145 1140 1137 1136
3240 6 1145 1140 1137 1141
3241 6 1145 1140 1137 1142
3242 7 1149 1146 1143 1140
3243 4 1149 1146 1143 1147
3244 4 1149 1146 1143 1148
3245 4 1150 1146 1143 1140
3246 6 1150 1146 1143 1147
3247 6 1150 1146 1143 1148
3248 4 1151 1146 1143 1140
3249 6 1151 1146 1143 1147
3250 6 1151 1146 1143 1148
3251 12 1137 1138 1136 1139
3252 7 1152 1149 1146 1143
3253 4 1152 1149 1146 1150
3254 4 1152 1149 1146 1151
3255 4 1153 1149 1146 1143
3256 6 1153 1149 1146 1150
3257 6 1153 1149 1146 1151
3258 4 1154 1149 1146 1143
3259 6 1154 1149 1146 1150
3260 6 1154 1149 1146 1151
3261 10 1693 1690 1687 1686
3262 4 1693 1690 1687 1691
3263 4 1693 1690 1687 1692
3264 11 1694 1690 1687 1686
3265 6 1694 1690 1687 1691
3266 6 1694 1690 1687 1692
3267 11 1695 1690 1687 1686
3268 6 1695 1690 1687 1691
3269 6 1695 1690 1687 1692
3270 7 1155 1152 1149 1146
3271 4 1155 1152 1149 1153
3272 4 1155 1152 1149 1154
3273 4 1156 1152 1149 1146
3274 6 1156 1152 1149 1153
3275 6 1156 1152 1149 1154
3276 4 1157 1152 1149 1146
3277 6 1157 1152 1149 1153
3278 6 1157 1152 1149 1154
3279 7 267 264 261 257
3280 4 267 264 261 265
3281 4 267 264 261 266
3282 4 268 264 261 257
3283 6 268 264 261 265
3284 6 268 264 261 266
3285 4 269 264 261 257
3286 6 269 264 261 265
3287 6 269 264 261 266
3288 3 264 261 257 256
3289 4 264 261 257 262
3290 4 264 261 257 263
3291 5 265 261 257 256
3292 6 265 261 257 262
3293 6 265 261 257 263
3294 5 266 261 257 256
3295 6 266 261 257 262
3296 6 266 261 257 263
3297 1 261 257 256 258
3298 1 261 257 256 259
3299 1 261 257 256 260
3300 2 262 257 256 258
3301 2 262 257 256 259
3302 2 262 257 256 260
3303 2 263 257 256 258
3304 2 263 257 256 259
3305 2 263 257 256 260
3306 4 1158 1155 1152 1149
3307 6 1158 1155 1152 1156
3308 6 1158 1155 1152 1157
3309 4 1159 1155 1152 1149
3310 6 1159 1155 1152 1156
3311 6 1159 1155 1152 1157
3312 4 1160 1155 1152 1149
3313 6 1160 1155 1152 1156
3314 6 1160 1155 1152 1157
3315 1 669 665 664 666
3316 1 669 665 664 667
3317 1 669 665 664 668
3318 2 670 665 664 666
3319 2 670 665 664 667
3320 2 670 665 664 668
3321 2 671 665 664 666
3322 2 671 665 664 667
3323 2 671 665 664 668
3324 3 672 669 665 664
3325 4 672 669 665 670
3326 4 672 669 665 671
3327 5 673 669 665 664
3328 6 673 669 665 670
3329 6 673 669 665 671
3330 5 674 669 665 664
3331 6 674 669 665 670
3332 6 674 669 665 671
3333 7 675 672 669 665
3334 4 675 672 669 673
3335 4 675 672 669 674
3336 4 676 672 669 665
3337 6 676 672 669 673
3338 6 676 672 669 674
3339 4 677 672 669 665
3340 6 677 672 669 673
3341 6 677 672 669 674
3342 4 678 675 672 669
3343 6 678 675 672 676
3344 6 678 675 672 677
3345 4 679 675 672 669
3346 6 679 675 672 676
3347 6 679 675 672 677
3348 4 680 675 672 669
3349 6 680 675 672 676
3350 6 680 675 672 677
3351 4 780 777 774 771
3352 6 780 777 774 778
3353 6 780 777 774 779
3354 4 781 777 774 771
3355 6 781 777 774 778
3356 6 781 777 774 779
3357 4 782 777 774 771
3358 6 782 777 774 778
3359 6 782 777 774 779
3360 7 777 774 771 767
3361 4 777 774 771 775
3362 4 777 774 771 776
3363 4 778 774 771 767
3364 6 778 774 771 775
3365 6 778 774 771 776
3366 4 779 774 771 767
3367 6 779 774 771 775
3368 6 779 774 771 776
3369 7 1180 1177 1174 1171
3370 4 1180 1177 1174 1178
3371 4 1180 1177 1174 1179
3372 4 1181 1177 1174 1171
3373 6 1181 1177 1174 1178
3374 6 1181 1177 1174 1179
3375 4 1182 1177 1174 1171
3376 6 1182 1177 1174 1178
3377 6 1182 1177 1174 1179
3378 7 1177 1174 1171 1168
3379 4 1177 1174 1171 1175
3380 4 1177 1174 1171 1176
3381 4 1178 1174 1171 1168
3382 6 1178 1174 1171 1175
3383 6 1178 1174 1171 1176
3384 4 1179 1174 1171 1168
3385 6 1179 1174 1171 1175
3386 6 1179 1174 1171 1176
3387 7 1377 1374 1371 1368
3388 4 1377 1374 1371 1375
3389 4 1377 1374 1371 1376
3390 4 1378 1374 1371 1368
3391 6 1378 1374 1371 1375
3392 6 1378 1374 1371 1376
3393 4 1379 1374 1371 1368
3394 6 1379 1374 1371 1375
3395 6 1379 1374 1371 1376
3396 7 1380 1377 1374 1371
3397 4 1380 1377 1374 1378
3398 4 1380 1377 1374 1379
3399 4 1381 1377 1374 1371
3400 6 1381 1377 1374 1378
3401 6 1381 1377 1374 1379
3402 4 1382 1377 1374 1371
3403 6 1382 1377 1374 1378
3404 6 1382 1377 1374 1379
3405 4 1183 1180 1177 1174
3406 6 1183 1180 1177 1181
3407 6 1183 1180 1177 1182
3408 4 1184 1180 1177 1174
3409 6 1184 1180 1177 1181
3410 6 1184 1180 1177 1182
3411 4 1185 1180 1177 1174
3412 6 1185 1180 1177 1181
3413 6 1185 1180 1177 1182
3414 7 2230 2227 2224 2221
3415 4 2230 2227 2224 2228
3416 4 2230 2227 2224 2229
3417 4 2231 2227 2224 2221
3418 6 2231 2227 2224 2228
3419 6 2231 2227 2224 2229
3420 4 2232 2227 2224 2221
3421 6 2232 2227 2224 2228
3422 6 2232 2227 2224 2229
3423 4 1208 1205 1202 1199
3424 6 1208 1205 1202 1206
3425 6 1208 1205 1202 1207
3426 4 1209 1205 1202 1199
3427 6 1209 1205 1202 1206
3428 6 1209 1205 1202 1207
3429 4 1210 1205 1202 1199
3430 6 1210 1205 1202 1206
3431 6 1210 1205 1202 1207
3432 4 1383 1380 1377 1374
3433 6 1383 1380 1377 1381
3434 6 1383 1380 1377 1382
3435 4 1384 1380 1377 1374
3436 6 1384 1380 1377 1381
3437 6 1384 1380 1377 1382
3438 4 1385 1380 1377 1374
3439 6 1385 1380 1377 1381
3440 6 1385 1380 1377 1382
3441 7 1205 1202 1199 1196
3442 4 1205 1202 1199 1203
3443 4 1205 1202 1199 1204
3444 4 1206 1202 1199 1196
3445 6 1206 1202 1199 1203
3446 6 1206 1202 1199 1204
3447 4 1207 1202 1199 1196
3448 6 1207 1202 1199 1203
3449 6 1207 1202 1199 1204
3450 7 1696 1693 1690 1687
3451 4 1696 1693 1690 1694
3452 4 1696 1693 1690 1695
3453 4 1697 1693 1690 1687
3454 6 1697 1693 1690 1694
3455 6 1697 1693 1690 1695
3456 4 1698 1693 1690 1687
3457 6 1698 1693 1690 1694
3458 6 1698 1693 1690 1695
3459 7 2227 2224 2221 2218
3460 4 2227 2224 2221 2225
3461 4 2227 2224 2221 2226
3462 4 2228 2224 2221 2218
3463 6 2228 2224 2221 2225
3464 6 2228 2224 2221 2226
3465 4 2229 2224 2221 2218
3466 6 2229 2224 2221 2225
3467 6 2229 2224 2221 2226
3468 7 1702 1699 1696 1693
3469 4 1702 1699 1696 1700
3470 4 1702 1699 1696 1701
3471 4 1703 1699 1696 1693
3472 6 1703 1699 1696 1700
3473 6 1703 1699 1696 1701
3474 4 1704 1699 1696 1693
3475 6 1704 1699 1696 1700
3476 6 1704 1699 1696 1701
3477 7 1705 1702 1699 1696
3478 4 1705 1702 1699 1703
3479 4 1705 1702 1699 1704
3480 4 1706 1702 1699 1696
3481 6 1706 1702 1699 1703
3482 6 1706 1702 1699 1704
3483 4 1707 1702 1699 1696
3484 6 1707 1702 1699 1703
3485 6 1707 1702 1699 1704
3486 7 1699 1696 1693 1690
3487 4 1699 1696 1693 1697
3488 4 1699 1696 1693 1698
3489 4 1700 1696 1693 1690
3490 6 1700 1696 1693 1697
3491 6 1700 1696 1693 1698
3492 4 1701 1696 1693 1690
3493 6 1701 1696 1693 1697
3494 6 1701 1696 1693 1698
3495 7 2224 2221 2218 2215
3496 4 2224 2221 2218 2222
3497 4 2224 2221 2218 2223
3498 4 2225 2221 2218 2215
3499 6 2225 2221 2218 2222
3500 6 2225 2221 2218 2223
3501 4 2226 2221 2218 2215
3502 6 2226 2221 2218 2222
3503 6 2226 2221 2218 2223
3504 7 2221 2218 2215 2212
3505 4 2221 2218 2215 2219
3506 4 2221 2218 2215 2220
3507 4 2222 2218 2215 2212
3508 6 2222 2218 2215 2219
3509 6 2222 2218 2215 2220
3510 4 2223 2218 2215 2212
3511 6 2223 2218 2215 2219
3512 6 2223 2218 2215 2220
3513 10 2218 2215 2212 2211
3514 4 2218 2215 2212 2216
3515 4 2218 2215 2212 2217
3516 11 2219 2215 2212 2211
3517 6 2219 2215 2212 2216
3518 6 2219 2215 2212 2217
3519 11 2220 2215 2212 2211
3520 6 2220 2215 2212 2216
3521 6 2220 2215 2212 2217
3522 7 165 162 159 155
3523 4 165 162 159 163
3524 4 165 162 159 164
3525 4 166 162 159 155
3526 6 166 162 159 163
3527 6 166 162 159 164
3528 4 167 162 159 155
3529 6 167 162 159 163
3530 6 167 162 159 164
3531 4 1833 1830 1827 1824
3532 6 1833 1830 1827 1831
3533 6 1833 1830 1827 1832
3534 4 1834 1830 1827 1824
3535 6 1834 1830 1827 1831
3536 6 1834 1830 1827 1832
3537 4 1835 1830 1827 1824
3538 6 1835 1830 1827 1831
3539 6 1835 1830 1827 1832
3540 7 1830 1827 1824 1821
3541 4 1830 1827 1824 1828
3542 4 1830 1827 1824 1829
3543 4 1831 1827 1824 1821
3544 6 1831 1827 1824 1828
3545 6 1831 1827 1824 1829
3546 4 1832 1827 1824 1821
3547 6 1832 1827 1824 1828
3548 6 1832 1827 1824 1829
3549 4 168 165 162 159
3550 6 168 165 162 166
3551 6 168 165 162 167
3552 4 169 165 162 159
3553 6 169 165 162 166
3554 6 169 165 162 167
3555 4 170 165 162 159
3556 6 170 165 162 166
3557 6 170 165 162 167
3558 7 1827 1824 1821 1818
3559 4 1827 1824 1821 1825
3560 4 1827 1824 1821 1826
3561 4 1828 1824 1821 1818
3562 6 1828 1824 1821 1825
3563 6 1828 1824 1821 1826
3564 4 1829 1824 1821 1818
3565 6 1829 1824 1821 1825
3566 6 1829 1824 1821 1826
3567 12 1812 1813 1811 1814
3568 7 1824 1821 1818 1815
3569 4 1824 1821 1818 1822
3570 4 1824 1821 1818 1823
3571 4 1825 1821 1818 1815
3572 6 1825 1821 1818 1822
3573 6 1825 1821 1818 1823
3574 4 1826 1821 1818 1815
3575 6 1826 1821 1818 1822
3576 6 1826 1821 1818 1823
3577 8 1815 1812 1811 1813
3578 8 1815 1812 1811 1814
3579 9 1816 1812 1811 1813
3580 9 1816 1812 1811 1814
3581 9 1817 1812 1811 1813
3582 9 1817 1812 1811 1814
3583 10 1818 1815 1812 1811
3584 4 1818 1815 1812 1816
3585 4 1818 1815 1812 1817
3586 11 1819 1815 1812 1811
3587 6 1819 1815 1812 1816
3588 6 1819 1815 1812 1817
3589 11 1820 1815 1812 1811
3590 6 1820 1815 1812 1816
3591 6 1820 1815 1812 1817
3592 7 1821 1818 1815 1812
3593 4 1821 1818 1815 1819
3594 4 1821 1818 1815 1820
3595 4 1822 1818 1815 1812
3596 6 1822 1818 1815 1819
3597 6 1822 1818 1815 1820
3598 4 1823 1818 1815 1812
3599 6 1823 1818 1815 1819
3600 6 1823 1818 1815 1820
3601 10 1443 1440 1437 1436
3602 4 1443 1440 1437 1441
3603 4 1443 1440 1437 1442
3604 11 1444 1440 1437 1436
3605 6 1444 1440 1437 1441
3606 6 1444 1440 1437 1442
3607 11 1445 1440 1437 1436
3608 6 1445 1440 1437 1441
3609 6 1445 1440 1437 1442
3610 7 1446 1443 1440 1437
3611 4 1446 1443 1440 1444
3612 4 1446 1443 1440 1445
3613 4 1447 1443 1440 1437
3614 6 1447 1443 1440 1444
3615 6 1447 1443 1440 1445
3616 4 1448 1443 1440 1437
3617 6 1448 1443 1440 1444
3618 6 1448 1443 1440 1445
3619 7 1449 1446 1443 1440
3620 4 1449 1446 1443 1447
3621 4 1449 1446 1443 1448
3622 4 1450 1446 1443 1440
3623 6 1450 1446 1443 1447
3624 6 1450 1446 1443 1448
3625 4 1451 1446 1443 1440
3626 6 1451 1446 1443 1447
3627 6 1451 1446 1443 1448
3628 8 1440 1437 1436 1438
3629 8 1440 1437 1436 1439
3630 9 1441 1437 1436 1438
3631 9 1441 1437 1436 1439
3632 9 1442 1437 1436 1438
3633 9 1442 1437 1436 1439
3634 3 893 890 886 885
3635 4 893 890 886 891
3636 4 893 890 886 892
3637 5 894 890 886 885
3638 6 894 890 886 891
3639 6 894 890 886 892
3640 5 895 890 886 885
3641 6 895 890 886 891
3642 6 895 890 886 892
3643 1 91 87 86 88
3644 1 91 87 86 89
3645 1 91 87 86 90
3646 2 92 87 86 88
3647 2 92 87 86 89
3648 2 92 87 86 90
3649 2 93 87 86 88
3650 2 93 87 86 89
3651 2 93 87 86 90
3652 12 2037 2038 2036 2039
3653 7 1455 1452 1449 1446
3654 4 1455 1452 1449 1453
3655 4 1455 1452 1449 1454
3656 4 1456 1452 1449 1446
3657 6 1456 1452 1449 1453
3658 6 1456 1452 1449 1454
3659 4 1457 1452 1449 1446
3660 6 1457 1452 1449 1453
3661 6 1457 1452 1449 1454
3662 4 1458 1455 1452 1449
3663 6 1458 1455 1452 1456
3664 6 1458 1455 1452 1457
3665 4 1459 1455 1452 1449
3666 6 1459 1455 1452 1456
3667 6 1459 1455 1452 1457
3668 4 1460 1455 1452 1449
3669 6 1460 1455 1452 1456
3670 6 1460 1455 1452 1457
3671 7 1452 1449 1446 1443
3672 4 1452 1449 1446 1450
3673 4 1452 1449 1446 1451
3674 4 1453 1449 1446 1443
3675 6 1453 1449 1446 1450
3676 6 1453 1449 1446 1451
3677 4 1454 1449 1446 1443
3678 6 1454 1449 1446 1450
3679 6 1454 1449 1446 1451
3680 8 2040 2037 2036 2038
3681 8 2040 2037 2036 2039
3682 9 2041 2037 2036 2038
3683 9 2041 2037 2036 2039
3684 9 2042 2037 2036 2038
3685 9 2042 2037 2036 2039
3686 10 2043 2040 2037 2036
3687 4 2043 2040 2037 2041
3688 4 2043 2040 2037 2042
3689 11 2044 2040 2037 2036
3690 6 2044 2040 2037 2041
3691 6 2044 2040 2037 2042
3692 11 2045 2040 2037 2036
3693 6 2045 2040 2037 2041
3694 6 2045 2040 2037 2042
3695 7 2102 2099 2096 2093
3696 4 2102 2099 2096 2100
3697 4 2102 2099 2096 2101
3698 4 2103 2099 2096 2093
3699 6 2103 2099 2096 2100
3700 6 2103 2099 2096 2101
3701 4 2104 2099 2096 2093
3702 6 2104 2099 2096 2100
3703 6 2104 2099 2096 2101
3704 7 2099 2096 2093 2090
3705 4 2099 2096 2093 2097
3706 4 2099 2096 2093 2098
3707 4 2100 2096 2093 2090
3708 6 2100 2096 2093 2097
3709 6 2100 2096 2093 2098
3710 4 2101 2096 2093 2090
3711 6 2101 2096 2093 2097
3712 6 2101 2096 2093 2098
3713 4 2108 2105 2102 2099
3714 6 2108 2105 2102 2106
3715 6 2108 2105 2102 2107
3716 4 2109 2105 2102 2099
3717 6 2109 2105 2102 2106
3718 6 2109 2105 2102 2107
3719 4 2110 2105 2102 2099
3720 6 2110 2105 2102 2106
3721 6 2110 2105 2102 2107
3722 7 2105 2102 2099 2096
3723 4 2105 2102 2099 2103
3724 4 2105 2102 2099 2104
3725 4 2106 2102 2099 2096
3726 6 2106 2102 2099 2103
3727 6 2106 2102 2099 2104
3728 4 2107 2102 2099 2096
3729 6 2107 2102 2099 2103
3730 6 2107 2102 2099 2104
3731 4 219 216 213 210
3732 6 219 216 213 217
3733 6 219 216 213 218
3734 4 220 216 213 210
3735 6 220 216 213 217
3736 6 220 216 213 218
3737 4 221 216 213 210
3738 6 221 216 213 217
3739 6 221 216 213 218
3740 3 213 210 206 205
3741 4 213 210 206 211
3742 4 213 210 206 212
3743 5 214 210 206 205
3744 6 214 210 206 211
3745 6 214 210 206 212
3746 5 215 210 206 205
3747 6 215 210 206 211
3748 6 215 210 206 212
3749 7 216 213 210 206
3750 4 216 213 210 214
3751 4 216 213 210 215
3752 4 217 213 210 206
3753 6 217 213 210 214
3754 6 217 213 210 215
3755 4 218 213 210 206
3756 6 218 213 210 214
3757 6 218 213 210 215
3758 1 210 206 205 207
3759 1 210 206 205 208
3760 1 210 206 205 209
3761 2 211 206 205 207
3762 2 211 206 205 208
3763 2 211 206 205 209
3764 2 212 206 205 207
3765 2 212 206 205 208
3766 2 212 206 205 209
3767 4 1708 1705 1702 1699
3768 6 1708 1705 1702 1706
3769 6 1708 1705 1702 1707
3770 4 1709 1705 1702 1699
3771 6 1709 1705 1702 1706
3772 6 1709 1705 1702 1707
3773 4 1710 1705 1702 1699
3774 6 1710 1705 1702 1706
3775 6 1710 1705 1702 1707
3776 7 318 315 312 308
3777 4 318 315 312 316
3778 4 318 315 312 317
3779 4 319 315 312 308
3780 6 319 315 312 316
3781 6 319 315 312 317
3782 4 320 315 312 308
3783 6 320 315 312 316
3784 6 320 315 312 317
3785 4 321 318 315 312
3786 6 321 318 315 319
3787 6 321 318 315 320
3788 4 322 318 315 312
3789 6 322 318 315 319
3790 6 322 318 315 320
3791 4 323 318 315 312
3792 6 323 318 315 319
3793 6 323 318 315 320
3794 4 627 624 621 618
3795 6 627 624 621 625
3796 6 627 624 621 626
3797 4 628 624 621 618
3798 6 628 624 621 625
3799 6 628 624 621 626
3800 4 629 624 621 618
3801 6 629 624 621 625
3802 6 629 624 621 626
3803 7 624 621 618 614
3804 4 624 621 618 622
3805 4 624 621 618 623
3806 4 625 621 618 614
3807 6 625 621 618 622
3808 6 625 621 618 623
3809 4 626 621 618 614
3810 6 626 621 618 622
3811 6 626 621 618 623
3812 3 621 618 614 613
3813 4 621 618 614 619
3814 4 621 618 614 620
3815 5 622 618 614 613
3816 6 622 618 614 619
3817 6 622 618 614 620
3818 5 623 618 614 613
3819 6 623 618 614 619
3820 6 623 618 614 620
3821 4 712 709 706 703
3822 6 712 709 706 710
3823 6 712 709 706 711
3824 4 713 709 706 703
3825 6 713 709 706 710
3826 6 713 709 706 711
3827 4 714 709 706 703
3828 6 714 709 706 710
3829 6 714 709 706 711
3830 1 618 614 613 615
3831 1 618 614 613 616
3832 1 618 614 613 617
3833 2 619 614 613 615
3834 2 619 614 613 616
3835 2 619 614 613 617
3836 2 620 614 613 615
3837 2 620 614 613 616
3838 2 620 614 613 617
3839 4 1058 1055 1052 1049
3840 6 1058 1055 1052 1056
3841 6 1058 1055 1052 1057
3842 4 1059 1055 1052 1049
3843 6 1059 1055 1052 1056
3844 6 1059 1055 1052 1057
3845 4 1060 1055 1052 1049
3846 6 1060 1055 1052 1056
3847 6 1060 1055 1052 1057
3848 7 709 706 703 699
3849 4 709 706 703 707
3850 4 709 706 703 708
3851 4 710 706 703 699
3852 6 710 706 703 707
3853 6 710 706 703 708
3854 4 711 706 703 699
3855 6 711 706 703 707
3856 6 711 706 703 708
3857 12 1237 1238 1236 1239
3858 1 890 886 885 887
3859 1 890 886 885 888
3860 1 890 886 885 889
3861 2 891 886 885 887
3862 2 891 886 885 888
3863 2 891 886 885 889
3864 2 892 886 885 887
3865 2 892 886 885 888
3866 2 892 886 885 889
3867 3 706 703 699 698
3868 4 706 703 699 704
3869 4 706 703 699 705
3870 5 707 703 699 698
3871 6 707 703 699 704
3872 6 707 703 699 705
3873 5 708 703 699 698
3874 6 708 703 699 704
3875 6 708 703 699 705
3876 1 703 699 698 700
3877 1 703 699 698 701
3878 1 703 699 698 702
3879 2 704 699 698 700
3880 2 704 699 698 701
3881 2 704 699 698 702
3882 2 705 699 698 700
3883 2 705 699 698 701
3884 2 705 699 698 702
3885 12 1437 1438 1436 1439
3886 12 2087 2088 2086 2089
3887 7 1849 1846 1843 1840
3888 4 1849 1846 1843 1847
3889 4 1849 1846 1843 1848
3890 4 1850 1846 1843 1840
3891 6 1850 1846 1843 1847
3892 6 1850 1846 1843 1848
3893 4 1851 1846 1843 1840
3894 6 1851 1846 1843 1847
3895 6 1851 1846 1843 1848
3896 7 2096 2093 2090 2087
3897 4 2096 2093 2090 2094
3898 4 2096 2093 2090 2095
3899 4 2097 2093 2090 2087
3900 6 2097 2093 2090 2094
3901 6 2097 2093 2090 2095
3902 4 2098 2093 2090 2087
3903 6 2098 2093 2090 2094
3904 6 2098 2093 2090 2095
3905 8 2090 2087 2086 2088
3906 8 2090 2087 2086 2089
3907 9 2091 2087 2086 2088
3908 9 2091 2087 2086 2089
3909 9 2092 2087 2086 2088
3910 9 2092 2087 2086 2089
3911 10 2093 2090 2087 2086
3912 4 2093 2090 2087 2091
3913 4 2093 2090 2087 2092
3914 11 2094 2090 2087 2086
3915 6 2094 2090 2087 2091
3916 6 2094 2090 2087 2092
3917 11 2095 2090 2087 2086
3918 6 2095 2090 2087 2091
3919 6 2095 2090 2087 2092
3920 1 754 750 749 751
3921 1 754 750 749 752
3922 1 754 750 749 753
3923 2 755 750 749 751
3924 2 755 750 749 752
3925 2 755 750 749 753
3926 2 756 750 749 751
3927 2 756 750 749 752
3928 2 756 750 749 753
3929 4 1958 1955 1952 1949
3930 6 1958 1955 1952 1956
3931 6 1958 1955 1952 1957
3932 4 1959 1955 1952 1949
3933 6 1959 1955 1952 1956
3934 6 1959 1955 1952 1957
3935 4 1960 1955 1952 1949
3936 6 1960 1955 1952 1956
3937 6 1960 1955 1952 1957
3938 7 1852 1849 1846 1843
3939 4 1852 1849 1846 1850
3940 4 1852 1849 1846 1851
3941 4 1853 1849 1846 1843
3942 6 1853 1849 1846 1850
3943 6 1853 1849 1846 1851
3944 4 1854 1849 1846 1843
3945 6 1854 1849 1846 1850
3946 6 1854 1849 1846 1851
3947 7 1846 1843 1840 1837
3948 4 1846 1843 1840 1844
3949 4 1846 1843 1840 1845
3950 4 1847 1843 1840 1837
3951 6 1847 1843 1840 1844
3952 6 1847 1843 1840 1845
3953 4 1848 1843 1840 1837
3954 6 1848 1843 1840 1844
3955 6 1848 1843 1840 1845
3956 4 1858 1855 1852 1849
3957 6 1858 1855 1852 1856
3958 6 1858 1855 1852 1857
3959 4 1859 1855 1852 1849
3960 6 1859 1855 1852 1856
3961 6 1859 1855 1852 1857
3962 4 1860 1855 1852 1849
3963 6 1860 1855 1852 1856
3964 6 1860 1855 1852 1857
3965 7 1955 1952 1949 1946
3966 4 1955 1952 1949 1953
3967 4 1955 1952 1949 1954
3968 4 1956 1952 1949 1946
3969 6 1956 1952 1949 1953
3970 6 1956 1952 1949 1954
3971 4 1957 1952 1949 1946
3972 6 1957 1952 1949 1953
3973 6 1957 1952 1949 1954
3974 7 1952 1949 1946 1943
3975 4 1952 1949 1946 1950
3976 4 1952 1949 1946 1951
3977 4 1953 1949 1946 1943
3978 6 1953 1949 1946 1950
3979 6 1953 1949 1946 1951
3980 4 1954 1949 1946 1943
3981 6 1954 1949 1946 1950
3982 6 1954 1949 1946 1951
3983 7 1552 1549 1546 1543
3984 4 1552 1549 1546 1550
3985 4 1552 1549 1546 1551
3986 4 1553 1549 1546 1543
3987 6 1553 1549 1546 1550
3988 6 1553 1549 1546 1551
3989 4 1554 1549 1546 1543
3990 6 1554 1549 1546 1550
3991 6 1554 1549 1546 1551
3992 4 1558 1555 1552 1549
3993 6 1558 1555 1552 1556
3994 6 1558 1555 1552 1557
3995 4 1559 1555 1552 1549
3996 6 1559 1555 1552 1556
3997 6 1559 1555 1552 1557
3998 4 1560 1555 1552 1549
3999 6 1560 1555 1552 1556
4000 6 1560 1555 1552 1557
4001 7 1555 1552 1549 1546
4002 4 1555 1552 1549 1553
4003 4 1555 1552 1549 1554
4004 4 1556 1552 1549 1546
4005 6 1556 1552 1549 1553
4006 6 1556 1552 1549 1554
4007 4 1557 1552 1549 1546
4008 6 1557 1552 1549 1553
4009 6 1557 1552 1549 1554
4010 7 2177 2174 2171 2168
4011 4 2177 2174 2171 2175
4012 4 2177 2174 2171 2176
4013 4 2178 2174 2171 2168
4014 6 2178 2174 2171 2175
4015 6 2178 2174 2171 2176
4016 4 2179 2174 2171 2168
4017 6 2179 2174 2171 2175
4018 6 2179 2174 2171 2176
4019 4 2183 2180 2177 2174
4020 6 2183 2180 2177 2181
4021 6 2183 2180 2177 2182
4022 4 2184 2180 2177 2174
4023 6 2184 2180 2177 2181
4024 6 2184 2180 2177 2182
4025 4 2185 2180 2177 2174
4026 6 2185 2180 2177 2181
4027 6 2185 2180 2177 2182
4028 7 2180 2177 2174 2171
4029 4 2180 2177 2174 2178
4030 4 2180 2177 2174 2179
4031 4 2181 2177 2174 2171
4032 6 2181 2177 2174 2178
4033 6 2181 2177 2174 2179
4034 4 2182 2177 2174 2171
4035 6 2182 2177 2174 2178
4036 6 2182 2177 2174 2179
4037 7 2174 2171 2168 2165
4038 4 2174 2171 2168 2172
4039 4 2174 2171 2168 2173
4040 4 2175 2171 2168 2165
4041 6 2175 2171 2168 2172
4042 6 2175 2171 2168 2173
4043 4 2176 2171 2168 2165
4044 6 2176 2171 2168 2172
4045 6 2176 2171 2168 2173
4046 7 2021 2018 2015 2012
4047 4 2021 2018 2015 2019
4048 4 2021 2018 2015 2020
4049 4 2022 2018 2015 2012
4050 6 2022 2018 2015 2019
4051 6 2022 2018 2015 2020
4052 4 2023 2018 2015 2012
4053 6 2023 2018 2015 2019
4054 6 2023 2018 2015 2020
4055 8 2015 2012 2011 2013
4056 8 2015 2012 2011 2014
4057 9 2016 2012 2011 2013
4058 9 2016 2012 2011 2014
4059 9 2017 2012 2011 2013
4060 9 2017 2012 2011 2014
4061 12 2012 2013 2011 2014
4062 10 2018 2015 2012 2011
4063 4 2018 2015 2012 2016
4064 4 2018 2015 2012 2017
4065 11 2019 2015 2012 2011
4066 6 2019 2015 2012 2016
4067 6 2019 2015 2012 2017
4068 11 2020 2015 2012 2011
4069 6 2020 2015 2012 2016
4070 6 2020 2015 2012 2017
4071 7 1549 1546 1543 1540
4072 4 1549 1546 1543 1547
4073 4 1549 1546 1543 1548
4074 4 1550 1546 1543 1540
4075 6 1550 1546 1543 1547
4076 6 1550 1546 1543 1548
4077 4 1551 1546 1543 1540
4078 6 1551 1546 1543 1547
4079 6 1551 1546 1543 1548
4080 7 1546 1543 1540 1537
4081 4 1546 1543 1540 1544
4082 4 1546 1543 1540 1545
4083 4 1547 1543 1540 1537
4084 6 1547 1543 1540 1544
4085 6 1547 1543 1540 1545
4086 4 1548 1543 1540 1537
4087 6 1548 1543 1540 1544
4088 6 1548 1543 1540 1545
4089 7 1246 1243 1240 1237
4090 4 1246 1243 1240 1244
4091 4 1246 1243 1240 1245
4092 4 1247 1243 1240 1237
4093 6 1247 1243 1240 1244
4094 6 1247 1243 1240 1245
4095 4 1248 1243 1240 1237
4096 6 1248 1243 1240 1244
4097 6 1248 1243 1240 1245
4098 7 1921 1918 1915 1912
4099 4 1921 1918 1915 1919
4100 4 1921 1918 1915 1920
4101 4 1922 1918 1915 1912
4102 6 1922 1918 1915 1919
4103 6 1922 1918 1915 1920
4104 4 1923 1918 1915 1912
4105 6 1923 1918 1915 1919
4106 6 1923 1918 1915 1920
4107 12 1912 1913 1911 1914
4108 8 1915 1912 1911 1913
4109 8 1915 1912 1911 1914
4110 9 1916 1912 1911 1913
4111 9 1916 1912 1911 1914
4112 9 1917 1912 1911 1913
4113 9 1917 1912 1911 1914
4114 10 1918 1915 1912 1911
4115 4 1918 1915 1912 1916
4116 4 1918 1915 1912 1917
4117 11 1919 1915 1912 1911
4118 6 1919 1915 1912 1916
4119 6 1919 1915 1912 1917
4120 11 1920 1915 1912 1911
4121 6 1920 1915 1912 1916
4122 6 1920 1915 1912 1917
4123 7 1924 1921 1918 1915
4124 4 1924 1921 1918 1922
4125 4 1924 1921 1918 1923
4126 4 1925 1921 1918 1915
4127 6 1925 1921 1918 1922
4128 6 1925 1921 1918 1923
4129 4 1926 1921 1918 1915
4130 6 1926 1921 1918 1922
4131 6 1926 1921 1918 1923
4132 7 1249 1246 1243 1240
4133 4 1249 1246 1243 1247
4134 4 1249 1246 1243 1248
4135 4 1250 1246 1243 1240
4136 6 1250 1246 1243 1247
4137 6 1250 1246 1243 1248
4138 4 1251 1246 1243 1240
4139 6 1251 1246 1243 1247
4140 6 1251 1246 1243 1248
4141 7 1255 1252 1249 1246
4142 4 1255 1252 1249 1253
4143 4 1255 1252 1249 1254
4144 4 1256 1252 1249 1246
4145 6 1256 1252 1249 1253
4146 6 1256 1252 1249 1254
4147 4 1257 1252 1249 1246
4148 6 1257 1252 1249 1253
4149 6 1257 1252 1249 1254
4150 7 1252 1249 1246 1243
4151 4 1252 1249 1246 1250
4152 4 1252 1249 1246 1251
4153 4 1253 1249 1246 1243
4154 6 1253 1249 1246 1250
4155 6 1253 1249 1246 1251
4156 4 1254 1249 1246 1243
4157 6 1254 1249 1246 1250
4158 6 1254 1249 1246 1251
4159 8 1240 1237 1236 1238
4160 8 1240 1237 1236 1239
4161 9 1241 1237 1236 1238
4162 9 1241 1237 1236 1239
4163 9 1242 1237 1236 1238
4164 9 1242 1237 1236 1239
4165 4 729 726 723 720
4166 6 729 726 723 727
4167 6 729 726 723 728
4168 4 730 726 723 720
4169 6 730 726 723 727
4170 6 730 726 723 728
4171 4 731 726 723 720
4172 6 731 726 723 727
4173 6 731 726 723 728
4174 3 876 873 869 868
4175 4 876 873 869 874
4176 4 876 873 869 875
4177 5 877 873 869 868
4178 6 877 873 869 874
4179 6 877 873 869 875
4180 5 878 873 869 868
4181 6 878 873 869 874
4182 6 878 873 869 875
4183 4 882 879 876 873
4184 6 882 879 876 880
4185 6 882 879 876 881
4186 4 883 879 876 873
4187 6 883 879 876 880
4188 6 883 879 876 881
4189 4 884 879 876 873
4190 6 884 879 876 880
4191 6 884 879 876 881
4192 7 879 876 873 869
4193 4 879 876 873 877
4194 4 879 876 873 878
4195 4 880 876 873 869
4196 6 880 876 873 877
4197 6 880 876 873 878
4198 4 881 876 873 869
4199 6 881 876 873 877
4200 6 881 876 873 878
4201 4 1933 1930 1927 1924
4202 6 1933 1930 1927 1931
4203 6 1933 1930 1927 1932
4204 4 1934 1930 1927 1924
4205 6 1934 1930 1927 1931
4206 6 1934 1930 1927 1932
4207 4 1935 1930 1927 1924
4208 6 1935 1930 1927 1931
4209 6 1935 1930 1927 1932
4210 7 573 570 567 563
4211 4 573 570 567 571
4212 4 573 570 567 572
4213 4 574 570 567 563
4214 6 574 570 567 571
4215 6 574 570 567 572
4216 4 575 570 567 563
4217 6 575 570 567 571
4218 6 575 570 567 572
4219 4 576 573 570 567
4220 6 576 573 570 574
4221 6 576 573 570 575
4222 4 577 573 570 567
4223 6 577 573 570 574
4224 6 577 573 570 575
4225 4 578 573 570 567
4226 6 578 573 570 574
4227 6 578 573 570 575
4228 7 726 723 720 716
4229 4 726 723 720 724
4230 4 726 723 720 725
4231 4 727 723 720 716
4232 6 727 723 720 724
4233 6 727 723 720 725
4234 4 728 723 720 716
4235 6 728 723 720 724
4236 6 728 723 720 725
4237 3 723 720 716 715
4238 4 723 720 716 721
4239 4 723 720 716 722
4240 5 724 720 716 715
4241 6 724 720 716 721
4242 6 724 720 716 722
4243 5 725 720 716 715
4244 6 725 720 716 721
4245 6 725 720 716 722
4246 1 720 716 715 717
4247 1 720 716 715 718
4248 1 720 716 715 719
4249 2 721 716 715 717
4250 2 721 716 715 718
4251 2 721 716 715 719
4252 2 722 716 715 717
4253 2 722 716 715 718
4254 2 722 716 715 719
4255 12 1112 1113 1111 1114
4256 4 1433 1430 1427 1424
4257 6 1433 1430 1427 1431
4258 6 1433 1430 1427 1432
4259 4 1434 1430 1427 1424
4260 6 1434 1430 1427 1431
4261 6 1434 1430 1427 1432
4262 4 1435 1430 1427 1424
4263 6 1435 1430 1427 1431
4264 6 1435 1430 1427 1432
4265 8 1115 1112 1111 1113
4266 8 1115 1112 1111 1114
4267 9 1116 1112 1111 1113
4268 9 1116 1112 1111 1114
4269 9 1117 1112 1111 1113
4270 9 1117 1112 1111 1114
4271 10 1118 1115 1112 1111
4272 4 1118 1115 1112 1116
4273 4 1118 1115 1112 1117
4274 11 1119 1115 1112 1111
4275 6 1119 1115 1112 1116
4276 6 1119 1115 1112 1117
4277 11 1120 1115 1112 1111
4278 6 1120 1115 1112 1116
4279 6 1120 1115 1112 1117
4280 1 227 223 222 224
4281 1 227 223 222 225
4282 1 227 223 222 226
4283 2 228 223 222 224
4284 2 228 223 222 225
4285 2 228 223 222 226
4286 2 229 223 222 224
4287 2 229 223 222 225
4288 2 229 223 222 226
4289 12 2162 2163 2161 2164
4290 4 134 131 128 125
4291 6 134 131 128 132
4292 6 134 131 128 133
4293 4 135 131 128 125
4294 6 135 131 128 132
4295 6 135 131 128 133
4296 4 136 131 128 125
4297 6 136 131 128 132
4298 6 136 131 128 133
4299 4 695 692 689 686
4300 6 695 692 689 693
4301 6 695 692 689 694
4302 4 696 692 689 686
4303 6 696 692 689 693
4304 6 696 692 689 694
4305 4 697 692 689 686
4306 6 697 692 689 693
4307 6 697 692 689 694
4308 3 689 686 682 681
4309 4 689 686 682 687
4310 4 689 686 682 688
4311 5 690 686 682 681
4312 6 690 686 682 687
4313 6 690 686 682 688
4314 5 691 686 682 681
4315 6 691 686 682 687
4316 6 691 686 682 688
4317 7 199 196 193 189
4318 4 199 196 193 197
4319 4 199 196 193 198
4320 4 200 196 193 189
4321 6 200 196 193 197
4322 6 200 196 193 198
4323 4 201 196 193 189
4324 6 201 196 193 197
4325 6 201 196 193 198
4326 3 196 193 189 188
4327 4 196 193 189 194
4328 4 196 193 189 195
4329 5 197 193 189 188
4330 6 197 193 189 194
4331 6 197 193 189 195
4332 5 198 193 189 188
4333 6 198 193 189 194
4334 6 198 193 189 195
4335 7 352 349 346 342
4336 4 352 349 346 350
4337 4 352 349 346 351
4338 4 353 349 346 342
4339 6 353 349 346 350
4340 6 353 349 346 351
4341 4 354 349 346 342
4342 6 354 349 346 350
4343 6 354 349 346 351
4344 1 193 189 188 190
4345 1 193 189 188 191
4346 1 193 189 188 192
4347 2 194 189 188 190
4348 2 194 189 188 191
4349 2 194 189 188 192
4350 2 195 189 188 190
4351 2 195 189 188 191
4352 2 195 189 188 192
4353 1 873 869 868 870
4354 1 873 869 868 871
4355 1 873 869 868 872
4356 2 874 869 868 870
4357 2 874 869 868 871
4358 2 874 869 868 872
4359 2 875 869 868 870
4360 2 875 869 868 871
4361 2 875 869 868 872
4362 4 593 590 587 584
4363 6 593 590 587 591
4364 6 593 590 587 592
4365 4 594 590 587 584
4366 6 594 590 587 591
4367 6 594 590 587 592
4368 4 595 590 587 584
4369 6 595 590 587 591
4370 6 595 590 587 592
4371 7 1599 1596 1593 1590
4372 4 1599 1596 1593 1597
4373 4 1599 1596 1593 1598
4374 4 1600 1596 1593 1590
4375 6 1600 1596 1593 1597
4376 6 1600 1596 1593 1598
4377 4 1601 1596 1593 1590
4378 6 1601 1596 1593 1597
4379 6 1601 1596 1593 1598
4380 1 584 580 579 581
4381 1 584 580 579 582
4382 1 584 580 579 583
4383 2 585 580 579 581
4384 2 585 580 579 582
4385 2 585 580 579 583
4386 2 586 580 579 581
4387 2 586 580 579 582
4388 2 586 580 579 583
4389 4 1608 1605 1602 1599
4390 6 1608 1605 1602 1606
4391 6 1608 1605 1602 1607
4392 4 1609 1605 1602 1599
4393 6 1609 1605 1602 1606
4394 6 1609 1605 1602 1607
4395 4 1610 1605 1602 1599
4396 6 1610 1605 1602 1606
4397 6 1610 1605 1602 1607
4398 7 1605 1602 1599 1596
4399 4 1605 1602 1599 1603
4400 4 1605 1602 1599 1604
4401 4 1606 1602 1599 1596
4402 6 1606 1602 1599 1603
4403 6 1606 1602 1599 1604
4404 4 1607 1602 1599 1596
4405 6 1607 1602 1599 1603
4406 6 1607 1602 1599 1604
4407 7 1602 1599 1596 1593
4408 4 1602 1599 1596 1600
4409 4 1602 1599 1596 1601
4410 4 1603 1599 1596 1593
4411 6 1603 1599 1596 1600
4412 6 1603 1599 1596 1601
4413 4 1604 1599 1596 1593
4414 6 1604 1599 1596 1600
4415 6 1604 1599 1596 1601
4416 7 590 587 584 580
4417 4 590 587 584 588
4418 4 590 587 584 589
4419 4 591 587 584 580
4420 6 591 587 584 588
4421 6 591 587 584 589
4422 4 592 587 584 580
4423 6 592 587 584 588
4424 6 592 587 584 589
4425 3 587 584 580 579
4426 4 587 584 580 585
4427 4 587 584 580 586
4428 5 588 584 580 579
4429 6 588 584 580 585
4430 6 588 584 580 586
4431 5 589 584 580 579
4432 6 589 584 580 585
4433 6 589 584 580 586
4434 8 1215 1212 1211 1213
4435 8 1215 1212 1211 1214
4436 9 1216 1212 1211 1213
4437 9 1216 1212 1211 1214
4438 9 1217 1212 1211 1213
4439 9 1217 1212 1211 1214
4440 7 1121 1118 1115 1112
4441 4 1121 1118 1115 1119
4442 4 1121 1118 1115 1120
4443 4 1122 1118 1115 1112
4444 6 1122 1118 1115 1119
4445 6 1122 1118 1115 1120
4446 4 1123 1118 1115 1112
4447 6 1123 1118 1115 1119
4448 6 1123 1118 1115 1120
4449 7 131 128 125 121
4450 4 131 128 125 129
4451 4 131 128 125 130
4452 4 132 128 125 121
4453 6 132 128 125 129
4454 6 132 128 125 130
4455 4 133 128 125 121
4456 6 133 128 125 129
4457 6 133 128 125 130
4458 4 474 471 468 465
4459 6 474 471 468 472
4460 6 474 471 468 473
4461 4 475 471 468 465
4462 6 475 471 468 472
4463 6 475 471 468 473
4464 4 476 471 468 465
4465 6 476 471 468 472
4466 6 476 471 468 473
4467 1 125 121 120 122
4468 1 125 121 120 123
4469 1 125 121 120 124
4470 2 126 121 120 122
4471 2 126 121 120 123
4472 2 126 121 120 124
4473 2 127 121 120 122
4474 2 127 121 120 123
4475 2 127 121 120 124
4476 3 128 125 121 120
4477 4 128 125 121 126
4478 4 128 125 121 127
4479 5 129 125 121 120
4480 6 129 125 121 126
4481 6 129 125 121 127
4482 5 130 125 121 120
4483 6 130 125 121 126
4484 6 130 125 121 127
4485 7 471 468 465 461
4486 4 471 468 465 469
4487 4 471 468 465 470
4488 4 472 468 465 461
4489 6 472 468 465 469
4490 6 472 468 465 470
4491 4 473 468 465 461
4492 6 473 468 465 469
4493 6 473 468 465 470
4494 3 468 465 461 460
4495 4 468 465 461 466
4496 4 468 465 461 467
4497 5 469 465 461 460
4498 6 469 465 461 466
4499 6 469 465 461 467
4500 5 470 465 461 460
4501 6 470 465 461 466
4502 6 470 465 461 467
4503 1 465 461 460 462
4504 1 465 461 460 463
4505 1 465 461 460 464
4506 2 466 461 460 462
4507 2 466 461 460 463
4508 2 466 461 460 464
4509 2 467 461 460 462
4510 2 467 461 460 463
4511 2 467 461 460 464
4512 8 965 962 961 963
4513 8 965 962 961 964
4514 9 966 962 961 963
4515 9 966 962 961 964
4516 9 967 962 961 963
4517 9 967 962 961 964
4518 3 349 346 342 341
4519 4 349 346 342 347
4520 4 349 346 342 348
4521 5 350 346 342 341
4522 6 350 346 342 347
4523 6 350 346 342 348
4524 5 351 346 342 341
4525 6 351 346 342 347
4526 6 351 346 342 348
4527 1 346 342 341 343
4528 1 346 342 341 344
4529 1 346 342 341 345
4530 2 347 342 341 343
4531 2 347 342 341 344
4532 2 347 342 341 345
4533 2 348 342 341 343
4534 2 348 342 341 344
4535 2 348 342 341 345
4536 12 962 963 961 964
4537 12 1187 1188 1186 1189
4538 12 1287 1288 1286 1289
4539 8 1290 1287 1286 1288
4540 8 1290 1287 1286 1289
4541 9 1291 1287 1286 1288
4542 9 1291 1287 1286 1289
4543 9 1292 1287 1286 1288
4544 9 1292 1287 1286 1289
4545 10 1293 1290 1287 1286
4546 4 1293 1290 1287 1291
4547 4 1293 1290 1287 1292
4548 11 1294 1290 1287 1286
4549 6 1294 1290 1287 1291
4550 6 1294 1290 1287 1292
4551 11 1295 1290 1287 1286
4552 6 1295 1290 1287 1291
4553 6 1295 1290 1287 1292
4554 8 1715 1712 1711 1713
4555 8 1715 1712 1711 1714
4556 9 1716 1712 1711 1713
4557 9 1716 1712 1711 1714
4558 9 1717 1712 1711 1713
4559 9 1717 1712 1711 1714
4560 10 1718 1715 1712 1711
4561 4 1718 1715 1712 1716
4562 4 1718 1715 1712 1717
4563 11 1719 1715 1712 1711
4564 6 1719 1715 1712 1716
4565 6 1719 1715 1712 1717
4566 11 1720 1715 1712 1711
4567 6 1720 1715 1712 1716
4568 6 1720 1715 1712 1717
4569 3 536 533 529 528
4570 4 536 533 529 534
4571 4 536 533 529 535
4572 5 537 533 529 528
4573 6 537 533 529 534
4574 6 537 533 529 535
4575 5 538 533 529 528
4576 6 538 533 529 534
4577 6 538 533 529 535
4578 7 539 536 533 529
4579 4 539 536 533 537
4580 4 539 536 533 538
4581 4 540 536 533 529
4582 6 540 536 533 537
4583 6 540 536 533 538
4584 4 541 536 533 529
4585 6 541 536 533 537
4586 6 541 536 533 538
4587 12 1712 1713 1711 1714
4588 4 1733 1730 1727 1724
4589 6 1733 1730 1727 1731
4590 6 1733 1730 1727 1732
4591 4 1734 1730 1727 1724
4592 6 1734 1730 1727 1731
4593 6 1734 1730 1727 1732
4594 4 1735 1730 1727 1724
4595 6 1735 1730 1727 1731
4596 6 1735 1730 1727 1732
4597 7 1730 1727 1724 1721
4598 4 1730 1727 1724 1728
4599 4 1730 1727 1724 1729
4600 4 1731 1727 1724 1721
4601 6 1731 1727 1724 1728
4602 6 1731 1727 1724 1729
4603 4 1732 1727 1724 1721
4604 6 1732 1727 1724 1728
4605 6 1732 1727 1724 1729
4606 7 1721 1718 1715 1712
4607 4 1721 1718 1715 1719
4608 4 1721 1718 1715 1720
4609 4 1722 1718 1715 1712
4610 6 1722 1718 1715 1719
4611 6 1722 1718 1715 1720
4612 4 1723 1718 1715 1712
4613 6 1723 1718 1715 1719
4614 6 1723 1718 1715 1720
4615 7 1724 1721 1718 1715
4616 4 1724 1721 1718 1722
4617 4 1724 1721 1718 1723
4618 4 1725 1721 1718 1715
4619 6 1725 1721 1718 1722
4620 6 1725 1721 1718 1723
4621 4 1726 1721 1718 1715
4622 6 1726 1721 1718 1722
4623 6 1726 1721 1718 1723
4624 7 1727 1724 1721 1718
4625 4 1727 1724 1721 1725
4626 4 1727 1724 1721 1726
4627 4 1728 1724 1721 1718
4628 6 1728 1724 1721 1725
4629 6 1728 1724 1721 1726
4630 4 1729 1724 1721 1718
4631 6 1729 1724 1721 1725
4632 6 1729 1724 1721 1726
4633 4 2258 2255 2252 2249
4634 6 2258 2255 2252 2256
4635 6 2258 2255 2252 2257
4636 4 2259 2255 2252 2249
4637 6 2259 2255 2252 2256
4638 6 2259 2255 2252 2257
4639 4 2260 2255 2252 2249
4640 6 2260 2255 2252 2256
4641 6 2260 2255 2252 2257
4642 1 533 529 528 530
4643 1 533 529 528 531
4644 1 533 529 528 532
4645 2 534 529 528 530
4646 2 534 529 528 531
4647 2 534 529 528 532
4648 2 535 529 528 530
4649 2 535 529 528 531
4650 2 535 529 528 532
4651 12 2237 2238 2236 2239
4652 7 2252 2249 2246 2243
4653 4 2252 2249 2246 2250
4654 4 2252 2249 2246 2251
4655 4 2253 2249 2246 2243
4656 6 2253 2249 2246 2250
4657 6 2253 2249 2246 2251
4658 4 2254 2249 2246 2243
4659 6 2254 2249 2246 2250
4660 6 2254 2249 2246 2251
4661 7 2255 2252 2249 2246
4662 4 2255 2252 2249 2253
4663 4 2255 2252 2249 2254
4664 4 2256 2252 2249 2246
4665 6 2256 2252 2249 2253
4666 6 2256 2252 2249 2254
4667 4 2257 2252 2249 2246
4668 6 2257 2252 2249 2253
4669 6 2257 2252 2249 2254
4670 8 2240 2237 2236 2238
4671 8 2240 2237 2236 2239
4672 9 2241 2237 2236 2238
4673 9 2241 2237 2236 2239
4674 9 2242 2237 2236 2238
4675 9 2242 2237 2236 2239
4676 10 2243 2240 2237 2236
4677 4 2243 2240 2237 2241
4678 4 2243 2240 2237 2242
4679 11 2244 2240 2237 2236
4680 6 2244 2240 2237 2241
4681 6 2244 2240 2237 2242
4682 11 2245 2240 2237 2236
4683 6 2245 2240 2237 2241
4684 6 2245 2240 2237 2242
4685 7 2249 2246 2243 2240
4686 4 2249 2246 2243 2247
4687 4 2249 2246 2243 2248
4688 4 2250 2246 2243 2240
4689 6 2250 2246 2243 2247
4690 6 2250 2246 2243 2248
4691 4 2251 2246 2243 2240
4692 6 2251 2246 2243 2247
4693 6 2251 2246 2243 2248
4694 7 2246 2243 2240 2237
4695 4 2246 2243 2240 2244
4696 4 2246 2243 2240 2245
4697 4 2247 2243 2240 2237
4698 6 2247 2243 2240 2244
4699 6 2247 2243 2240 2245
4700 4 2248 2243 2240 2237
4701 6 2248 2243 2240 2244
4702 6 2248 2243 2240 2245
4703 4 304 301 298 295
4704 6 304 301 298 302
4705 6 304 301 298 303
4706 4 305 301 298 295
4707 6 305 301 298 302
4708 6 305 301 298 303
4709 4 306 301 298 295
4710 6 306 301 298 302
4711 6 306 301 298 303
4712 1 278 274 273 275
4713 1 278 274 273 276
4714 1 278 274 273 277
4715 2 279 274 273 275
4716 2 279 274 273 276
4717 2 279 274 273 277
4718 2 280 274 273 275
4719 2 280 274 273 276
4720 2 280 274 273 277
4721 8 1190 1187 1186 1188
4722 8 1190 1187 1186 1189
4723 9 1191 1187 1186 1188
4724 9 1191 1187 1186 1189
4725 9 1192 1187 1186 1188
4726 9 1192 1187 1186 1189
4727 10 1193 1190 1187 1186
4728 4 1193 1190 1187 1191
4729 4 1193 1190 1187 1192
4730 11 1194 1190 1187 1186
4731 6 1194 1190 1187 1191
4732 6 1194 1190 1187 1192
4733 11 1195 1190 1187 1186
4734 6 1195 1190 1187 1191
4735 6 1195 1190 1187 1192
4736 4 1108 1105 1102 1099
4737 6 1108 1105 1102 1106
4738 6 1108 1105 1102 1107
4739 4 1109 1105 1102 1099
4740 6 1109 1105 1102 1106
4741 6 1109 1105 1102 1107
4742 4 1110 1105 1102 1099
4743 6 1110 1105 1102 1106
4744 6 1110 1105 1102 1107
4745 7 1202 1199 1196 1193
4746 4 1202 1199 1196 1200
4747 4 1202 1199 1196 1201
4748 4 1203 1199 1196 1193
4749 6 1203 1199 1196 1200
4750 6 1203 1199 1196 1201
4751 4 1204 1199 1196 1193
4752 6 1204 1199 1196 1200
4753 6 1204 1199 1196 1201
4754 7 1199 1196 1193 1190
4755 4 1199 1196 1193 1197
4756 4 1199 1196 1193 1198
4757 4 1200 1196 1193 1190
4758 6 1200 1196 1193 1197
4759 6 1200 1196 1193 1198
4760 4 1201 1196 1193 1190
4761 6 1201 1196 1193 1197
4762 6 1201 1196 1193 1198
4763 3 281 278 274 273
4764 4 281 278 274 279
4765 4 281 278 274 280
4766 5 282 278 274 273
4767 6 282 278 274 279
4768 6 282 278 274 280
4769 5 283 278 274 273
4770 6 283 278 274 279
4771 6 283 278 274 280
4772 4 287 284 281 278
4773 6 287 284 281 285
4774 6 287 284 281 286
4775 4 288 284 281 278
4776 6 288 284 281 285
4777 6 288 284 281 286
4778 4 289 284 281 278
4779 6 289 284 281 285
4780 6 289 284 281 286
4781 7 1196 1193 1190 1187
4782 4 1196 1193 1190 1194
4783 4 1196 1193 1190 1195
4784 4 1197 1193 1190 1187
4785 6 1197 1193 1190 1194
4786 6 1197 1193 1190 1195
4787 4 1198 1193 1190 1187
4788 6 1198 1193 1190 1194
4789 6 1198 1193 1190 1195
4790 7 284 281 278 274
4791 4 284 281 278 282
4792 4 284 281 278 283
4793 4 285 281 278 274
4794 6 285 281 278 282
4795 6 285 281 278 283
4796 4 286 281 278 274
4797 6 286 281 278 282
4798 6 286 281 278 283
4799 7 301 298 295 291
4800 4 301 298 295 299
4801 4 301 298 295 300
4802 4 302 298 295 291
4803 6 302 298 295 299
4804 6 302 298 295 300
4805 4 303 298 295 291
4806 6 303 298 295 299
4807 6 303 298 295 300
4808 7 1296 1293 1290 1287
4809 4 1296 1293 1290 1294
4810 4 1296 1293 1290 1295
4811 4 1297 1293 1290 1287
4812 6 1297 1293 1290 1294
4813 6 1297 1293 1290 1295
4814 4 1298 1293 1290 1287
4815 6 1298 1293 1290 1294
4816 6 1298 1293 1290 1295
4817 7 1674 1671 1668 1665
4818 4 1674 1671 1668 1672
4819 4 1674 1671 1668 1673
4820 4 1675 1671 1668 1665
4821 6 1675 1671 1668 1672
4822 6 1675 1671 1668 1673
4823 4 1676 1671 1668 1665
4824 6 1676 1671 1668 1672
4825 6 1676 1671 1668 1673
4826 7 1305 1302 1299 1296
4827 4 1305 1302 1299 1303
4828 4 1305 1302 1299 1304
4829 4 1306 1302 1299 1296
4830 6 1306 1302 1299 1303
4831 6 1306 1302 1299 1304
4832 4 1307 1302 1299 1296
4833 6 1307 1302 1299 1303
4834 6 1307 1302 1299 1304
4835 7 1302 1299 1296 1293
4836 4 1302 1299 1296 1300
4837 4 1302 1299 1296 1301
4838 4 1303 1299 1296 1293
4839 6 1303 1299 1296 1300
4840 6 1303 1299 1296 1301
4841 4 1304 1299 1296 1293
4842 6 1304 1299 1296 1300
4843 6 1304 1299 1296 1301
4844 7 1677 1674 1671 1668
4845 4 1677 1674 1671 1675
4846 4 1677 1674 1671 1676
4847 4 1678 1674 1671 1668
4848 6 1678 1674 1671 1675
4849 6 1678 1674 1671 1676
4850 4 1679 1674 1671 1668
4851 6 1679 1674 1671 1675
4852 6 1679 1674 1671 1676
4853 7 1299 1296 1293 1290
4854 4 1299 1296 1293 1297
4855 4 1299 1296 1293 1298
4856 4 1300 1296 1293 1290
4857 6 1300 1296 1293 1297
4858 6 1300 1296 1293 1298
4859 4 1301 1296 1293 1290
4860 6 1301 1296 1293 1297
4861 6 1301 1296 1293 1298
4862 7 1680 1677 1674 1671
4863 4 1680 1677 1674 1678
4864 4 1680 1677 1674 1679
4865 4 1681 1677 1674 1671
4866 6 1681 1677 1674 1678
4867 6 1681 1677 1674 1679
4868 4 1682 1677 1674 1671
4869 6 1682 1677 1674 1678
4870 6 1682 1677 1674 1679
4871 4 1683 1680 1677 1674
4872 6 1683 1680 1677 1681
4873 6 1683 1680 1677 1682
4874 4 1684 1680 1677 1674
4875 6 1684 1680 1677 1681
4876 6 1684 1680 1677 1682
4877 4 1685 1680 1677 1674
4878 6 1685 1680 1677 1681
4879 6 1685 1680 1677 1682
4880 4 1308 1305 1302 1299
4881 6 1308 1305 1302 1306
4882 6 1308 1305 1302 1307
4883 4 1309 1305 1302 1299
4884 6 1309 1305 1302 1306
4885 6 1309 1305 1302 1307
4886 4 1310 1305 1302 1299
4887 6 1310 1305 1302 1306
4888 6 1310 1305 1302 1307
4889 3 94 91 87 86
4890 4 94 91 87 92
4891 4 94 91 87 93
4892 5 95 91 87 86
4893 6 95 91 87 92
4894 6 95 91 87 93
4895 5 96 91 87 86
4896 6 96 91 87 92
4897 6 96 91 87 93
4898 8 1965 1962 1961 1963
4899 8 1965 1962 1961 1964
4900 9 1966 1962 1961 1963
4901 9 1966 1962 1961 1964
4902 9 1967 1962 1961 1963
4903 9 1967 1962 1961 1964
4904 4 100 97 94 91
4905 6 100 97 94 98
4906 6 100 97 94 99
4907 4 101 97 94 91
4908 6 101 97 94 98
4909 6 101 97 94 99
4910 4 102 97 94 91
4911 6 102 97 94 98
4912 6 102 97 94 99
4913 7 97 94 91 87
4914 4 97 94 91 95
4915 4 97 94 91 96
4916 4 98 94 91 87
4917 6 98 94 91 95
4918 6 98 94 91 96
4919 4 99 94 91 87
4920 6 99 94 91 95
4921 6 99 94 91 96
4922 12 1962 1963 1961 1964
4923 7 2046 2043 2040 2037
4924 4 2046 2043 2040 2044
4925 4 2046 2043 2040 2045
4926 4 2047 2043 2040 2037
4927 6 2047 2043 2040 2044
4928 6 2047 2043 2040 2045
4929 4 2048 2043 2040 2037
4930 6 2048 2043 2040 2044
4931 6 2048 2043 2040 2045
4932 4 2058 2055 2052 2049
4933 6 2058 2055 2052 2056
4934 6 2058 2055 2052 2057
4935 4 2059 2055 2052 2049
4936 6 2059 2055 2052 2056
4937 6 2059 2055 2052 2057
4938 4 2060 2055 2052 2049
4939 6 2060 2055 2052 2056
4940 6 2060 2055 2052 2057
4941 7 2052 2049 2046 2043
4942 4 2052 2049 2046 2050
4943 4 2052 2049 2046 2051
4944 4 2053 2049 2046 2043
4945 6 2053 2049 2046 2050
4946 6 2053 2049 2046 2051
4947 4 2054 2049 2046 2043
4948 6 2054 2049 2046 2050
4949 6 2054 2049 2046 2051
4950 7 641 638 635 631
4951 4 641 638 635 639
4952 4 641 638 635 640
4953 4 642 638 635 631
4954 6 642 638 635 639
4955 6 642 638 635 640
4956 4 643 638 635 631
4957 6 643 638 635 639
4958 6 643 638 635 640
4959 4 644 641 638 635
4960 6 644 641 638 642
4961 6 644 641 638 643
4962 4 645 641 638 635
4963 6 645 641 638 642
4964 6 645 641 638 643
4965 4 646 641 638 635
4966 6 646 641 638 642
4967 6 646 641 638 643
4968 7 2055 2052 2049 2046
4969 4 2055 2052 2049 2053
4970 4 2055 2052 2049 2054
4971 4 2056 2052 2049 2046
4972 6 2056 2052 2049 2053
4973 6 2056 2052 2049 2054
4974 4 2057 2052 2049 2046
4975 6 2057 2052 2049 2053
4976 6 2057 2052 2049 2054
4977 7 2049 2046 2043 2040
4978 4 2049 2046 2043 2047
4979 4 2049 2046 2043 2048
4980 4 2050 2046 2043 2040
4981 6 2050 2046 2043 2047
4982 6 2050 2046 2043 2048
4983 4 2051 2046 2043 2040
4984 6 2051 2046 2043 2047
4985 6 2051 2046 2043 2048
4986 3 298 295 291 290
4987 4 298 295 291 296
4988 4 298 295 291 297
4989 5 299 295 291 290
4990 6 299 295 291 296
4991 6 299 295 291 297
4992 5 300 295 291 290
4993 6 300 295 291 296
4994 6 300 295 291 297
4995 10 1943 1940 1937 1936
4996 4 1943 1940 1937 1941
4997 4 1943 1940 1937 1942
4998 11 1944 1940 1937 1936
4999 6 1944 1940 1937 1941
5000 6 1944 1940 1937 1942
5001 11 1945 1940 1937 1936
5002 6 1945 1940 1937 1941
5003 6 1945 1940 1937 1942
5004 7 1105 1102 1099 1096
5005 4 1105 1102 1099 1103
5006 4 1105 1102 1099 1104
5007 4 1106 1102 1099 1096
5008 6 1106 1102 1099 1103
5009 6 1106 1102 1099 1104
5010 4 1107 1102 1099 1096
5011 6 1107 1102 1099 1103
5012 6 1107 1102 1099 1104
5013 7 1102 1099 1096 1093
5014 4 1102 1099 1096 1100
5015 4 1102 1099 1096 1101
5016 4 1103 1099 1096 1093
5017 6 1103 1099 1096 1100
5018 6 1103 1099 1096 1101
5019 4 1104 1099 1096 1093
5020 6 1104 1099 1096 1100
5021 6 1104 1099 1096 1101
5022 1 295 291 290 292
5023 1 295 291 290 293
5024 1 295 291 290 294
5025 2 296 291 290 292
5026 2 296 291 290 293
5027 2 296 291 290 294
5028 2 297 291 290 292
5029 2 297 291 290 293
5030 2 297 291 290 294
5031 10 1093 1090 1087 1086
5032 4 1093 1090 1087 1091
5033 4 1093 1090 1087 1092
5034 11 1094 1090 1087 1086
5035 6 1094 1090 1087 1091
5036 6 1094 1090 1087 1092
5037 11 1095 1090 1087 1086
5038 6 1095 1090 1087 1091
5039 6 1095 1090 1087 1092
5040 7 1099 1096 1093 1090
5041 4 1099 1096 1093 1097
5042 4 1099 1096 1093 1098
5043 4 1100 1096 1093 1090
5044 6 1100 1096 1093 1097
5045 6 1100 1096 1093 1098
5046 4 1101 1096 1093 1090
5047 6 1101 1096 1093 1097
5048 6 1101 1096 1093 1098
5049 7 1096 1093 1090 1087
5050 4 1096 1093 1090 1094
5051 4 1096 1093 1090 1095
5052 4 1097 1093 1090 1087
5053 6 1097 1093 1090 1094
5054 6 1097 1093 1090 1095
5055 4 1098 1093 1090 1087
5056 6 1098 1093 1090 1094
5057 6 1098 1093 1090 1095
5058 12 1937 1938 1936 1939
5059 7 1055 1052 1049 1046
5060 4 1055 1052 1049 1053
5061 4 1055 1052 1049 1054
5062 4 1056 1052 1049 1046
5063 6 1056 1052 1049 1053
5064 6 1056 1052 1049 1054
5065 4 1057 1052 1049 1046
5066 6 1057 1052 1049 1053
5067 6 1057 1052 1049 1054
5068 4 1258 1255 1252 1249
5069 6 1258 1255 1252 1256
5070 6 1258 1255 1252 1257
5071 4 1259 1255 1252 1249
5072 6 1259 1255 1252 1256
5073 6 1259 1255 1252 1257
5074 4 1260 1255 1252 1249
5075 6 1260 1255 1252 1256
5076 6 1260 1255 1252 1257
5077 4 916 913 910 907
5078 6 916 913 910 914
5079 6 916 913 910 915
5080 4 917 913 910 907
5081 6 917 913 910 914
5082 6 917 913 910 915
5083 4 918 913 910 907
5084 6 918 913 910 914
5085 6 918 913 910 915
5086 7 1052 1049 1046 1043
5087 4 1052 1049 1046 1050
5088 4 1052 1049 1046 1051
5089 4 1053 1049 1046 1043
5090 6 1053 1049 1046 1050
5091 6 1053 1049 1046 1051
5092 4 1054 1049 1046 1043
5093 6 1054 1049 1046 1050
5094 6 1054 1049 1046 1051
5095 7 1049 1046 1043 1040
5096 4 1049 1046 1043 1047
5097 4 1049 1046 1043 1048
5098 4 1050 1046 1043 1040
5099 6 1050 1046 1043 1047
5100 6 1050 1046 1043 1048
5101 4 1051 1046 1043 1040
5102 6 1051 1046 1043 1047
5103 6 1051 1046 1043 1048
5104 7 1980 1977 1974 1971
5105 4 1980 1977 1974 1978
5106 4 1980 1977 1974 1979
5107 4 1981 1977 1974 1971
5108 6 1981 1977 1974 1978
5109 6 1981 1977 1974 1979
5110 4 1982 1977 1974 1971
5111 6 1982 1977 1974 1978
5112 6 1982 1977 1974 1979
5113 7 1974 1971 1968 1965
5114 4 1974 1971 1968 1972
5115 4 1974 1971 1968 1973
5116 4 1975 1971 1968 1965
5117 6 1975 1971 1968 1972
5118 6 1975 1971 1968 1973
5119 4 1976 1971 1968 1965
5120 6 1976 1971 1968 1972
5121 6 1976 1971 1968 1973
5122 7 913 910 907 903
5123 4 913 910 907 911
5124 4 913 910 907 912
5125 4 914 910 907 903
5126 6 914 910 907 911
5127 6 914 910 907 912
5128 4 915 910 907 903
5129 6 915 910 907 911
5130 6 915 910 907 912
5131 10 1968 1965 1962 1961
5132 4 1968 1965 1962 1966
5133 4 1968 1965 1962 1967
5134 11 1969 1965 1962 1961
5135 6 1969 1965 1962 1966
5136 6 1969 1965 1962 1967
5137 11 1970 1965 1962 1961
5138 6 1970 1965 1962 1966
5139 6 1970 1965 1962 1967
5140 7 1971 1968 1965 1962
5141 4 1971 1968 1965 1969
5142 4 1971 1968 1965 1970
5143 4 1972 1968 1965 1962
5144 6 1972 1968 1965 1969
5145 6 1972 1968 1965 1970
5146 4 1973 1968 1965 1962
5147 6 1973 1968 1965 1969
5148 6 1973 1968 1965 1970
5149 3 910 907 903 902
5150 4 910 907 903 908
5151 4 910 907 903 909
5152 5 911 907 903 902
5153 6 911 907 903 908
5154 6 911 907 903 909
5155 5 912 907 903 902
5156 6 912 907 903 908
5157 6 912 907 903 909
5158 1 907 903 902 904
5159 1 907 903 902 905
5160 1 907 903 902 906
5161 2 908 903 902 904
5162 2 908 903 902 905
5163 2 908 903 902 906
5164 2 909 903 902 904
5165 2 909 903 902 905
5166 2 909 903 902 906
5167 7 1977 1974 1971 1968
5168 4 1977 1974 1971 1975
5169 4 1977 1974 1971 1976
5170 4 1978 1974 1971 1968
5171 6 1978 1974 1971 1975
5172 6 1978 1974 1971 1976
5173 4 1979 1974 1971 1968
5174 6 1979 1974 1971 1975
5175 6 1979 1974 1971 1976
5176 7 1430 1427 1424 1421
5177 4 1430 1427 1424 1428
5178 4 1430 1427 1424 1429
5179 4 1431 1427 1424 1421
5180 6 1431 1427 1424 1428
5181 6 1431 1427 1424 1429
5182 4 1432 1427 1424 1421
5183 6 1432 1427 1424 1428
5184 6 1432 1427 1424 1429
5185 7 1427 1424 1421 1418
5186 4 1427 1424 1421 1425
5187 4 1427 1424 1421 1426
5188 4 1428 1424 1421 1418
5189 6 1428 1424 1421 1425
5190 6 1428 1424 1421 1426
5191 4 1429 1424 1421 1418
5192 6 1429 1424 1421 1425
5193 6 1429 1424 1421 1426
5194 7 1424 1421 1418 1415
5195 4 1424 1421 1418 1422
5196 4 1424 1421 1418 1423
5197 4 1425 1421 1418 1415
5198 6 1425 1421 1418 1422
5199 6 1425 1421 1418 1423
5200 4 1426 1421 1418 1415
5201 6 1426 1421 1418 1422
5202 6 1426 1421 1418 1423
5203 10 1418 1415 1412 1411
5204 4 1418 1415 1412 1416
5205 4 1418 1415 1412 1417
5206 11 1419 1415 1412 1411
5207 6 1419 1415 1412 1416
5208 6 1419 1415 1412 1417
5209 11 1420 1415 1412 1411
5210 6 1420 1415 1412 1416
5211 6 1420 1415 1412 1417
5212 7 1946 1943 1940 1937
5213 4 1946 1943 1940 1944
5214 4 1946 1943 1940 1945
5215 4 1947 1943 1940 1937
5216 6 1947 1943 1940 1944
5217 6 1947 1943 1940 1945
5218 4 1948 1943 1940 1937
5219 6 1948 1943 1940 1944
5220 6 1948 1943 1940 1945
5221 7 2171 2168 2165 2162
5222 4 2171 2168 2165 2169
5223 4 2171 2168 2165 2170
5224 4 2172 2168 2165 2162
5225 6 2172 2168 2165 2169
5226 6 2172 2168 2165 2170
5227 4 2173 2168 2165 2162
5228 6 2173 2168 2165 2169
5229 6 2173 2168 2165 2170
5230 7 1949 1946 1943 1940
5231 4 1949 1946 1943 1947
5232 4 1949 1946 1943 1948
5233 4 1950 1946 1943 1940
5234 6 1950 1946 1943 1947
5235 6 1950 1946 1943 1948
5236 4 1951 1946 1943 1940
5237 6 1951 1946 1943 1947
5238 6 1951 1946 1943 1948
5239 8 2165 2162 2161 2163
5240 8 2165 2162 2161 2164
5241 9 2166 2162 2161 2163
5242 9 2166 2162 2161 2164
5243 9 2167 2162 2161 2163
5244 9 2167 2162 2161 2164
5245 10 2168 2165 2162 2161
5246 4 2168 2165 2162 2166
5247 4 2168 2165 2162 2167
5248 11 2169 2165 2162 2161
5249 6 2169 2165 2162 2166
5250 6 2169 2165 2162 2167
5251 11 2170 2165 2162 2161
5252 6 2170 2165 2162 2166
5253 6 2170 2165 2162 2167
5254 8 1940 1937 1936 1938
5255 8 1940 1937 1936 1939
5256 9 1941 1937 1936 1938
5257 9 1941 1937 1936 1939
5258 9 1942 1937 1936 1938
5259 9 1942 1937 1936 1939
5260 8 1415 1412 1411 1413
5261 8 1415 1412 1411 1414
5262 9 1416 1412 1411 1413
5263 9 1416 1412 1411 1414
5264 9 1417 1412 1411 1413
5265 9 1417 1412 1411 1414
5266 7 1421 1418 1415 1412
5267 4 1421 1418 1415 1419
5268 4 1421 1418 1415 1420
5269 4 1422 1418 1415 1412
5270 6 1422 1418 1415 1419
5271 6 1422 1418 1415 1420
5272 4 1423 1418 1415 1412
5273 6 1423 1418 1415 1419
5274 6 1423 1418 1415 1420
5275 7 1046 1043 1040 1037
5276 4 1046 1043 1040 1044
5277 4 1046 1043 1040 1045
5278 4 1047 1043 1040 1037
5279 6 1047 1043 1040 1044
5280 6 1047 1043 1040 1045
5281 4 1048 1043 1040 1037
5282 6 1048 1043 1040 1044
5283 6 1048 1043 1040 1045
5284 12 1037 1038 1036 1039
5285 1 686 682 681 683
5286 1 686 682 681 684
5287 1 686 682 681 685
5288 2 687 682 681 683
5289 2 687 682 681 684
5290 2 687 682 681 685
5291 2 688 682 681 683
5292 2 688 682 681 684
5293 2 688 682 681 685
5294 8 1040 1037 1036 1038
5295 8 1040 1037 1036 1039
5296 9 1041 1037 1036 1038
5297 9 1041 1037 1036 1039
5298 9 1042 1037 1036 1038
5299 9 1042 1037 1036 1039
5300 3 808 805 801 800
5301 4 808 805 801 806
5302 4 808 805 801 807
5303 5 809 805 801 800
5304 6 809 805 801 806
5305 6 809 805 801 807
5306 5 810 805 801 800
5307 6 810 805 801 806
5308 6 810 805 801 807
5309 7 692 689 686 682
5310 4 692 689 686 690
5311 4 692 689 686 691
5312 4 693 689 686 682
5313 6 693 689 686 690
5314 6 693 689 686 691
5315 4 694 689 686 682
5316 6 694 689 686 690
5317 6 694 689 686 691
5318 10 1043 1040 1037 1036
5319 4 1043 1040 1037 1041
5320 4 1043 1040 1037 1042
5321 11 1044 1040 1037 1036
5322 6 1044 1040 1037 1041
5323 6 1044 1040 1037 1042
5324 11 1045 1040 1037 1036
5325 6 1045 1040 1037 1041
5326 6 1045 1040 1037 1042
5327 7 114 111 108 104
5328 4 114 111 108 112
5329 4 114 111 108 113
5330 4 115 111 108 104
5331 6 115 111 108 112
5332 6 115 111 108 113
5333 4 116 111 108 104
5334 6 116 111 108 112
5335 6 116 111 108 113
