LAMMPS (10 Dec 2025)
OMP_NUM_THREADS environment is not set. Defaulting to 1 thread.
  using 1 OpenMP thread(s) per MPI task
# created by fftool

units real
boundary p p p

atom_style full
bond_style harmonic
angle_style harmonic
dihedral_style opls

special_bonds lj/coul 0.0 0.0 0.5

# remove hybrid if not necessary
pair_style hybrid lj/cut/coul/long 10.0 10.0
pair_modify mix geometric tail yes
read_data data.lmp
Reading data file ...
  orthogonal box = (0 0 0) to (35.32 35.32 35.32)
  1 by 1 by 2 MPI processor grid
  reading atoms ...
  2970 atoms
  scanning bonds ...
  1 = max bonds/atom
  scanning angles ...
  6 = max angles/atom
  scanning dihedrals ...
  9 = max dihedrals/atom
  orthogonal box = (0 0 0) to (35.32 35.32 35.32)
  1 by 1 by 2 MPI processor grid
  reading bonds ...
  2640 bonds
  reading angles ...
  4345 angles
  reading dihedrals ...
  5335 dihedrals
Finding 1-2 1-3 1-4 neighbors ...
  special bond factors lj:    0        0        0.5     
  special bond factors coul:  0        0        0.5     
     4 = max # of 1-2 neighbors
     6 = max # of 1-3 neighbors
    12 = max # of 1-4 neighbors
    16 = max # of special neighbors
  special bonds CPU = 0.004 seconds
  read_data CPU = 0.253 seconds
# read_restart restart1.lmp

kspace_style pppm 1.0e-5

# remove pair style if not using hybrid
pair_coeff    1    1 lj/cut/coul/long     0.170000     3.250000  # N1 N1
pair_coeff    2    2 lj/cut/coul/long     0.065999     3.500000  # C1N C1N
pair_coeff    3    3 lj/cut/coul/long     0.000000     0.000000  # HN HN
pair_coeff    4    4 lj/cut/coul/long     0.065999     3.500000  # CS CS
pair_coeff    5    5 lj/cut/coul/long     0.030000     2.500000  # H1N H1N
pair_coeff    6    6 lj/cut/coul/long     0.030000     2.500000  # HC HC
pair_coeff    7    7 lj/cut/coul/long     0.065999     3.500000  # CEN CEN
pair_coeff    8    8 lj/cut/coul/long     0.030000     2.500000  # HCN HCN
pair_coeff    9    9 lj/cut/coul/long     0.105000     3.750000  # CO2 CO2
pair_coeff   10   10 lj/cut/coul/long     0.065999     3.500000  # C2C C2C
pair_coeff   11   11 lj/cut/coul/long     0.210000     2.960000  # O2 O2
pair_coeff   12   12 lj/cut/coul/long     0.065999     3.500000  # CT CT
pair_coeff   13   13 lj/cut/coul/long     0.000000     1.000000  # Hw Hw
pair_coeff   14   14 lj/cut/coul/long     0.155425     3.165500  # Ow Ow

# minimize 1.0e-4 1.0e-6 100 1000
# reset_timestep 0

fix SHAKE all shake 0.0001 20 0 b 2 4 7
Finding SHAKE clusters ...
       0 = # of size 2 clusters
     715 = # of size 3 clusters
     165 = # of size 4 clusters
       0 = # of frozen angles
  find clusters CPU = 0.049 seconds

neighbor 2.0 bin
neigh_modify delay 0 every 1 check yes








#fix VAVG all ave/time 10 1000 50000 v_vinst

# ---------------------------------------------------------------------------
# RENEU 2026 simulation protocol (stage2 M1 butylammonium octanoate)
# 1 minimise  2 NVT relaxation  3 NPT equilibration  4 NPT production
# ---------------------------------------------------------------------------
timestep 1.0

variable TK      equal 300.0
variable PBAR    equal 1.0
variable NVTRUN  equal 20000
variable EQRUN   equal 100000
variable PRODRUN equal 200000

variable dens equal density
variable vol  equal vol

thermo 1000
thermo_style custom step temp press vol v_dens pe etotal

# --- 1. energy minimisation ------------------------------------------------
print "RENEU >>> stage 1 of 4: energy minimisation"
RENEU >>> stage 1 of 4: energy minimisation
minimize 1.0e-4 1.0e-6 10000 100000
PPPM initialization ...
  using 12-bit tables for long-range coulomb
  G vector (1/distance) = 0.28618385
  grid = 24 24 24
  stencil order = 5
  estimated absolute RMS force accuracy = 0.0028225673
  estimated relative force accuracy = 8.5000775e-06
  using double precision FFTW3
  3d grid and FFT values/proc = 18259 6912
Generated 91 of 91 mixed pair_coeff terms from geometric mixing rule
WARNING: Using fix shake with minimization.
  Substituting constraints with harmonic restraint forces using kbond=1987206.7 (src/RIGID/fix_shake.cpp:397)
Neighbor list info ...
  update: every = 1 steps, delay = 0 steps, check = yes
  max neighbors/atom: 2000, page size: 100000
  master list distance cutoff = 12
  ghost atom cutoff = 12
  binsize = 6, bins = 6 6 6
  1 neighbor lists, perpetual/occasional/extra = 1 0 0
  (1) pair lj/cut/coul/long, perpetual
      attributes: half, newton on
      pair build: half/bin/newton
      stencil: half/bin/3d
      bin: standard
Per MPI rank memory allocation (min/avg/max) = 17.01 | 17.2 | 17.39 Mbytes
   Step          Temp          Press          Volume         v_dens         PotEng         TotEng    
         0   0             -12126764       44061.785      0.59988458     214357.98      214357.98    
        28   0              14957.166      44061.785      0.59988458    -798.4993      -798.4993     
Loop time of 6.81559 on 2 procs for 28 steps with 2970 atoms

98.7% CPU use with 2 MPI tasks x 1 OpenMP threads

Minimization stats:
  Stopping criterion = energy tolerance
  Energy initial, next-to-last, final = 
      214357.982527593  -798.433913481529   -798.49930181506
  Force two-norm initial, final = 1608069.8 2538.7996
  Force max component initial, final = 82432.061 623.36538
  Final line search alpha, max atom move = 1.9047578e-05 0.0118736
  Iterations, force evaluations = 28 129

MPI task timing breakdown:
Section |  min time  |  avg time  |  max time  |%varavg| %total
---------------------------------------------------------------
Pair    | 4.3049     | 4.5801     | 4.8554     |  12.9 | 67.20
Bond    | 0.21089    | 0.21752    | 0.22416    |   1.4 |  3.19
Kspace  | 1.4347     | 1.7047     | 1.9747     |  20.7 | 25.01
Neigh   | 0          | 0          | 0          |   0.0 |  0.00
Comm    | 0.1734     | 0.17766    | 0.18193    |   1.0 |  2.61
Output  | 0          | 0          | 0          |   0.0 |  0.00
Modify  | 0.060548   | 0.061924   | 0.063301   |   0.6 |  0.91
Other   |            | 0.07361    |            |       |  1.08

Nlocal:           1485 ave        1505 max        1465 min
Histogram: 1 0 0 0 0 0 0 0 0 1
Nghost:           7705 ave        7758 max        7652 min
Histogram: 1 0 0 0 0 0 0 0 0 1
Neighs:         405482 ave      445825 max      365138 min
Histogram: 1 0 0 0 0 0 0 0 0 1

Total # of neighbors = 810963
Ave neighs/atom = 273.05152
Ave special neighs/atom = 8.2592593
Neighbor list builds = 0
Dangerous builds = 0
reset_timestep 0

# --- 2. NVT relaxation (lets the packed box relax before the barostat) ------
print "RENEU >>> stage 2 of 4: NVT relaxation"
RENEU >>> stage 2 of 4: NVT relaxation
velocity all create ${TK} 12345 mom yes rot yes dist gaussian
velocity all create 300 12345 mom yes rot yes dist gaussian
fix NVTRELAX all nvt temp ${TK} ${TK} 100
fix NVTRELAX all nvt temp 300 ${TK} 100
fix NVTRELAX all nvt temp 300 300 100
run ${NVTRUN}
run 20000
PPPM initialization ...
  using 12-bit tables for long-range coulomb
  G vector (1/distance) = 0.28618385
  grid = 24 24 24
  stencil order = 5
  estimated absolute RMS force accuracy = 0.0028225673
  estimated relative force accuracy = 8.5000775e-06
  using double precision FFTW3
  3d grid and FFT values/proc = 18259 6912
Generated 91 of 91 mixed pair_coeff terms from geometric mixing rule
Per MPI rank memory allocation (min/avg/max) = 15.89 | 16.08 | 16.27 Mbytes
   Step          Temp          Press          Volume         v_dens         PotEng         TotEng    
         0   300            21945.141      44061.785      0.59988458    -798.89835      1282.3032    
      1000   308.1574      -1124.9961      44061.785      0.59988458    -8210.3538     -6072.5616    
      2000   301.31746     -1016.3074      44061.785      0.59988458    -8513.5289     -6423.1876    
      3000   299.55045     -45.013937      44061.785      0.59988458    -8804.8964     -6726.8135    
      4000   298.993        647.50776      44061.785      0.59988458    -8906.6193     -6832.4036    
      5000   297.56059     -543.32785      44061.785      0.59988458    -8992.8305     -6928.5519    
      6000   299.01458     -688.14487      44061.785      0.59988458    -8999.6089     -6925.2435    
      7000   297.81672     -84.112349      44061.785      0.59988458    -9134.5405     -7068.4851    
      8000   296.20053     -792.45336      44061.785      0.59988458    -9135.7282     -7080.8848    
      9000   298.98097     -1201.7031      44061.785      0.59988458    -9310.107      -7235.9748    
     10000   302.69319      218.27525      44061.785      0.59988458    -9275.0211     -7175.136     
     11000   303.6578      -592.77714      44061.785      0.59988458    -9307.2724     -7200.6955    
     12000   297.18302     -66.079604      44061.785      0.59988458    -9321.4044     -7259.7451    
     13000   305.75703     -57.618695      44061.785      0.59988458    -9403.2864     -7282.1464    
     14000   305.77426     -724.94908      44061.785      0.59988458    -9360.2238     -7238.9642    
     15000   304.42593     -879.18432      44061.785      0.59988458    -9408.8851     -7296.9794    
     16000   303.11263     -255.75291      44061.785      0.59988458    -9442.4178     -7339.6229    
     17000   305.01582     -335.27548      44061.785      0.59988458    -9362.3947     -7246.3967    
     18000   308.19051     -932.74015      44061.785      0.59988458    -9435.996      -7297.9741    
     19000   303.74496     -706.24077      44061.785      0.59988458    -9531.1268     -7423.9452    
     20000   293.92592     -947.90266      44061.785      0.59988458    -9415.1386     -7376.075     
Loop time of 896.26 on 2 procs for 20000 steps with 2970 atoms

Performance: 1.928 ns/day, 12.448 hours/ns, 22.315 timesteps/s, 66.275 katom-step/s
98.3% CPU use with 2 MPI tasks x 1 OpenMP threads

MPI task timing breakdown:
Section |  min time  |  avg time  |  max time  |%varavg| %total
---------------------------------------------------------------
Pair    | 434.43     | 477.74     | 521.04     | 198.1 | 53.30
Bond    | 38.363     | 38.729     | 39.096     |   5.9 |  4.32
Kspace  | 232.16     | 274.27     | 316.39     | 254.3 | 30.60
Neigh   | 56.548     | 56.662     | 56.776     |   1.5 |  6.32
Comm    | 24.024     | 25.371     | 26.718     |  26.7 |  2.83
Output  | 0.0037182  | 0.012512   | 0.021307   |   7.9 |  0.00
Modify  | 20.156     | 20.167     | 20.178     |   0.2 |  2.25
Other   |            | 3.307      |            |       |  0.37

Nlocal:           1485 ave        1638 max        1332 min
Histogram: 1 0 0 0 0 0 0 0 0 1
Nghost:         8172.5 ave        8619 max        7726 min
Histogram: 1 0 0 0 0 0 0 0 0 1
Neighs:         395960 ave      456375 max      335546 min
Histogram: 1 0 0 0 0 0 0 0 0 1

Total # of neighbors = 791921
Ave neighs/atom = 266.64007
Ave special neighs/atom = 8.2592593
Neighbor list builds = 950
Dangerous builds = 0
unfix NVTRELAX

# --- 3. NPT equilibration (this is where the density finds its own value) ---
# restart files are written every 25000 steps. If the run stops for any
# reason you can pick up from the last one instead of starting over:
#     read_restart rst_a.lmp      (or rst_b.lmp, whichever is newer)
print "RENEU >>> stage 3 of 4: NPT equilibration - watch the density column"
RENEU >>> stage 3 of 4: NPT equilibration - watch the density column
restart 25000 rst_a.lmp rst_b.lmp
fix NPTEQ all npt temp ${TK} ${TK} 100 iso ${PBAR} ${PBAR} 1000
fix NPTEQ all npt temp 300 ${TK} 100 iso ${PBAR} ${PBAR} 1000
fix NPTEQ all npt temp 300 300 100 iso ${PBAR} ${PBAR} 1000
fix NPTEQ all npt temp 300 300 100 iso 1 ${PBAR} 1000
fix NPTEQ all npt temp 300 300 100 iso 1 1 1000
run ${EQRUN}
run 100000
PPPM initialization ...
  using 12-bit tables for long-range coulomb
  G vector (1/distance) = 0.28618385
  grid = 24 24 24
  stencil order = 5
  estimated absolute RMS force accuracy = 0.0028225673
  estimated relative force accuracy = 8.5000775e-06
  using double precision FFTW3
  3d grid and FFT values/proc = 18259 6912
Generated 91 of 91 mixed pair_coeff terms from geometric mixing rule
Per MPI rank memory allocation (min/avg/max) = 16.27 | 16.27 | 16.27 Mbytes
   Step          Temp          Press          Volume         v_dens         PotEng         TotEng    
     20000   293.92592     -947.89668      44061.785      0.59988458    -9415.1386     -7376.075     
     21000   300.23039      865.15757      39594.814      0.66756181    -9566.8733     -7484.0735    
     22000   281.37309     -452.03657      37124.638      0.71197961    -9630.2441     -7678.2638    
     23000   302.63623      13.984882      36172.593      0.73071858    -9683.0322     -7583.5422    
     24000   302.74217      307.68106      33912.589      0.77941514    -9680.6065     -7580.3816    
     25000   304.62896      218.375        33540.017      0.78807309    -9681.7483     -7568.434     
     26000   298.91797      6.4714476      32917.439      0.80297818    -9750.6956     -7677.0005    
     27000   297.30819      115.13998      32271.504      0.81905031    -9694.6968     -7632.1692    
     28000   288.05858      1321.2988      31593.978      0.83661467    -9782.3984     -7784.0385    
     29000   299.74799     -953.63493      31677.154      0.83441794    -9762.875      -7683.4217    
     30000   296.81547     -839.98962      31107.494      0.84969832    -9811.5845     -7752.4751    
     31000   302.9741      -573.17047      31001.871      0.85259323    -9773.0724     -7671.2385    
     32000   297.49797     -597.86558      30411.345      0.86914884    -9847.3001     -7783.456     
     33000   301.4336      -1225.1838      30487.346      0.86698217    -9829.8594     -7738.7125    
     34000   293.76543     -224.58079      30427.329      0.86869227    -9801.5951     -7763.6448    
     35000   309.43629     -58.060113      29964.759      0.88210239    -9914.3588     -7767.6945    
     36000   299.9453       338.77935      29980.085      0.88165145    -9805.0515     -7724.2294    
     37000   302.17934     -346.28192      30350.017      0.87090512    -9917.586      -7821.2656    
     38000   300.27898      294.62207      29872.086      0.88483896    -9900.3114     -7817.1744    
     39000   306.44431      31.758735      29567.436      0.89395596    -9822.3512     -7696.4433    
     40000   298.07862     -541.2225       29715.687      0.88949601    -9876.6441     -7808.7718    
     41000   302.57333     -1171.8836      29380.338      0.89964877    -9922.8015     -7823.7478    
     42000   296.80513     -181.09696      29094.283      0.90849411    -9798.769      -7739.7313    
     43000   298.55547     -325.80654      29348.066      0.90063807    -9888.3773     -7817.197     
     44000   292.15845     -112.09279      29043.81       0.91007295    -9987.485      -7960.6829    
     45000   298.21813     -13.297468      29455.716      0.89734656    -9876.0514     -7807.2112    
     46000   296.72373     -649.33635      29369.818      0.89997102    -10004.722     -7946.2495    
     47000   302.54557      1094.7477      29147.707      0.90682898    -9947.785      -7848.9239    
     48000   295.13358     -456.23071      28888.424      0.91496806    -9911.4529     -7864.0114    
     49000   306.1102      -1471.2508      29467.227      0.89699601    -9809.8829     -7686.2928    
     50000   297.57394      32.2994        29447.49       0.89759723    -9857.9129     -7793.5417    
     51000   288.25623     -932.44915      29367.994      0.90002693    -9910.3517     -7910.6206    
     52000   299.30428     -1069.0121      29472.55       0.89683401    -9847.7211     -7771.346     
     53000   300.49436     -794.37497      29486.843      0.89639931    -9887.9602     -7803.3291    
     54000   302.5608      -379.01405      28689.607      0.92130872    -9953.1635     -7854.1968    
     55000   307.97758      1079.8123      28899.055      0.91463149    -9874.607      -7738.0623    
     56000   293.48921     -459.85349      28729.942      0.92001527    -9911.2862     -7875.2522    
     57000   299.1423      -235.41006      28876.894      0.91533338    -9877.1565     -7801.9051    
     58000   297.74438      704.74529      28780.821      0.91838884    -9966.5992     -7901.0456    
     59000   304.02954      103.82689      28482.379      0.92801186    -9947.4678     -7838.3119    
     60000   292.05323     -333.3578       28757.67       0.9191282     -10003.274     -7977.2021    
     61000   288.76758     -120.1368       28662.736      0.92217243    -9913.6566     -7910.3782    
     62000   305.09485     -475.1152       28323.574      0.93321503    -9948.9097     -7832.3634    
     63000   294.94844     -209.49594      28701.874      0.92091495    -9973.6936     -7927.5363    
     64000   299.60296     -455.84922      28407.862      0.93044615    -9942.8369     -7864.3897    
     65000   300.61851     -7.0635744      28800.718      0.91775438    -9959.2599     -7873.7675    
     66000   291.80419     -1623.3247      28306.072      0.93379207    -9969.513      -7945.1685    
     67000   302.48376      1087.4851      28679.184      0.92164355    -9950.9298     -7852.4975    
     68000   289.93111      384.19178      28026.826      0.94309592    -10041.046     -8029.6955    
     69000   305.80271     -64.857232      28166.518      0.93841862    -9959.0532     -7837.5962    
     70000   291.87621     -610.77163      28586.421      0.92463428    -9994.846      -7970.0019    
     71000   301.47645     -418.72134      28598.102      0.92425663    -9950.5777     -7859.1335    
     72000   292.9065       235.87414      28376.414      0.93147728    -10029.375     -7997.3837    
     73000   299.4404       527.3964       28073.654      0.9415228     -9989.926      -7912.6066    
     74000   302.6029       800.14305      28268.496      0.9350333     -10046.927     -7947.6687    
     75000   304.27289      793.88273      28552.438      0.9257348     -9976.6224     -7865.7784    
     76000   303.50863     -715.78056      28386.881      0.93113382    -9956.6275     -7851.0854    
     77000   291.29846     -841.89677      28526.357      0.92658117    -9919.0032     -7898.1671    
     78000   300.44803     -153.61916      28286.239      0.93444679    -9956.3663     -7872.0566    
     79000   297.72678     -1104.4747      28109.129      0.94033457    -9987.5802     -7922.1487    
     80000   299.08497      336.98054      28221.946      0.93657558    -9977.4536     -7902.5999    
     81000   301.11202      2004.8871      28092.136      0.94090336    -10045.897     -7956.9806    
     82000   307.7362      -316.8431       28285.998      0.93445474    -9992.4372     -7857.567     
     83000   300.27564      991.5928       28019.158      0.94335402    -10072.417     -7989.3037    
     84000   297.97576      1246.596       28227.455      0.9363928     -10008.498     -7941.3392    
     85000   294.28183      427.74091      28608.936      0.92390663    -10012.522     -7970.9894    
     86000   301.64321     -804.5939       27991.659      0.94428075    -10039.66      -7947.0588    
     87000   297.983       -590.37924      28329.736      0.93301206    -9958.7714     -7891.5625    
     88000   296.27744     -173.91187      28064.715      0.94182269    -10014.081     -7958.7037    
     89000   297.88409      623.55885      28267.564      0.93506414    -10070.155     -8003.6319    
     90000   317.1645       645.06127      28378.462      0.93141005    -9966.3973     -7766.1197    
     91000   299.12105     -672.76159      28224.933      0.93647645    -9992.6283     -7917.5244    
     92000   303.00937      716.88712      28323.64       0.93321288    -9981.7644     -7879.6857    
     93000   295.88306      181.05917      28544          0.92600845    -10011.671     -7959.0296    
     94000   296.43231     -86.393443      28190.87       0.937608      -9969.795      -7913.3437    
     95000   302.90717      1283.6384      28300.059      0.93399048    -10012.211     -7910.8416    
     96000   297.47165      362.59975      28387.2        0.93112336    -10030.866     -7967.2043    
     97000   308.33139     -869.64428      28420.488      0.93003278    -10001.569     -7862.5694    
     98000   306.23305     -804.90394      28432.03       0.92965522    -10052.027     -7927.5848    
     99000   294.23217     -530.65704      28042.81       0.94255839    -10040.301     -7999.1124    
    100000   297.70014      95.079818      28229.589      0.93632199    -9985.2464     -7919.9997    
    101000   289.47226      1755.75        27854.354      0.94893551    -10067.289     -8059.122     
    102000   299.17663     -69.273271      28075.943      0.94144605    -9969.3154     -7893.8258    
    103000   300.21497      92.304473      27791.273      0.95108939    -9995.8519     -7913.159     
    104000   292.92516     -1953.7409      28176.092      0.93809976    -10057.017     -8024.8965    
    105000   303.1011      -161.0893       27958.919      0.94538652    -10069.388     -7966.6728    
    106000   298.06175      1467.3143      27825.268      0.94992744    -9957.701      -7889.9457    
    107000   292.83995     -645.44242      27926.561      0.94648194    -10069.881     -8038.3506    
    108000   304.50953     -402.69025      27844.552      0.94926955    -10053.198     -7940.7125    
    109000   296.04237      240.56071      27722.436      0.95345105    -10080.475     -8026.7288    
    110000   301.77097      382.43636      27977.081      0.94477282    -10074.972     -7981.4843    
    111000   295.61951     -192.60874      27655.088      0.95577295    -10114.122     -8063.3097    
    112000   294.53655      278.29946      28105.992      0.94043951    -10018.492     -7975.1926    
    113000   288.41558      58.718024      28250.274      0.93563643    -10064.282     -8063.4457    
    114000   305.24539      1008.6061      28159.943      0.93863775    -10050.531     -7932.9399    
    115000   304.15214     -679.51188      28322.416      0.9332532     -10042.422     -7932.4154    
    116000   287.87675     -443.44507      28121.607      0.9399173     -10068.98      -8071.8816    
    117000   297.5039       75.337192      28425.018      0.92988455    -10059.923     -7996.0382    
    118000   305.88638      122.59816      28200.058      0.93730252    -10051.884     -7929.8463    
    119000   299.68892      214.36734      28272.272      0.93490843    -10017.012     -7937.9689    
    120000   301.49743      925.52485      28064.447      0.94183167    -10074.505     -7982.9151    
Loop time of 6124.75 on 2 procs for 100000 steps with 2970 atoms

Performance: 1.411 ns/day, 17.013 hours/ns, 16.327 timesteps/s, 48.492 katom-step/s
98.5% CPU use with 2 MPI tasks x 1 OpenMP threads

MPI task timing breakdown:
Section |  min time  |  avg time  |  max time  |%varavg| %total
---------------------------------------------------------------
Pair    | 3321       | 3451.8     | 3582.7     | 222.7 | 56.36
Bond    | 226.21     | 228.67     | 231.13     |  16.3 |  3.73
Kspace  | 1331.9     | 1460.5     | 1589.1     | 336.5 | 23.85
Neigh   | 288.85     | 289.1      | 289.36     |   1.5 |  4.72
Comm    | 143.78     | 144.53     | 145.29     |   6.3 |  2.36
Output  | 0.081004   | 0.1138     | 0.14659    |   9.7 |  0.00
Modify  | 487.83     | 489.71     | 491.59     |   8.5 |  8.00
Other   |            | 60.31      |            |       |  0.98

Nlocal:           1485 ave        1514 max        1456 min
Histogram: 1 0 0 0 0 0 0 0 0 1
Nghost:          10782 ave       10899 max       10665 min
Histogram: 1 0 0 0 0 0 0 0 0 1
Neighs:         569670 ave      595327 max      544012 min
Histogram: 1 0 0 0 0 0 0 0 0 1

Total # of neighbors = 1139339
Ave neighs/atom = 383.61582
Ave special neighs/atom = 8.2592593
Neighbor list builds = 3939
Dangerous builds = 0
unfix NPTEQ
write_data data.after_equilibration.lmp
System init for write_data ...
PPPM initialization ...
  using 12-bit tables for long-range coulomb
  G vector (1/distance) = 0.29782442
  grid = 24 24 24
  stencil order = 5
  estimated absolute RMS force accuracy = 0.0017939644
  estimated relative force accuracy = 5.4024704e-06
  using double precision FFTW3
  3d grid and FFT values/proc = 18259 6912
Generated 91 of 91 mixed pair_coeff terms from geometric mixing rule

# --- 4. NPT production - this is the trajectory you analyse ----------------
print "RENEU >>> stage 4 of 4: NPT production"
RENEU >>> stage 4 of 4: NPT production
reset_timestep 0
fix NPTPROD all npt temp ${TK} ${TK} 100 iso ${PBAR} ${PBAR} 1000
fix NPTPROD all npt temp 300 ${TK} 100 iso ${PBAR} ${PBAR} 1000
fix NPTPROD all npt temp 300 300 100 iso ${PBAR} ${PBAR} 1000
fix NPTPROD all npt temp 300 300 100 iso 1 ${PBAR} 1000
fix NPTPROD all npt temp 300 300 100 iso 1 1 1000
fix DENSAVG all ave/time 10 100 1000 v_dens v_vol file density.dat

dump TRAJ all custom 500 dump.lammpstrj id mol type element q xu yu zu
dump_modify TRAJ element N C H C H H C H C C O C H O

run ${PRODRUN}
run 200000
PPPM initialization ...
  using 12-bit tables for long-range coulomb
  G vector (1/distance) = 0.29782442
  grid = 24 24 24
  stencil order = 5
  estimated absolute RMS force accuracy = 0.0017939644
  estimated relative force accuracy = 5.4024704e-06
  using double precision FFTW3
  3d grid and FFT values/proc = 18259 6912
Generated 91 of 91 mixed pair_coeff terms from geometric mixing rule
Per MPI rank memory allocation (min/avg/max) = 16.81 | 17 | 17.19 Mbytes
   Step          Temp          Press          Volume         v_dens         PotEng         TotEng    
         0   301.49743      982.01898      28064.447      0.94183167    -10074.507     -7982.9172    
      1000   290.16214      274.50129      28267.138      0.93507823    -10046.652     -8033.6985    
      2000   300.91077      91.972641      28123.396      0.93985752    -10032.615     -7945.0952    
      3000   297.90785     -1466.1154      28116.147      0.94009984    -10020.661     -7953.9733    
      4000   295.54251     -21.193962      27683.157      0.95480386    -10050.836     -8000.5577    
      5000   304.45096      668.72015      27567.71       0.95880234    -10066.995     -7954.9161    
      6000   301.57676      1500.2223      27828.455      0.94981864    -10094.249     -8002.1093    
      7000   299.92993     -1580.6733      28409.649      0.93038761    -10013.268     -7932.5525    
      8000   296.46851      565.45674      27888.215      0.94778334    -10083.865     -8027.1628    
      9000   300.81967     -632.46444      27769.474      0.95183601    -10041.931     -7955.0434    
     10000   306.94336      442.48949      27928.281      0.94642363    -10070.679     -7941.3088    
     11000   298.28349     -97.638634      27692.987      0.95446494    -10108.198     -8038.9047    
     12000   294.61617      892.4578       27746.093      0.95263811    -10025.003     -7981.1506    
     13000   305.02796     -72.978482      28044.189      0.94251201    -9978.1623     -7862.08      
     14000   294.20746     -286.82393      28282.575      0.93456784    -10042.814     -8001.7975    
     15000   297.28042     -134.9759       28195.343      0.93745925    -10043.869     -7981.5338    
     16000   300.78453      305.49532      28041.264      0.94261035    -10009.02      -7922.3757    
     17000   295.24075     -443.47925      28053.56       0.94219718    -10030.252     -7982.0668    
     18000   296.50499      708.72235      27911.267      0.94700055    -9983.4584     -7926.5029    
     19000   299.48659      215.66531      28106.65       0.94041748    -10041.789     -7964.1494    
     20000   306.50426      1124.8801      27889.58       0.94773693    -9955.6285     -7829.3047    
     21000   294.59335     -557.64843      28295.795      0.93413122    -10043.401     -7999.7075    
     22000   296.67408      205.37377      28105.892      0.94044284    -9949.5978     -7891.4692    
     23000   306.89903      502.53056      28169.174      0.93833014    -10053.707     -7924.6443    
     24000   300.10508      446.3411       28173.771      0.93817706    -10024.903     -7942.9726    
     25000   292.66924      244.48355      27758.346      0.95221757    -10042.653     -8012.3077    
     26000   304.33512      382.7724       28143.597      0.93918292    -10082.642     -7971.3661    
     27000   302.21619     -1455.1268      27868.703      0.94844693    -10118.108     -8021.532     
     28000   301.34303      429.85119      27859.421      0.94876292    -10067.561     -7977.0421    
     29000   295.93769     -621.61244      28018.134      0.94338849    -10135.442     -8082.4219    
     30000   292.10986     -724.38138      27999.988      0.94399988    -10081.559     -8055.094     
     31000   299.42876      370.67916      27928.266      0.94642415    -10071.06      -7993.8217    
     32000   298.65494      682.26485      28256.772      0.93542125    -10090.715     -8018.8451    
     33000   300.07392     -211.59096      28217.205      0.93673293    -10067.035     -7985.3204    
     34000   309.12545     -458.0929       28425.714      0.9298618     -10063.646     -7919.138     
     35000   299.55192     -1005.3419      28204.25       0.93716319    -10039.274     -7961.1813    
     36000   291.29803      1985.5978      27667.488      0.9553446     -10090.117     -8069.2837    
     37000   302.07749     -1903.2276      27845.499      0.94923725    -10091.303     -7995.6891    
     38000   296.12866      1457.8685      28012.867      0.94356586    -10072.942     -8018.5969    
     39000   297.55915      67.182843      27904.704      0.94722327    -10051.055     -7986.7867    
     40000   296.90688      126.31129      27653.466      0.95582902    -10109.713     -8049.9691    
     41000   291.25909      210.75742      28292.271      0.93424755    -10091.993     -8071.4306    
     42000   298.47155      985.2088       27951.775      0.94562816    -10134.184     -8063.5855    
     43000   300.06862      542.62985      27905.821      0.94718538    -10132.817     -8051.1397    
     44000   300.59278      1494.3254      28085.541      0.9411243     -10058.655     -7973.3406    
     45000   292.03402     -561.39826      27814.9        0.95028151    -10122.122     -8096.1831    
     46000   297.28984     -44.673704      28098.757      0.94068165    -10062.808     -8000.4078    
     47000   308.62447      1314.9039      27618.41       0.95704226    -10066.539     -7925.5066    
     48000   296.36998     -686.92107      28056.832      0.94208732    -10091.145     -8035.1265    
     49000   303.76472      1154.2312      28037.738      0.94272888    -10048.549     -7941.2304    
     50000   299.10846      480.20478      27963.215      0.94524127    -10045.809     -7970.7922    
     51000   299.12021     -73.613099      28119.723      0.9399803     -10088.073     -8012.9751    
     52000   309.26255      281.48595      28182.724      0.93787902    -10048.937     -7903.4781    
     53000   307.65367      25.555468      28136.943      0.93940501    -10081.481     -7947.1835    
     54000   309.00624     -1148.665       27644.037      0.95615503    -10043.681     -7900.0002    
     55000   294.95334      310.79486      27727.192      0.95328749    -10066.224     -8020.0325    
     56000   303.22008      2482.6922      27885.1        0.94788919    -10066.296     -7962.7554    
     57000   294.1344      -1160.7219      27483.984      0.96172322    -10132.032     -8091.5218    
     58000   298.35833      1311.0582      27600.482      0.95766389    -10054.622     -7984.8092    
     59000   300.84274      197.54068      27901.294      0.94733905    -10125.063     -8038.0152    
     60000   301.22264      926.49056      27468.105      0.96227916    -10111.94      -8022.2568    
     61000   307.78886      779.95028      27732.495      0.95310521    -10102.202     -7966.9668    
     62000   303.7369       63.807979      27885.241      0.9478844     -10037.75      -7930.6238    
     63000   296.6042       844.5311       27719.201      0.95356229    -10083.23      -8025.5861    
     64000   302.07598      338.64478      27860.318      0.94873237    -10079.512     -7983.9083    
     65000   298.9803      -150.74066      27897.692      0.94746136    -10062.281     -7988.1534    
     66000   295.6443      -1233.2862      27781.13       0.95143666    -10061.462     -8010.4772    
     67000   303.4494      -863.86795      27691.522      0.95451544    -10127.916     -8022.7845    
     68000   296.76308      401.08191      27693.037      0.95446323    -10033.054     -7974.3081    
     69000   303.10595      742.61508      27767.065      0.95191859    -10098.439     -7995.6901    
     70000   298.73463      557.73366      27623.585      0.95686298    -10039.25      -7966.8266    
     71000   297.60976     -579.67587      27610.25       0.9573251     -10134.133     -8069.5135    
     72000   301.86271      191.56018      27836.347      0.94954936    -10013.713     -7919.5894    
     73000   303.14112      638.72082      27703.421      0.95410546    -10097.513     -7994.52      
     74000   298.9751       8.5357128      28098.019      0.94070636    -10051.15      -7977.0587    
     75000   293.16536      1431.4637      27417.373      0.96405972    -10177.789     -8144.0017    
     76000   303.78652     -864.26606      28239.866      0.93598126    -10112.962     -8005.492     
     77000   296.57219     -154.63232      27296.888      0.96831496    -10135.523     -8078.1018    
     78000   300.85782     -200.82962      27390.804      0.96499486    -10115.408     -8028.2559    
     79000   293.40247     -556.7854       27525.721      0.96026496    -10107.87      -8072.4378    
     80000   295.66262     -627.60858      27985.931      0.94447404    -10074.594     -8023.4823    
     81000   296.46018     -112.27704      27797.017      0.95089289    -10101.126     -8044.4818    
     82000   305.9954      -415.49467      27744.077      0.95270731    -10130.809     -8008.0149    
     83000   296.15292     -1568.8129      27780.723      0.9514506     -10043.955     -7989.4423    
     84000   293.77342     -496.0605       27660.33       0.95559181    -10078.329     -8040.3233    
     85000   296.71494     -383.07709      28066.209      0.94177255    -10084.626     -8026.2144    
     86000   286.5221      -472.78072      27676.333      0.95503928    -10034.08      -8046.3788    
     87000   292.64194      5.2840621      27701.389      0.95417545    -10106.935     -8076.7791    
     88000   308.19262     -1349.2727      27665.598      0.95540988    -10083.629     -7945.5922    
     89000   296.49553     -117.23886      27552.034      0.95934789    -10112.423     -8055.5327    
     90000   306.02019     -648.79261      27701.594      0.95416839    -10062.811     -7939.8452    
     91000   296.53691      155.2405       27710.186      0.95387253    -10094.921     -8037.7445    
     92000   299.27785     -820.3003       27481.734      0.96180193    -10088.443     -8012.2516    
     93000   298.69369      872.7309       27310.762      0.96782307    -10074.679     -8002.5398    
     94000   302.3352      -986.29865      27473.826      0.96207877    -10095.973     -7998.5716    
     95000   299.44283      653.1694       27407.821      0.96439571    -10170.649     -8093.313     
     96000   307.0534       217.51701      27650.078      0.95594613    -10164.067     -8033.9339    
     97000   299.3317       36.946967      27601.957      0.95761272    -10155.386     -8078.8203    
     98000   299.23087     -647.63627      27528.396      0.96017164    -10123.649     -8047.7832    
     99000   302.91779     -899.08369      27956.6        0.94546494    -10045.761     -7944.3174    
    100000   298.59709     -913.94183      27758.219      0.95222194    -10117.444     -8045.9749    
    101000   299.97647     -1254.0491      27653.955      0.95581211    -10144.696     -8063.6576    
    102000   304.11615      788.65563      27538.749      0.95981068    -10117.144     -8007.3878    
    103000   300.69845      600.06212      27763.244      0.9520496     -10081.318     -7995.2708    
    104000   300.70742     -1930.5459      27923.072      0.9466002     -10120.752     -8034.6426    
    105000   305.70191     -226.01759      27466.87       0.96232245    -10125.516     -8004.7588    
    106000   299.01937     -393.15852      27686.174      0.95469981    -10128.376     -8053.9772    
    107000   306.76209     -349.10315      27628.9        0.95667889    -10038.08      -7909.9676    
    108000   284.77957      146.79243      28018.072      0.94339059    -9972.1545     -7996.5421    
    109000   314.85237      1456.9134      27656.092      0.95573826    -10009.859     -7825.6216    
    110000   300.29657     -555.20475      28103.899      0.94050956    -10075.712     -7992.453     
    111000   293.34648     -189.2061       27831.99       0.949698      -10062.439     -8027.395     
    112000   298.29438      1198.5003      27485.604      0.96166654    -10094.063     -8024.6943    
    113000   294.96838     -170.70476      27822.806      0.95001149    -10023.612     -7977.3162    
    114000   294.60627     -290.7599       27580.951      0.95834207    -10080.897     -8037.1136    
    115000   305.63986      1326.0278      27648.063      0.95601581    -10106.306     -7985.9786    
    116000   296.96653     -387.87091      27397.276      0.9647669     -10113.705     -8053.548     
    117000   292.36998     -12.43758       27598.95       0.95771707    -10038.618     -8010.3482    
    118000   293.49744      920.58819      27593.993      0.9578891     -9993.5788     -7957.4877    
    119000   303.04322     -41.903965      27732.877      0.95309209    -10112.085     -8009.7712    
    120000   300.23193      245.08824      27518.576      0.9605143     -10100.776     -8017.9653    
    121000   300.72551      630.47727      27718.753      0.95357773    -10130.679     -8044.444     
    122000   309.18509     -353.81424      27675.028      0.95508431    -10071.128     -7926.2063    
    123000   304.46513      44.67221       27847.439      0.94917115    -10131.771     -8019.5932    
    124000   305.57004     -784.81092      27587.879      0.95810138    -10095.158     -7975.3155    
    125000   302.7668       2184.7053      27503.117      0.96105419    -10103.152     -8002.7558    
    126000   295.7844       1712.7801      27692.951      0.9544662     -10095.437     -8043.4808    
    127000   311.90552     -465.88168      27970.211      0.94500487    -10047.349     -7883.5545    
    128000   300.40347     -69.213096      27679.657      0.9549246     -10139.101     -8055.1007    
    129000   306.12034     -763.4182       27598.492      0.95773297    -10200.162     -8076.5012    
    130000   307.80588     -864.9284       27607.926      0.95740567    -10096.856     -7961.5028    
    131000   304.1564      -1184.3519      27636.423      0.95641848    -10141.927     -8031.8911    
    132000   304.6632      -263.11906      27581.563      0.95832079    -10097.901     -7984.3489    
    133000   301.61666      158.18576      27896.335      0.94750744    -10077.947     -7985.5297    
    134000   300.00901     -317.30328      28136.097      0.93943327    -10086.791     -8005.5268    
    135000   302.19114     -516.8321       27852.302      0.94900542    -10066.459     -7970.057     
    136000   303.82686     -788.3611       27990.639      0.94431518    -10087.697     -7979.9476    
    137000   292.1695      -384.93473      27945.252      0.94584887    -10148.645     -8121.7661    
    138000   302.35106      1589.1809      27945.926      0.94582606    -10085.996     -7988.4845    
    139000   296.81936      1214.0778      27803.166      0.95068256    -10047.458     -7988.3216    
    140000   293.20332     -453.98934      27823.854      0.9499757     -10013.574     -7979.5229    
    141000   291.89985      146.20013      27894.462      0.94757106    -10076.716     -8051.7075    
    142000   294.4168       149.63479      27765.328      0.95197813    -10036.355     -7993.8856    
    143000   303.3287      -111.07307      28100.926      0.94060905    -10029.837     -7925.5436    
    144000   300.02289     -533.24797      28188.617      0.93768294    -10092.629     -8011.2689    
    145000   299.43878      46.657524      27663.121      0.95549543    -10094.685     -8017.3764    
    146000   290.44529      228.61053      27624.122      0.95684437    -10063.228     -8048.3106    
    147000   299.08737      572.78453      27880.104      0.94805908    -10092.475     -8017.6047    
    148000   299.87709      1335.9646      27750.426      0.95248935    -10108.684     -8028.3353    
    149000   305.25904      214.31804      27394.754      0.96485574    -10047.929     -7930.244     
    150000   291.42932     -121.77193      27828.178      0.94982809    -10051.691     -8029.9472    
    151000   299.54623      325.34851      28142.549      0.9392179     -10037.38      -7959.3266    
    152000   292.01155      92.752871      27554.429      0.95926449    -10062.009     -8036.226     
    153000   301.07775     -359.35994      27899.521      0.94739927    -10073.538     -7984.8599    
    154000   294.75532      689.66648      27677.692      0.9549924     -10111.045     -8066.2273    
    155000   299.56567      673.80177      28029.735      0.94299803    -10052.534     -7974.3457    
    156000   292.59573     -1116.207       27764.163      0.9520181     -10140.036     -8110.2005    
    157000   297.20957     -1132.1686      28086.202      0.94110214    -10043.86      -7982.017     
    158000   297.34059     -302.9927       28056.486      0.94209892    -10050.624     -7987.8718    
    159000   303.25886     -197.82746      27863.228      0.94863327    -10067.404     -7963.595     
    160000   293.99585      2079.7345      27770.266      0.95180887    -10073.166     -8033.6169    
    161000   307.21876     -1197.1822      27948.894      0.94572563    -10028.579     -7897.2985    
    162000   301.33195      527.09085      27772.427      0.95173481    -10139.029     -8048.5877    
    163000   299.02807      931.53642      27705.63       0.9540294     -10071.12      -7996.6612    
    164000   301.51153     -347.80593      27906.654      0.9471571     -10082.708     -7991.0204    
    165000   307.76378      303.8056       27891.91       0.94765776    -10070.166     -7935.1049    
    166000   310.27086     -626.52499      28376.692      0.93146816    -10061.633     -7909.1792    
    167000   307.37167      489.86368      27866.193      0.94853233    -10069.373     -7937.0318    
    168000   300.38716      582.49137      28005.743      0.9438059     -10111.532     -8027.6448    
    169000   297.52088     -1845.3323      28305.406      0.93381403    -10124.121     -8060.1178    
    170000   300.30252     -298.57125      27979.212      0.94470085    -10051.717     -7968.4166    
    171000   298.55396     -171.79264      27990.828      0.94430879    -10056.559     -7985.3891    
    172000   297.72693     -627.75002      27957.933      0.94541986    -10107.46      -8042.0279    
    173000   297.17725     -460.08128      27653.117      0.95584109    -10087.715     -8026.0963    
    174000   299.78503     -1851.9936      28327.42       0.93308834    -10142.987     -8063.2768    
    175000   306.48946     -309.9037       28018.638      0.94337152    -10128.616     -8002.3948    
    176000   302.53532     -2070.4587      28573.768      0.92504374    -10120.628     -8021.8384    
    177000   299.21133      549.94094      28405.932      0.93050934    -10064.818     -7989.0874    
    178000   297.11793     -170.36582      27954.572      0.94553354    -10101.639     -8040.4313    
    179000   299.69808     -230.80641      28129.385      0.93965742    -10066.724     -7987.6172    
    180000   305.39631     -210.19267      28270.051      0.93498188    -10046.989     -7928.3512    
    181000   296.22235      641.58411      28176.392      0.93808977    -10081.967     -8026.9724    
    182000   300.00953      1239.2802      28074.89       0.94148135    -10115.76      -8034.4927    
    183000   310.0096      -209.37657      27957.304      0.94544115    -10086.736     -7936.094     
    184000   302.48515      600.03753      27792.319      0.95105362    -10101.283     -8002.8415    
    185000   297.93056     -269.18632      28379.63       0.93137173    -10104.789     -8037.9439    
    186000   293.21818      368.65836      27880.957      0.94803007    -10077.596     -8043.4424    
    187000   308.51974     -164.81072      27729.316      0.95321446    -10157.215     -8016.9088    
    188000   293.12802      280.52946      27908.629      0.94709007    -10133.922     -8100.3934    
    189000   301.35861     -797.45643      28370.145      0.93168312    -10106.697     -8016.0698    
    190000   301.45284     -1011.6591      27993.087      0.94423259    -10018.526     -7927.2455    
    191000   301.54379      35.78709       28004.758      0.94383908    -10160.082     -8068.1705    
    192000   292.48952      733.84244      27572.843      0.95862387    -10045.711     -8016.612     
    193000   302.76159     -240.07421      28205.391      0.93712529    -10006.535     -7906.1751    
    194000   293.53636     -645.13933      27904.382      0.94723422    -10075.001     -8038.6397    
    195000   302.31914      204.74003      27981.216      0.94463317    -10082.238     -7984.948     
    196000   299.5935       248.61797      27818.76       0.95014967    -10045.759     -7967.3778    
    197000   297.29233     -46.296234      27875.121      0.94822856    -10092.779     -8030.3618    
    198000   309.10455      21.725786      27904.747      0.94722183    -10095.869     -7951.5062    
    199000   297.1111       817.85789      27874.056      0.94826477    -10143.106     -8081.9453    
    200000   301.33579      568.16939      27863.875      0.94861126    -10145.95      -8055.4819    
Loop time of 13202.7 on 2 procs for 200000 steps with 2970 atoms

Performance: 1.309 ns/day, 18.337 hours/ns, 15.148 timesteps/s, 44.991 katom-step/s
98.4% CPU use with 2 MPI tasks x 1 OpenMP threads

MPI task timing breakdown:
Section |  min time  |  avg time  |  max time  |%varavg| %total
---------------------------------------------------------------
Pair    | 7503.2     | 7650.1     | 7797       | 167.9 | 57.94
Bond    | 454.09     | 473.37     | 492.65     |  88.6 |  3.59
Kspace  | 2901.9     | 3028.1     | 3154.2     | 229.3 | 22.94
Neigh   | 587.5      | 587.59     | 587.69     |   0.4 |  4.45
Comm    | 306.99     | 308.41     | 309.83     |   8.1 |  2.34
Output  | 8.3065     | 10.989     | 13.672     |  80.9 |  0.08
Modify  | 1010.1     | 1014.2     | 1018.3     |  12.9 |  7.68
Other   |            | 130        |            |       |  0.98

Nlocal:           1485 ave        1511 max        1459 min
Histogram: 1 0 0 0 0 0 0 0 0 1
Nghost:        10924.5 ave       11036 max       10813 min
Histogram: 1 0 0 0 0 0 0 0 0 1
Neighs:         572236 ave      572762 max      571711 min
Histogram: 1 0 0 0 0 0 0 0 0 1

Total # of neighbors = 1144473
Ave neighs/atom = 385.34444
Ave special neighs/atom = 8.2592593
Neighbor list builds = 7753
Dangerous builds = 0

write_data data.final.lmp
System init for write_data ...
PPPM initialization ...
  using 12-bit tables for long-range coulomb
  G vector (1/distance) = 0.29800499
  grid = 24 24 24
  stencil order = 5
  estimated absolute RMS force accuracy = 0.00178113
  estimated relative force accuracy = 5.36382e-06
  using double precision FFTW3
  3d grid and FFT values/proc = 18259 6912
Generated 91 of 91 mixed pair_coeff terms from geometric mixing rule
print "RENEU >>> finished. trajectory = dump.lammpstrj, density log = density.dat"
RENEU >>> finished. trajectory = dump.lammpstrj, density log = density.dat
Total wall time: 5:37:11
