LAMMPS (10 Dec 2025)
OMP_NUM_THREADS environment is not set. Defaulting to 1 thread.
  using 1 OpenMP thread(s) per MPI task
# created by fftool

units real
boundary p p p

atom_style full
bond_style harmonic
angle_style harmonic
dihedral_style opls

special_bonds lj/coul 0.0 0.0 0.5

# remove hybrid if not necessary
pair_style hybrid lj/cut/coul/long 10.0 10.0
pair_modify mix geometric tail yes
read_data data.lmp
Reading data file ...
  orthogonal box = (0 0 0) to (34.88 34.88 34.88)
  1 by 1 by 2 MPI processor grid
  reading atoms ...
  2784 atoms
  scanning bonds ...
  1 = max bonds/atom
  scanning angles ...
  6 = max angles/atom
  scanning dihedrals ...
  9 = max dihedrals/atom
  orthogonal box = (0 0 0) to (34.88 34.88 34.88)
  1 by 1 by 2 MPI processor grid
  reading bonds ...
  2496 bonds
  reading angles ...
  4128 angles
  reading dihedrals ...
  5232 dihedrals
Finding 1-2 1-3 1-4 neighbors ...
  special bond factors lj:    0        0        0.5     
  special bond factors coul:  0        0        0.5     
     4 = max # of 1-2 neighbors
    12 = max # of 1-3 neighbors
    16 = max # of 1-4 neighbors
    20 = max # of special neighbors
  special bonds CPU = 0.003 seconds
  read_data CPU = 0.184 seconds
# read_restart restart1.lmp

kspace_style pppm 1.0e-5

# remove pair style if not using hybrid
pair_coeff    1    1 lj/cut/coul/long     0.170000     3.250000  # N4 N4
pair_coeff    2    2 lj/cut/coul/long     0.065999     3.500000  # C1 C1
pair_coeff    3    3 lj/cut/coul/long     0.065999     3.500000  # C1C C1C
pair_coeff    4    4 lj/cut/coul/long     0.030000     2.500000  # H1 H1
pair_coeff    5    5 lj/cut/coul/long     0.065999     3.500000  # CTOC CTOC
pair_coeff    6    6 lj/cut/coul/long     0.170000     3.120000  # OH OH
pair_coeff    7    7 lj/cut/coul/long     0.030000     2.500000  # H1O H1O
pair_coeff    8    8 lj/cut/coul/long     0.000000     1.000000  # HO HO
pair_coeff    9    9 lj/cut/coul/long     0.105000     3.750000  # CO2 CO2
pair_coeff   10   10 lj/cut/coul/long     0.065999     3.500000  # C2C C2C
pair_coeff   11   11 lj/cut/coul/long     0.210000     2.960000  # O2 O2
pair_coeff   12   12 lj/cut/coul/long     0.065999     3.500000  # CS CS
pair_coeff   13   13 lj/cut/coul/long     0.030000     2.500000  # HC HC
pair_coeff   14   14 lj/cut/coul/long     0.065999     3.500000  # CT CT
pair_coeff   15   15 lj/cut/coul/long     0.000000     1.000000  # Hw Hw
pair_coeff   16   16 lj/cut/coul/long     0.155425     3.165500  # Ow Ow

# minimize 1.0e-4 1.0e-6 100 1000
# reset_timestep 0

fix SHAKE all shake 0.0001 20 0 b 2 5 8
Finding SHAKE clusters ...
      48 = # of size 2 clusters
     576 = # of size 3 clusters
     192 = # of size 4 clusters
       0 = # of frozen angles
  find clusters CPU = 0.003 seconds

neighbor 2.0 bin
neigh_modify delay 0 every 1 check yes








#fix VAVG all ave/time 10 1000 50000 v_vinst

# ---------------------------------------------------------------------------
# RENEU 2026 simulation protocol (stage2 M7 choline octanoate)
# 1 minimise  2 NVT relaxation  3 NPT equilibration  4 NPT production
# ---------------------------------------------------------------------------
timestep 1.0

variable TK      equal 300.0
variable PBAR    equal 1.0
variable NVTRUN  equal 20000
variable EQRUN   equal 100000
variable PRODRUN equal 200000

variable dens equal density
variable vol  equal vol

thermo 1000
thermo_style custom step temp press vol v_dens pe etotal

# --- 1. energy minimisation ------------------------------------------------
print "RENEU >>> stage 1 of 4: energy minimisation"
RENEU >>> stage 1 of 4: energy minimisation
minimize 1.0e-4 1.0e-6 10000 100000
PPPM initialization ...
  using 12-bit tables for long-range coulomb
  G vector (1/distance) = 0.28719974
  grid = 24 24 24
  stencil order = 5
  estimated absolute RMS force accuracy = 0.0024983449
  estimated relative force accuracy = 7.5236915e-06
  using double precision FFTW3
  3d grid and FFT values/proc = 18259 6912
Generated 120 of 120 mixed pair_coeff terms from geometric mixing rule
WARNING: Using fix shake with minimization.
  Substituting constraints with harmonic restraint forces using kbond=1987206.7 (src/RIGID/fix_shake.cpp:397)
Neighbor list info ...
  update: every = 1 steps, delay = 0 steps, check = yes
  max neighbors/atom: 2000, page size: 100000
  master list distance cutoff = 12
  ghost atom cutoff = 12
  binsize = 6, bins = 6 6 6
  1 neighbor lists, perpetual/occasional/extra = 1 0 0
  (1) pair lj/cut/coul/long, perpetual
      attributes: half, newton on
      pair build: half/bin/newton
      stencil: half/bin/3d
      bin: standard
Per MPI rank memory allocation (min/avg/max) = 17.23 | 17.24 | 17.24 Mbytes
   Step          Temp          Press          Volume         v_dens         PotEng         TotEng    
         0   0             -9931516.2      42435.51       0.59999662     175887.61      175887.61    
        23   0             -4926.5827      42435.51       0.59999662     652.51429      652.51429    
Loop time of 4.58826 on 2 procs for 23 steps with 2784 atoms

98.8% CPU use with 2 MPI tasks x 1 OpenMP threads

Minimization stats:
  Stopping criterion = energy tolerance
  Energy initial, next-to-last, final = 
       175887.61162316   652.523205550363   652.514292137603
  Force two-norm initial, final = 1586745.1 3438.9683
  Force max component initial, final = 121771.25 673.72833
  Final line search alpha, max atom move = 1.847196e-05 0.012445083
  Iterations, force evaluations = 23 105

MPI task timing breakdown:
Section |  min time  |  avg time  |  max time  |%varavg| %total
---------------------------------------------------------------
Pair    | 2.624      | 2.8148     | 3.0056     |  11.4 | 61.35
Bond    | 0.18028    | 0.18411    | 0.18795    |   0.9 |  4.01
Kspace  | 1.2325     | 1.4243     | 1.6161     |  16.1 | 31.04
Neigh   | 0          | 0          | 0          |   0.0 |  0.00
Comm    | 0.077892   | 0.079604   | 0.081316   |   0.6 |  1.73
Output  | 0          | 0          | 0          |   0.0 |  0.00
Modify  | 0.033737   | 0.034651   | 0.035564   |   0.5 |  0.76
Other   |            | 0.05074    |            |       |  1.11

Nlocal:           1392 ave        1409 max        1375 min
Histogram: 1 0 0 0 0 0 0 0 0 1
Nghost:           7493 ave        7505 max        7481 min
Histogram: 1 0 0 0 0 0 0 0 0 1
Neighs:         364136 ave      389826 max      338446 min
Histogram: 1 0 0 0 0 0 0 0 0 1

Total # of neighbors = 728272
Ave neighs/atom = 261.59195
Ave special neighs/atom = 8.4827586
Neighbor list builds = 0
Dangerous builds = 0
reset_timestep 0

# --- 2. NVT relaxation (lets the packed box relax before the barostat) ------
print "RENEU >>> stage 2 of 4: NVT relaxation"
RENEU >>> stage 2 of 4: NVT relaxation
velocity all create ${TK} 12345 mom yes rot yes dist gaussian
velocity all create 300 12345 mom yes rot yes dist gaussian
fix NVTRELAX all nvt temp ${TK} ${TK} 100
fix NVTRELAX all nvt temp 300 ${TK} 100
fix NVTRELAX all nvt temp 300 300 100
run ${NVTRUN}
run 20000
PPPM initialization ...
  using 12-bit tables for long-range coulomb
  G vector (1/distance) = 0.28719974
  grid = 24 24 24
  stencil order = 5
  estimated absolute RMS force accuracy = 0.0024983449
  estimated relative force accuracy = 7.5236915e-06
  using double precision FFTW3
  3d grid and FFT values/proc = 18259 6912
Generated 120 of 120 mixed pair_coeff terms from geometric mixing rule
Per MPI rank memory allocation (min/avg/max) = 16.11 | 16.11 | 16.11 Mbytes
   Step          Temp          Press          Volume         v_dens         PotEng         TotEng    
         0   300            14633.086      42435.51       0.59999662     651.58638      2610.8728    
      1000   303.16074     -30.900911      42435.51       0.59999662    -4621.5863     -2641.6572    
      2000   296.45553     -1123.3524      42435.51       0.59999662    -4920.0187     -2983.881     
      3000   304.61125     -257.47122      42435.51       0.59999662    -5188.3511     -3198.9487    
      4000   307.81674     -902.78881      42435.51       0.59999662    -5263.1179     -3252.7807    
      5000   302.23487     -255.27143      42435.51       0.59999662    -5324.297      -3350.4147    
      6000   304.1008      -796.13276      42435.51       0.59999662    -5548.961      -3562.8924    
      7000   301.56257     -1567.5509      42435.51       0.59999662    -5571.4423     -3601.9508    
      8000   302.84601     -1468.8073      42435.51       0.59999662    -5621.3391     -3643.4655    
      9000   301.53141     -1444.6057      42435.51       0.59999662    -5662.3011     -3693.0131    
     10000   298.40554     -225.80403      42435.51       0.59999662    -5641.7941     -3692.921     
     11000   303.42795     -85.100467      42435.51       0.59999662    -5719.0264     -3737.3521    
     12000   304.77922     -1292.0463      42435.51       0.59999662    -5788.0965     -3797.5972    
     13000   295.81432     -688.0999       42435.51       0.59999662    -5764.7343     -3832.7843    
     14000   300.37713     -1224.9733      42435.51       0.59999662    -5751.4122     -3789.6627    
     15000   293.2346      -512.6842       42435.51       0.59999662    -5802.264      -3887.162     
     16000   294.09262     -512.03052      42435.51       0.59999662    -5827.4473     -3906.7417    
     17000   301.51775     -651.19842      42435.51       0.59999662    -5794.3678     -3825.169     
     18000   305.18169     -402.70383      42435.51       0.59999662    -5900.1588     -3907.031     
     19000   295.78235     -492.87969      42435.51       0.59999662    -5875.8475     -3944.1063    
     20000   301.71782     -360.19561      42435.51       0.59999662    -5859.7273     -3889.2219    
Loop time of 751.458 on 2 procs for 20000 steps with 2784 atoms

Performance: 2.300 ns/day, 10.437 hours/ns, 26.615 timesteps/s, 74.096 katom-step/s
98.1% CPU use with 2 MPI tasks x 1 OpenMP threads

MPI task timing breakdown:
Section |  min time  |  avg time  |  max time  |%varavg| %total
---------------------------------------------------------------
Pair    | 376.17     | 386.38     | 396.58     |  51.9 | 51.42
Bond    | 37.532     | 38.619     | 39.707     |  17.5 |  5.14
Kspace  | 229.66     | 239.55     | 249.45     |  63.9 | 31.88
Neigh   | 40.379     | 40.381     | 40.382     |   0.0 |  5.37
Comm    | 23.351     | 24.62      | 25.888     |  25.6 |  3.28
Output  | 0.0019145  | 0.0058461  | 0.0097777  |   5.1 |  0.00
Modify  | 18.591     | 18.748     | 18.905     |   3.6 |  2.49
Other   |            | 3.154      |            |       |  0.42

Nlocal:           1392 ave        1479 max        1305 min
Histogram: 1 0 0 0 0 0 0 0 0 1
Nghost:         7467.5 ave        7763 max        7172 min
Histogram: 1 0 0 0 0 0 0 0 0 1
Neighs:         387416 ave      388239 max      386592 min
Histogram: 1 0 0 0 0 0 0 0 0 1

Total # of neighbors = 774831
Ave neighs/atom = 278.31573
Ave special neighs/atom = 8.4827586
Neighbor list builds = 937
Dangerous builds = 0
unfix NVTRELAX

# --- 3. NPT equilibration (this is where the density finds its own value) ---
# restart files are written every 25000 steps. If the run stops for any
# reason you can pick up from the last one instead of starting over:
#     read_restart rst_a.lmp      (or rst_b.lmp, whichever is newer)
print "RENEU >>> stage 3 of 4: NPT equilibration - watch the density column"
RENEU >>> stage 3 of 4: NPT equilibration - watch the density column
restart 25000 rst_a.lmp rst_b.lmp
fix NPTEQ all npt temp ${TK} ${TK} 100 iso ${PBAR} ${PBAR} 1000
fix NPTEQ all npt temp 300 ${TK} 100 iso ${PBAR} ${PBAR} 1000
fix NPTEQ all npt temp 300 300 100 iso ${PBAR} ${PBAR} 1000
fix NPTEQ all npt temp 300 300 100 iso 1 ${PBAR} 1000
fix NPTEQ all npt temp 300 300 100 iso 1 1 1000
run ${EQRUN}
run 100000
PPPM initialization ...
  using 12-bit tables for long-range coulomb
  G vector (1/distance) = 0.28719974
  grid = 24 24 24
  stencil order = 5
  estimated absolute RMS force accuracy = 0.0024983449
  estimated relative force accuracy = 7.5236915e-06
  using double precision FFTW3
  3d grid and FFT values/proc = 18259 6912
Generated 120 of 120 mixed pair_coeff terms from geometric mixing rule
Per MPI rank memory allocation (min/avg/max) = 16.5 | 16.5 | 16.5 Mbytes
   Step          Temp          Press          Volume         v_dens         PotEng         TotEng    
     20000   301.71782     -360.13571      42435.51       0.59999662    -5859.7273     -3889.2219    
     21000   296.01778     -884.23964      39182.324      0.64981248    -5984.8794     -4051.6006    
     22000   300.89324      484.46687      36714.763      0.6934857     -6031.9036     -4066.7834    
     23000   296.72871      18.939045      35524.273      0.7167258     -6026.9378     -4089.016     
     24000   302.79714      399.85023      34363.715      0.74093162    -6030.6154     -4053.0609    
     25000   303.63441      220.1059       33182.744      0.76730131    -6024.6979     -4041.6753    
     26000   303.48061      213.06181      32657.335      0.77964608    -6095.9268     -4113.9087    
     27000   299.54975      229.82114      31778.619      0.8012042     -6193.8147     -4237.4688    
     28000   296.57112      81.416393      31154.01       0.81726759    -6056.373      -4119.4804    
     29000   298.26506     -611.01743      31191.928      0.8162741     -6188.8296     -4240.874     
     30000   302.10105     -564.41366      31116.022      0.81826537    -6049.9746     -4076.9663    
     31000   297.58124     -344.77185      30814.534      0.82627124    -6154.8048     -4211.3152    
     32000   300.21301      1053.1667      30242.176      0.8419091     -6176.1906     -4215.513     
     33000   310.56402      781.67119      30105.176      0.84574039    -6093.7811     -4065.5015    
     34000   302.08432      581.65719      30077.537      0.84651756    -6192.5211     -4219.6221    
     35000   282.14048      162.75235      29251.572      0.87042033    -6180.087      -4337.4402    
     36000   285.77382      161.04639      28795.746      0.88419877    -6164.8431     -4298.4672    
     37000   307.47203      901.54319      28587.306      0.89064576    -6251.1261     -4243.0402    
     38000   301.88506      1322.8069      28424.759      0.89573892    -6266.8054     -4295.2078    
     39000   304.03532      3088.3697      28877.603      0.88169239    -6255.0358     -4269.3949    
     40000   305.56432     -242.73133      28310.335      0.89935928    -6249.771      -4254.1442    
     41000   295.11642      271.25587      27952.765      0.91086383    -6243.9276     -4316.5355    
     42000   300.62665      514.91564      27366.48       0.93037771    -6292.3611     -4328.982     
     43000   292.78569     -1139.4009      27678.603      0.91988612    -6382.5232     -4470.3531    
     44000   296.90516     -71.844049      27478.562      0.92658279    -6300.4301     -4361.3559    
     45000   300.26093     -1375.3974      27182.647      0.93666974    -6317.0304     -4356.0398    
     46000   303.53797     -139.64936      27026.417      0.94208428    -6368.2534     -4385.8606    
     47000   304.56146     -1315.2074      27367.896      0.93032956    -6266.5185     -4277.4414    
     48000   294.18723      193.39886      27489.693      0.92620761    -6333.7652     -4412.4417    
     49000   293.17419     -394.92725      27476.206      0.92666223    -6327.6772     -4412.9698    
     50000   302.28421     -1208.9973      27285.742      0.93313066    -6323.0896     -4348.8851    
     51000   301.47878      346.0676       27135.966      0.93828104    -6329.8935     -4360.9491    
     52000   305.21931     -32.078366      27079.918      0.94022305    -6385.7645     -4392.391     
     53000   302.9219       25.77254       27077.337      0.94031267    -6334.7235     -4356.3543    
     54000   301.44032      495.94402      26564.89       0.95845167    -6343.5243     -4374.8312    
     55000   303.64423     -56.56968       27020.939      0.94227527    -6338.1119     -4355.0252    
     56000   300.33341      567.20981      26685.491      0.95412008    -6301.9074     -4340.4435    
     57000   299.89836      795.39817      26650.501      0.95537275    -6330.4485     -4371.8258    
     58000   308.3885      -1236.656       26975.67       0.94385657    -6326.9875     -4312.9161    
     59000   304.73154     -1582.947       27063.175      0.94080472    -6351.4827     -4361.2948    
     60000   295.76797      37.404526      27035.751      0.94175904    -6367.6449     -4435.9976    
     61000   310.2215      -330.92642      26571.301      0.95822039    -6360.0195     -4333.9769    
     62000   289.81579      978.31797      26884.551      0.94705552    -6377.7493     -4484.9755    
     63000   297.35309      646.96218      26476.863      0.96163821    -6345.1236     -4403.124     
     64000   306.70775     -270.54731      26750.382      0.95180557    -6328.4795     -4325.3851    
     65000   292.10771      1216.8048      26461.432      0.96219898    -6366.8711     -4459.1288    
     66000   295.68371     -414.0366       26871.874      0.94750233    -6362.4128     -4431.3158    
     67000   299.0016      -1076.7421      26545.957      0.95913524    -6356.8512     -4404.0853    
     68000   296.8056      -172.43989      26329.423      0.96702321    -6368.8782     -4430.4542    
     69000   302.3489      -372.98063      26455.767      0.96240501    -6406.6154     -4431.9884    
     70000   293.33908     -166.1685       26987.967      0.94342648    -6414.578      -4498.7937    
     71000   295.26339      582.47154      26541.281      0.95930422    -6357.6666     -4429.3148    
     72000   301.59888     -305.10012      26751.318      0.95177229    -6373.109      -4403.3803    
     73000   298.13517     -1062.4952      26684.471      0.95415657    -6372.2066     -4425.0992    
     74000   299.77377     -990.88377      26461.163      0.96220878    -6412.4349     -4454.626     
     75000   306.13273      1521.132       26252.701      0.96984928    -6392.4497     -4393.1106    
     76000   299.74915      1680.3617      26190.934      0.97213649    -6417.4435     -4459.7953    
     77000   293.89388     -1497.8976      26149.172      0.97368905    -6395.0485     -4475.6408    
     78000   305.9563       351.93676      26380.172      0.9651629     -6396.5129     -4398.3261    
     79000   292.98901     -255.17663      26116.566      0.97490471    -6427.0467     -4513.5488    
     80000   298.78135      980.5225       26171.612      0.9728542     -6463.7477     -4512.4202    
     81000   305.96925      2406.6804      25884.831      0.98363258    -6411.2962     -4413.0248    
     82000   302.24805      489.84208      26122.68       0.97467653    -6413.7075     -4439.7391    
     83000   300.20748      368.6161       26223.464      0.97093059    -6440.0094     -4479.3679    
     84000   301.48272     -552.50468      25937.893      0.98162032    -6452.1982     -4483.2282    
     85000   297.65962      43.583891      26281.353      0.96879195    -6378.6291     -4434.6275    
     86000   293.57508      2262.404       25762.011      0.98832204    -6471.3046     -4553.979     
     87000   295.50024      387.25705      26201.348      0.9717501     -6402.1043     -4472.2056    
     88000   301.58139      121.85209      26137.221      0.97413428    -6448.0061     -4478.3917    
     89000   305.57841      1115.015       25700.401      0.99069125    -6438.7576     -4443.0387    
     90000   297.85469     -918.07913      25564.838      0.99594461    -6476.8797     -4531.6042    
     91000   298.22031      573.75498      25713.949      0.9901693     -6488.5235     -4540.8601    
     92000   304.32749     -597.5355       25945.557      0.98133038    -6474.2627     -4486.7136    
     93000   299.25652     -170.59997      25549.831      0.99652958    -6487.5335     -4533.1028    
     94000   301.62516     -1191.1635      25813.598      0.98634693    -6537.7205     -4567.8203    
     95000   299.5284      -599.33545      25880.392      0.98380127    -6449.6594     -4493.4529    
     96000   301.48087     -240.50024      26056.77       0.97714193    -6455.4462     -4486.4883    
     97000   309.28646     -588.45101      25786.319      0.98739036    -6460.1259     -4440.19      
     98000   294.48002     -392.84429      25879.659      0.98382916    -6440.5393     -4517.3036    
     99000   315.5757      -851.97833      25600.8        0.99454559    -6411.1029     -4350.0923    
    100000   304.14957     -1278.2951      25755.872      0.98855761    -6483.5254     -4497.1383    
    101000   299.73562     -529.85515      26014.757      0.97872001    -6482.0017     -4524.4419    
    102000   303.36959      1290.8705      25946.88       0.98128032    -6394.9191     -4413.626     
    103000   304.52453     -1305.9287      25569.647      0.99575729    -6461.3857     -4472.5497    
    104000   303.17555      755.21666      25442.419      1.0007367     -6503.7297     -4523.7039    
    105000   291.5379      -299.59874      25576.267      0.99549959    -6465.4165     -4561.3957    
    106000   300.47905      499.99241      25413.999      1.0018558     -6583.7914     -4621.3763    
    107000   298.22171      747.61244      25377.896      1.0032811     -6487.3918     -4539.7192    
    108000   295.12253      672.31514      25713.275      0.99019524    -6454.1574     -4526.7254    
    109000   306.57601     -105.69804      25387.852      1.0028876     -6452.0855     -4449.8514    
    110000   306.47187      1244.0987      25472.154      0.99956851    -6483.43       -4481.876     
    111000   295.35275      1589.6133      25556.286      0.9962779     -6469.71       -4540.7745    
    112000   294.60283      180.10602      25734.5        0.98937856    -6523.382      -4599.3442    
    113000   302.62726      182.92737      25753.055      0.98866573    -6474.975      -4498.53      
    114000   301.96449     -823.01913      25992.352      0.97956365    -6427.8115     -4455.6951    
    115000   290.65745     -632.66019      25735.682      0.98933312    -6429.1981     -4530.9274    
    116000   302.38107      1194.6288      25262.716      1.0078553     -6513.0619     -4538.2248    
    117000   301.0081       173.4517       25391.571      1.0027407     -6558.0861     -4592.2158    
    118000   295.6829      -1746.0646      25679.057      0.99151472    -6413.1847     -4482.093     
    119000   301.4928      -126.12932      25477.12       0.99937365    -6484.6892     -4515.6534    
    120000   296.30846      1816.5291      25064.785      1.0158141     -6491.8149     -4556.6378    
Loop time of 5027.94 on 2 procs for 100000 steps with 2784 atoms

Performance: 1.718 ns/day, 13.967 hours/ns, 19.889 timesteps/s, 55.371 katom-step/s
98.1% CPU use with 2 MPI tasks x 1 OpenMP threads

MPI task timing breakdown:
Section |  min time  |  avg time  |  max time  |%varavg| %total
---------------------------------------------------------------
Pair    | 2660.6     | 2665.1     | 2669.6     |   8.7 | 53.01
Bond    | 219.85     | 221.82     | 223.78     |  13.2 |  4.41
Kspace  | 1309.3     | 1311.5     | 1313.7     |   6.1 | 26.08
Neigh   | 230.08     | 230.18     | 230.29     |   0.7 |  4.58
Comm    | 135.18     | 135.93     | 136.68     |   6.4 |  2.70
Output  | 2.3105     | 2.3469     | 2.3833     |   2.4 |  0.05
Modify  | 405.01     | 406.75     | 408.49     |   8.6 |  8.09
Other   |            | 54.32      |            |       |  1.08

Nlocal:           1392 ave        1400 max        1384 min
Histogram: 1 0 0 0 0 0 0 0 0 1
Nghost:          10740 ave       10750 max       10730 min
Histogram: 1 0 0 0 0 0 0 0 0 1
Neighs:         559888 ave      564766 max      555009 min
Histogram: 1 0 0 0 0 0 0 0 0 1

Total # of neighbors = 1119775
Ave neighs/atom = 402.21803
Ave special neighs/atom = 8.4827586
Neighbor list builds = 3794
Dangerous builds = 0
unfix NPTEQ
write_data data.after_equilibration.lmp
System init for write_data ...
PPPM initialization ...
  using 12-bit tables for long-range coulomb
  G vector (1/distance) = 0.28665829
  grid = 20 20 20
  stencil order = 5
  estimated absolute RMS force accuracy = 0.0033526377
  estimated relative force accuracy = 1.0096369e-05
  using double precision FFTW3
  3d grid and FFT values/proc = 12393 4000
Generated 120 of 120 mixed pair_coeff terms from geometric mixing rule

# --- 4. NPT production - this is the trajectory you analyse ----------------
print "RENEU >>> stage 4 of 4: NPT production"
RENEU >>> stage 4 of 4: NPT production
reset_timestep 0
fix NPTPROD all npt temp ${TK} ${TK} 100 iso ${PBAR} ${PBAR} 1000
fix NPTPROD all npt temp 300 ${TK} 100 iso ${PBAR} ${PBAR} 1000
fix NPTPROD all npt temp 300 300 100 iso ${PBAR} ${PBAR} 1000
fix NPTPROD all npt temp 300 300 100 iso 1 ${PBAR} 1000
fix NPTPROD all npt temp 300 300 100 iso 1 1 1000
fix DENSAVG all ave/time 10 100 1000 v_dens v_vol file density.dat

dump TRAJ all custom 500 dump.lammpstrj id mol type element q xu yu zu
dump_modify TRAJ element N C C H C O H H C C O C H C H O

run ${PRODRUN}
run 200000
PPPM initialization ...
  using 12-bit tables for long-range coulomb
  G vector (1/distance) = 0.28665829
  grid = 20 20 20
  stencil order = 5
  estimated absolute RMS force accuracy = 0.0033526377
  estimated relative force accuracy = 1.0096369e-05
  using double precision FFTW3
  3d grid and FFT values/proc = 12393 4000
Generated 120 of 120 mixed pair_coeff terms from geometric mixing rule
Per MPI rank memory allocation (min/avg/max) = 16.54 | 16.54 | 16.54 Mbytes
   Step          Temp          Press          Volume         v_dens         PotEng         TotEng    
         0   296.30846      1855.2554      25064.785      1.0158141     -6491.8074     -4556.6303    
      1000   308.03444     -324.455        25387.742      1.002892      -6512.5414     -4500.7825    
      2000   294.40833     -89.746311      25514.09       0.99792556    -6498.2804     -4575.5129    
      3000   299.06158      649.8583       25456.125      1.0001979     -6524.0848     -4570.9271    
      4000   306.90859      1495.327       25179.962      1.0111677     -6533.1564     -4528.7503    
      5000   301.62095      739.11082      25342.762      1.004672      -6536.1051     -4566.2323    
      6000   302.78722      564.76444      25408.739      1.0020632     -6493.6652     -4516.1755    
      7000   304.61558      359.40517      25790.405      0.98723394    -6451.1939     -4461.7633    
      8000   301.46368     -213.96973      25682.014      0.99140056    -6473.6406     -4504.795     
      9000   290.49185      733.58379      25619.565      0.99381715    -6527.4202     -4630.231     
     10000   299.58538      159.78101      25680.494      0.99145923    -6449.3652     -4492.7866    
     11000   292.10901      378.81784      25534.467      0.99712922    -6467.6897     -4559.939     
     12000   299.53809      1279.647       25425.073      1.0014195     -6407.362      -4451.0923    
     13000   299.51861      666.60912      25573.792      0.99559593    -6486.3682     -4530.2257    
     14000   297.63252     -24.492853      25491.731      0.99880086    -6423.6082     -4479.7836    
     15000   299.10002     -463.40902      25761.039      0.98835932    -6460.2706     -4506.8619    
     16000   300.90795     -104.93391      25761.813      0.98832963    -6408.3545     -4443.1383    
     17000   295.81011      532.60979      25469.795      0.99966106    -6467.6888     -4535.7663    
     18000   297.78613     -357.81499      25837.623      0.98542978    -6392.928      -4448.1003    
     19000   300.44118      595.43325      25607.766      0.99427504    -6491.6222     -4529.4544    
     20000   297.99683     -247.65721      25836.176      0.98548498    -6427.8251     -4481.6212    
     21000   301.19439      1021.6757      25367.139      1.0037065     -6558.9733     -4591.8863    
     22000   304.75786      413.80519      25621.029      0.99376036    -6545.9869     -4555.6271    
     23000   304.65128     -740.41523      25687.508      0.99118851    -6451.6955     -4462.0317    
     24000   296.88106     -149.23564      25519.873      0.99769942    -6465.8769     -4526.9601    
     25000   289.63677     -461.28548      25692.416      0.99099916    -6517.893      -4626.2883    
     26000   302.07845     -1591.9314      25705.812      0.99048275    -6411.3326     -4438.4719    
     27000   298.64521      464.91654      25508.718      0.99813574    -6501.1041     -4550.6658    
     28000   303.24136      2342.8271      25524.895      0.99750315    -6415.9525     -4435.4969    
     29000   295.59055     -328.7552       25425.235      1.0014131     -6467.5175     -4537.0289    
     30000   308.4625      -494.93796      25756.032      0.98855143    -6459.2857     -4444.7311    
     31000   297.28562      985.58567      25534.071      0.99714469    -6494.2953     -4552.7363    
     32000   298.70151     -392.1235       25448.36       1.0005031     -6449.8111     -4499.0051    
     33000   296.21647      172.49898      25395.026      1.0026043     -6500.9229     -4566.3465    
     34000   303.01549      197.06075      25496.072      0.9986308     -6488.5536     -4509.5731    
     35000   302.28845      3.3699095      25431.691      1.0011588     -6541.5951     -4567.3629    
     36000   296.68539      590.32352      25396.073      1.002563      -6499.8756     -4562.2367    
     37000   304.06814     -120.37372      25448.39       1.0005019     -6542.4555     -4556.6002    
     38000   295.38114     -1135.3553      25324.172      1.0054095     -6535.7555     -4606.6346    
     39000   309.31549     -671.45679      25382.361      1.0031046     -6477.237      -4457.1115    
     40000   299.38407     -1293.8987      25376.661      1.0033299     -6519.1039     -4563.8401    
     41000   301.193       -1627.133       25568.794      0.99579051    -6521.5517     -4554.4738    
     42000   304.66341      1378.1509      25282.192      1.0070789     -6505.4901     -4515.7471    
     43000   296.01603     -516.67013      25225.5        1.0093423     -6489.6334     -4556.3661    
     44000   301.27557      278.49334      25627.205      0.99352087    -6408.6034     -4440.9862    
     45000   294.53299      990.20477      25792.859      0.98713998    -6413.8811     -4490.2994    
     46000   298.21067      453.50417      25499.928      0.9984798     -6417.9646     -4470.3642    
     47000   299.28954     -793.17644      25581.103      0.99531137    -6391.0077     -4436.3613    
     48000   294.54853      1048.911       25833.157      0.98560012    -6485.7875     -4562.1044    
     49000   296.87114     -296.44644      25678.27       0.99154509    -6448.9799     -4510.1279    
     50000   299.94657      509.16686      25338.457      1.0048427     -6529.4413     -4570.5037    
     51000   310.87512     -427.1047       25335.303      1.0049678     -6430.6422     -4400.3308    
     52000   310.97785     -1058.505       25316.358      1.0057198     -6578.8079     -4547.8256    
     53000   300.68423     -80.412383      25497.914      0.99855866    -6441.7858     -4478.0306    
     54000   302.42778      637.07988      25286.953      1.0068893     -6532.5989     -4557.4568    
     55000   296.37466     -682.22799      25547.819      0.99660809    -6529.9293     -4594.3199    
     56000   313.44772      97.679743      25218.62       1.0096176     -6531.3726     -4484.2597    
     57000   296.18254      1442.921       25389.72       1.0028138     -6516.0236     -4581.6688    
     58000   295.31378      395.15139      25056.102      1.0161662     -6546.0139     -4617.3329    
     59000   297.11177      772.03312      25247.808      1.0084504     -6473.8719     -4533.4484    
     60000   292.37941      17.929348      25304.547      1.0061892     -6518.541      -4609.0242    
     61000   303.15997      708.83755      25193.051      1.0106423     -6516.3475     -4536.4235    
     62000   299.29521      626.09887      25447.776      1.0005261     -6524.8483     -4570.1648    
     63000   309.78118      1001.3882      25260.884      1.0079284     -6539.371      -4516.2042    
     64000   298.87982     -1141.9968      25195.961      1.0105256     -6541.8879     -4589.9173    
     65000   300.02642     -296.36502      25280.214      1.0071577     -6484.2929     -4524.8339    
     66000   297.14503      150.07649      25320.112      1.0055707     -6504.9765     -4564.3357    
     67000   298.78417     -857.0046       25435.294      1.0010171     -6501.8462     -4550.5003    
     68000   304.36465      790.76162      25238.032      1.0088411     -6472.5916     -4484.7998    
     69000   294.2169       1527.0285      25004.035      1.0182822     -6565.2071     -4643.6898    
     70000   296.79319      942.73148      25061.76       1.0159367     -6466.4571     -4528.1142    
     71000   295.62005     -1024.2633      25248.689      1.0084152     -6510.0975     -4579.4163    
     72000   295.23806      146.8724       25102.176      1.014301      -6520.2768     -4592.0903    
     73000   297.23092     -496.95418      25287.885      1.0068522     -6514.6405     -4573.4388    
     74000   302.1166       536.82549      25191.162      1.0107181     -6474.3444     -4501.2345    
     75000   300.69439      111.84215      25211.82       1.0098899     -6491.3443     -4527.5229    
     76000   299.97731     -185.18491      25024.341      1.0174559     -6608.2388     -4649.1006    
     77000   297.22524      206.89304      25185.034      1.010964      -6509.6229     -4568.4583    
     78000   300.22073      691.94569      25035.015      1.0170221     -6519.6997     -4558.9717    
     79000   294.90632      518.33115      25006.011      1.0182017     -6529.9412     -4603.9214    
     80000   295.41937      576.76573      25154.476      1.0121922     -6498.1744     -4568.8039    
     81000   294.39839      1054.5568      25132.836      1.0130637     -6540.3686     -4617.6659    
     82000   307.95786     -1154.274       25494.54       0.99869081    -6524.1071     -4512.8482    
     83000   292.655        311.57819      25336.939      1.0049029     -6426.3837     -4515.0672    
     84000   291.16409     -1162.4255      25493.117      0.99874657    -6495.9762     -4594.3967    
     85000   307.1742      -178.19736      25248.465      1.0084242     -6530.3463     -4524.2055    
     86000   299.85159      835.86878      25266.839      1.0076909     -6521.4929     -4563.1757    
     87000   294.19053      369.93767      24942.755      1.0207839     -6524.1681     -4602.823     
     88000   299.82495      1492.0561      25183.169      1.0110389     -6433.2261     -4475.0829    
     89000   302.88789      77.955577      25200.215      1.010355      -6543.7407     -4565.5935    
     90000   298.40798     -842.10971      25165.738      1.0117392     -6609.1279     -4660.2389    
     91000   308.34779      328.20627      25262.41       1.0078675     -6524.5157     -4510.7102    
     92000   298.70261     -1709.9221      25168.719      1.0116193     -6526.1424     -4575.3291    
     93000   294.27582     -1230.0854      25125.799      1.0133474     -6596.1933     -4674.2912    
     94000   296.3516       617.09067      24952.723      1.0203761     -6493.3074     -4557.8485    
     95000   299.95205     -915.15497      25151.346      1.0123181     -6548.2879     -4589.3147    
     96000   304.27887      1325.1992      24827.951      1.025504      -6575.7466     -4588.515     
     97000   301.77873     -538.00534      25241.957      1.0086842     -6540.2541     -4569.3509    
     98000   297.66876     -1200.8169      25167.28       1.0116772     -6530.9446     -4586.8833    
     99000   293.6839      -510.5005       25051.306      1.0163607     -6492.4667     -4574.4304    
    100000   295.86586      796.48316      24954.63       1.0202981     -6592.7183     -4660.4317    
    101000   305.59432      253.55591      24927.205      1.0214207     -6560.9454     -4565.1227    
    102000   301.1443       40.443908      25123.372      1.0134453     -6563.5967     -4596.8369    
    103000   306.4603       1016.345       25306.709      1.0061033     -6435.2966     -4433.8182    
    104000   300.58641      1213.6527      25069.64       1.0156174     -6533.1086     -4569.9924    
    105000   300.39367     -509.71483      25258.375      1.0080285     -6570.9199     -4609.0624    
    106000   304.99095     -1366.8069      25304.9        1.0061752     -6492.4627     -4500.5806    
    107000   298.6136       2076.0638      24970.148      1.0196641     -6521.4801     -4571.2482    
    108000   301.55193      135.06391      25077.25       1.0153092     -6583.2779     -4613.8558    
    109000   289.39931     -148.14734      25121.479      1.0135217     -6454.17       -4564.1162    
    110000   299.91997     -442.99256      25170.364      1.0115532     -6499.8994     -4541.1357    
    111000   299.49728      43.387951      25078.211      1.0152703     -6599.0566     -4643.0534    
    112000   309.86667     -1047.1682      25160.698      1.0119418     -6557.9605     -4534.2352    
    113000   302.00452     -533.25945      25092.807      1.0146798     -6556.9037     -4584.5259    
    114000   298.86324      1445.9658      25018.899      1.0176772     -6537.7241     -4585.8618    
    115000   297.86731     -639.96215      25272.737      1.0074557     -6526.8921     -4581.5341    
    116000   299.26049     -2414.6505      25232.071      1.0090794     -6582.441      -4627.9843    
    117000   298.40918      416.2854       25001.701      1.0183772     -6549.3298     -4600.433     
    118000   301.3971       60.001443      24951.856      1.0204116     -6588.3827     -4619.9718    
    119000   301.07141      10.179285      25038.934      1.0168629     -6494.8201     -4528.5363    
    120000   293.8477       159.83973      25029.849      1.017232      -6567.57       -4648.464     
    121000   298.20157      1290.4752      25125.349      1.0133655     -6575.7479     -4628.207     
    122000   302.93591     -349.7243       25187.25       1.0108751     -6431.6922     -4453.2315    
    123000   294.13721     -263.3661       25268.617      1.00762       -6461.9879     -4540.9911    
    124000   306.13345     -923.45553      25368.669      1.003646      -6536.6606     -4537.3169    
    125000   298.87143     -1288.0558      25489.211      0.99889959    -6460.4453     -4508.5295    
    126000   300.96375      239.23448      25257.426      1.0080664     -6508.9847     -4543.4041    
    127000   297.59198     -602.24924      25126.054      1.0133371     -6533.8059     -4590.2461    
    128000   308.75442      1649.3914      25169.183      1.0116007     -6564.488      -4548.0268    
    129000   303.28494     -768.86477      25479.933      0.99926335    -6524.2124     -4543.4722    
    130000   304.65106      1870.1963      25279.076      1.0072031     -6498.7782     -4509.1159    
    131000   298.4783       1268.6352      25332.302      1.0050868     -6492.5953     -4543.247     
    132000   289.46986     -644.71129      25069.804      1.0156108     -6520.0203     -4629.5057    
    133000   297.12316     -1849.1219      25310.97       1.0059339     -6526.6758     -4586.1779    
    134000   301.84835     -425.39174      25118.636      1.0136364     -6529.8247     -4558.4668    
    135000   293.79516      784.51575      25243.102      1.0086384     -6518.9571     -4600.1942    
    136000   298.64662      745.2157       25283.479      1.0070277     -6479.4318     -4528.9843    
    137000   308.2609       1117.8226      25350.932      1.0043482     -6502.3521     -4489.1141    
    138000   307.10349     -94.893442      25441.261      1.0007823     -6489.5693     -4483.8903    
    139000   301.64992      135.81033      25138.492      1.0128357     -6536.5776     -4566.5156    
    140000   301.96436     -635.87471      25296.226      1.0065202     -6499.0102     -4526.8946    
    141000   289.10735     -321.46183      25269.038      1.0076032     -6469.4064     -4581.2593    
    142000   298.40705     -1048.3956      24995.38       1.0186348     -6508.1211     -4559.2382    
    143000   301.24796      1.3995781      24994.622      1.0186656     -6488.8302     -4521.3934    
    144000   289.46868     -2343.6045      25316.524      1.0057132     -6535.438      -4644.9312    
    145000   296.9063       132.42513      24894.575      1.0227595     -6476.5978     -4537.5161    
    146000   303.90948     -1532.5651      25090.205      1.014785      -6572.9547     -4588.1356    
    147000   295.44029     -13.870467      24924.956      1.0215128     -6472.6041     -4543.0969    
    148000   296.63012     -698.89582      24841.018      1.0249645     -6519.3667     -4582.0888    
    149000   294.66631     -258.44561      24945.519      1.0206708     -6453.7649     -4529.3125    
    150000   291.8279      -606.2229       24913.436      1.0219852     -6579.0284     -4673.1136    
    151000   300.09904     -810.4942       25033.17       1.017097      -6567.7199     -4607.7867    
    152000   295.53914      1073.7648      24786.585      1.0272155     -6577.2474     -4647.0946    
    153000   291.89637      12.562338      24965.883      1.0198383     -6587.3436     -4680.9816    
    154000   298.65403     -264.15732      24895.978      1.0227018     -6572.5394     -4622.0435    
    155000   300.1027       544.49923      24888.681      1.0230017     -6620.2141     -4660.2569    
    156000   305.30585      980.02041      24907.591      1.022225      -6564.6013     -4570.6626    
    157000   300.91023      91.272834      24973.162      1.019541      -6597.648      -4632.4169    
    158000   309.85642     -1179.7534      24842.268      1.024913      -6632.9581     -4609.2998    
    159000   301.86039     -747.25368      24833.793      1.0252627     -6570.9008     -4599.4642    
    160000   308.16104      1215.3056      24898.218      1.0226098     -6585.1106     -4572.5247    
    161000   301.09694     -156.01804      24911.77       1.0220536     -6631.0703     -4664.6198    
    162000   299.36271     -322.49842      24742.799      1.0290332     -6622.5072     -4667.3829    
    163000   292.41873      165.55126      24778.757      1.0275399     -6561.93       -4652.1565    
    164000   299.44707      223.08757      24936.011      1.02106       -6589.8181     -4634.1428    
    165000   300.85428     -788.22413      24952.266      1.0203948     -6605.2911     -4640.4254    
    166000   304.73684     -1559.6047      25131.556      1.0131153     -6555.8098     -4565.5873    
    167000   295.56614      851.76524      25197.794      1.0104521     -6536.1133     -4605.7842    
    168000   302.01296      656.1501       24947.813      1.0205769     -6513.473      -4541.04      
    169000   294.18382     -600.59085      25188.947      1.010807      -6563.2095     -4641.9083    
    170000   315.45742     -219.67773      24922.201      1.0216258     -6582.344      -4522.1059    
    171000   310.16491     -1118.2128      25065.799      1.0157731     -6563.8277     -4538.1546    
    172000   297.9109       371.04863      24816.768      1.0259661     -6494.5844     -4548.9418    
    173000   301.11706      952.36554      24991.32       1.0188002     -6591.3056     -4624.7237    
    174000   301.93163      971.92656      25041.453      1.0167606     -6522.2598     -4550.358     
    175000   297.86265     -1331.8643      25256.399      1.0081074     -6450.2679     -4504.9404    
    176000   300.40941      1679.8225      25131.672      1.0131106     -6518.687      -4556.7267    
    177000   299.95699      855.9758       25181.592      1.0111022     -6588.509      -4629.5035    
    178000   301.64437      528.09915      24926.608      1.0214451     -6608.077      -4638.0513    
    179000   304.3432       75.195269      25032.927      1.0171069     -6518.3604     -4530.7087    
    180000   294.25426      268.82686      24861.205      1.0241323     -6594.6666     -4672.9053    
    181000   301.39778      455.29143      25150.667      1.0123454     -6600.4631     -4632.0478    
    182000   304.96193     -139.70326      25207.041      1.0100814     -6628.7235     -4637.0309    
    183000   308.34675      181.95627      25020.056      1.0176301     -6537.717      -4523.9183    
    184000   295.39266      2068.6306      25170.691      1.0115401     -6521.4802     -4592.2841    
    185000   295.862        1314.4658      25172.6        1.0114634     -6519.5748     -4587.3135    
    186000   295.26857      195.17508      25107.958      1.0140674     -6567.322      -4638.9363    
    187000   301.23139     -395.28507      25060.131      1.0160028     -6571.3248     -4603.9962    
    188000   300.93561     -856.27752      25241.686      1.008695      -6567.4762     -4602.0793    
    189000   296.34026     -1483.2995      25099.353      1.0144151     -6567.06       -4631.6752    
    190000   302.94677      443.61348      25017.639      1.0177285     -6551.6729     -4573.1413    
    191000   300.23414     -1004.9928      25247.019      1.008482      -6567.4065     -4606.5909    
    192000   298.74885      439.59765      25020.504      1.0176119     -6597.1169     -4646.0017    
    193000   297.0015      -138.94259      25399.204      1.0024394     -6600.6099     -4660.9065    
    194000   297.37826     -1097.1953      25231.271      1.0091114     -6564.0133     -4621.8493    
    195000   299.40578     -1084.6116      25167.585      1.0116649     -6573.3792     -4617.9735    
    196000   305.09887      1418.5928      25153.116      1.0122469     -6481.3984     -4488.8115    
    197000   305.5313       1511.5322      24968.414      1.0197349     -6589.6988     -4594.2877    
    198000   299.01846      725.6376       25115.891      1.0137471     -6557.7717     -4604.8957    
    199000   289.43038     -1196.4318      25181.065      1.0111233     -6519.8288     -4629.5721    
    200000   304.66031      378.48455      25230.599      1.0091383     -6518.2532     -4528.5305    
Loop time of 9711.83 on 2 procs for 200000 steps with 2784 atoms

Performance: 1.779 ns/day, 13.489 hours/ns, 20.593 timesteps/s, 57.332 katom-step/s
98.1% CPU use with 2 MPI tasks x 1 OpenMP threads

MPI task timing breakdown:
Section |  min time  |  avg time  |  max time  |%varavg| %total
---------------------------------------------------------------
Pair    | 5948.7     | 5991.6     | 6034.5     |  55.4 | 61.69
Bond    | 440.59     | 447.51     | 454.44     |  32.8 |  4.61
Kspace  | 1725.5     | 1761.8     | 1798       |  86.3 | 18.14
Neigh   | 489.54     | 489.69     | 489.83     |   0.7 |  5.04
Comm    | 277.08     | 277.33     | 277.58     |   1.5 |  2.86
Output  | 34.409     | 35.512     | 36.616     |  18.5 |  0.37
Modify  | 614.51     | 614.99     | 615.47     |   1.9 |  6.33
Other   |            | 93.46      |            |       |  0.96

Nlocal:           1392 ave        1411 max        1373 min
Histogram: 1 0 0 0 0 0 0 0 0 1
Nghost:        10697.5 ave       10720 max       10675 min
Histogram: 1 0 0 0 0 0 0 0 0 1
Neighs:         555500 ave      562985 max      548015 min
Histogram: 1 0 0 0 0 0 0 0 0 1

Total # of neighbors = 1111000
Ave neighs/atom = 399.06609
Ave special neighs/atom = 8.4827586
Neighbor list builds = 7287
Dangerous builds = 0

write_data data.final.lmp
System init for write_data ...
PPPM initialization ...
  using 12-bit tables for long-range coulomb
  G vector (1/distance) = 0.28648555
  grid = 20 20 20
  stencil order = 5
  estimated absolute RMS force accuracy = 0.0033749097
  estimated relative force accuracy = 1.016344e-05
  using double precision FFTW3
  3d grid and FFT values/proc = 12393 4000
Generated 120 of 120 mixed pair_coeff terms from geometric mixing rule
print "RENEU >>> finished. trajectory = dump.lammpstrj, density log = density.dat"
RENEU >>> finished. trajectory = dump.lammpstrj, density log = density.dat
Total wall time: 4:18:16
