LAMMPS (10 Dec 2025)
OMP_NUM_THREADS environment is not set. Defaulting to 1 thread.
  using 1 OpenMP thread(s) per MPI task
# created by fftool

units real
boundary p p p

atom_style full
bond_style harmonic
angle_style harmonic
dihedral_style opls

special_bonds lj/coul 0.0 0.0 0.5

# remove hybrid if not necessary
pair_style hybrid lj/cut/coul/long 10.0 10.0
pair_modify mix geometric tail yes
read_data data.lmp
Reading data file ...
  orthogonal box = (0 0 0) to (32.03 32.03 32.03)
  1 by 1 by 2 MPI processor grid
  reading atoms ...
  1862 atoms
  scanning bonds ...
  1 = max bonds/atom
  scanning angles ...
  6 = max angles/atom
  scanning dihedrals ...
  9 = max dihedrals/atom
  orthogonal box = (0 0 0) to (32.03 32.03 32.03)
  1 by 1 by 2 MPI processor grid
  reading bonds ...
  1666 bonds
  reading angles ...
  2744 angles
  reading dihedrals ...
  2744 dihedrals
Finding 1-2 1-3 1-4 neighbors ...
  special bond factors lj:    0        0        0.5     
  special bond factors coul:  0        0        0.5     
     4 = max # of 1-2 neighbors
     6 = max # of 1-3 neighbors
     9 = max # of 1-4 neighbors
    11 = max # of special neighbors
  special bonds CPU = 0.002 seconds
  read_data CPU = 0.277 seconds
# read_restart restart1.lmp

kspace_style pppm 1.0e-5

# remove pair style if not using hybrid
pair_coeff    1    1 lj/cut/coul/long     0.170000     3.250000  # N1 N1
pair_coeff    2    2 lj/cut/coul/long     0.065999     3.500000  # C1NE C1NE
pair_coeff    3    3 lj/cut/coul/long     0.000000     0.000000  # HN HN
pair_coeff    4    4 lj/cut/coul/long     0.065999     3.500000  # CTOE CTOE
pair_coeff    5    5 lj/cut/coul/long     0.030000     2.500000  # H1N H1N
pair_coeff    6    6 lj/cut/coul/long     0.170000     3.120000  # OH OH
pair_coeff    7    7 lj/cut/coul/long     0.030000     2.500000  # H1O H1O
pair_coeff    8    8 lj/cut/coul/long     0.000000     1.000000  # HO HO
pair_coeff    9    9 lj/cut/coul/long     0.105000     3.750000  # CO2 CO2
pair_coeff   10   10 lj/cut/coul/long     0.065999     3.500000  # CTA CTA
pair_coeff   11   11 lj/cut/coul/long     0.210000     2.960000  # O2 O2
pair_coeff   12   12 lj/cut/coul/long     0.030000     2.500000  # HC HC

# minimize 1.0e-4 1.0e-6 100 1000
# reset_timestep 0

fix SHAKE all shake 0.0001 20 0 b 2 4 6
Finding SHAKE clusters ...
      98 = # of size 2 clusters
     196 = # of size 3 clusters
     196 = # of size 4 clusters
       0 = # of frozen angles
  find clusters CPU = 0.034 seconds

neighbor 2.0 bin
neigh_modify delay 0 every 1 check yes








#fix VAVG all ave/time 10 1000 50000 v_vinst

# ---------------------------------------------------------------------------
# RENEU 2026 simulation protocol (stage1 M4 ethanolammonium acetate)
# 1 minimise  2 NVT relaxation  3 NPT equilibration  4 NPT production
# ---------------------------------------------------------------------------
timestep 1.0

variable TK      equal 300.0
variable PBAR    equal 1.0
variable NVTRUN  equal 20000
variable EQRUN   equal 100000
variable PRODRUN equal 200000

variable dens equal density
variable vol  equal vol

thermo 1000
thermo_style custom step temp press vol v_dens pe etotal

# --- 1. energy minimisation ------------------------------------------------
print "RENEU >>> stage 1 of 4: energy minimisation"
RENEU >>> stage 1 of 4: energy minimisation
minimize 1.0e-4 1.0e-6 10000 100000
PPPM initialization ...
  using 12-bit tables for long-range coulomb
  G vector (1/distance) = 0.29382043
  grid = 24 24 24
  stencil order = 5
  estimated absolute RMS force accuracy = 0.0021337467
  estimated relative force accuracy = 6.4257149e-06
  using double precision FFTW3
  3d grid and FFT values/proc = 18259 6912
Generated 66 of 66 mixed pair_coeff terms from geometric mixing rule
WARNING: Using fix shake with minimization.
  Substituting constraints with harmonic restraint forces using kbond=1987206.7 (src/RIGID/fix_shake.cpp:397)
Neighbor list info ...
  update: every = 1 steps, delay = 0 steps, check = yes
  max neighbors/atom: 2000, page size: 100000
  master list distance cutoff = 12
  ghost atom cutoff = 12
  binsize = 6, bins = 6 6 6
  1 neighbor lists, perpetual/occasional/extra = 1 0 0
  (1) pair lj/cut/coul/long, perpetual
      attributes: half, newton on
      pair build: half/bin/newton
      stencil: half/bin/3d
      bin: standard
Per MPI rank memory allocation (min/avg/max) = 16.11 | 16.12 | 16.12 Mbytes
   Step          Temp          Press          Volume         v_dens         PotEng         TotEng    
         0   0             -16590101       32860.246      0.59989818     479921.55      479921.55    
        45   0              14762.232      32860.246      0.59989818    -7535.7897     -7535.7897    
Loop time of 8.03611 on 2 procs for 45 steps with 1862 atoms

97.1% CPU use with 2 MPI tasks x 1 OpenMP threads

Minimization stats:
  Stopping criterion = energy tolerance
  Energy initial, next-to-last, final = 
      479921.550622411  -7535.29727826601  -7535.78965010531
  Force two-norm initial, final = 2576307.8 5797.0428
  Force max component initial, final = 139111.46 941.39254
  Final line search alpha, max atom move = 5.1644991e-06 0.0048618209
  Iterations, force evaluations = 45 130

MPI task timing breakdown:
Section |  min time  |  avg time  |  max time  |%varavg| %total
---------------------------------------------------------------
Pair    | 3.5946     | 3.6671     | 3.7395     |   3.8 | 45.63
Bond    | 0.15234    | 0.18086    | 0.20939    |   6.7 |  2.25
Kspace  | 3.5672     | 3.6327     | 3.6981     |   3.4 | 45.20
Neigh   | 0          | 0          | 0          |   0.0 |  0.00
Comm    | 0.26683    | 0.28539    | 0.30395    |   3.5 |  3.55
Output  | 0          | 0          | 0          |   0.0 |  0.00
Modify  | 0.051485   | 0.077608   | 0.10373    |   9.4 |  0.97
Other   |            | 0.1925     |            |       |  2.40

Nlocal:            931 ave         968 max         894 min
Histogram: 1 0 0 0 0 0 0 0 0 1
Nghost:           5946 ave        6050 max        5842 min
Histogram: 1 0 0 0 0 0 0 0 0 1
Neighs:         207844 ave      213858 max      201829 min
Histogram: 1 0 0 0 0 0 0 0 0 1

Total # of neighbors = 415687
Ave neighs/atom = 223.24758
Ave special neighs/atom = 7.5789474
Neighbor list builds = 0
Dangerous builds = 0
reset_timestep 0

# --- 2. NVT relaxation (lets the packed box relax before the barostat) ------
print "RENEU >>> stage 2 of 4: NVT relaxation"
RENEU >>> stage 2 of 4: NVT relaxation
velocity all create ${TK} 12345 mom yes rot yes dist gaussian
velocity all create 300 12345 mom yes rot yes dist gaussian
fix NVTRELAX all nvt temp ${TK} ${TK} 100
fix NVTRELAX all nvt temp 300 ${TK} 100
fix NVTRELAX all nvt temp 300 300 100
run ${NVTRUN}
run 20000
PPPM initialization ...
  using 12-bit tables for long-range coulomb
  G vector (1/distance) = 0.29382043
  grid = 24 24 24
  stencil order = 5
  estimated absolute RMS force accuracy = 0.0021337467
  estimated relative force accuracy = 6.4257149e-06
  using double precision FFTW3
  3d grid and FFT values/proc = 18259 6912
Generated 66 of 66 mixed pair_coeff terms from geometric mixing rule
Per MPI rank memory allocation (min/avg/max) = 14.99 | 14.99 | 14.99 Mbytes
   Step          Temp          Press          Volume         v_dens         PotEng         TotEng    
         0   300            8731.1517      32860.246      0.59989818    -7538.395      -6195.5401    
      1000   297.28122     -899.13376      32860.246      0.59989818    -17294.093     -15963.408    
      2000   289.6399      -1828.9176      32860.246      0.59989818    -17673.628     -16377.147    
      3000   310.8614       871.40545      32860.246      0.59989818    -17857.529     -16466.056    
      4000   303.52227     -991.80227      32860.246      0.59989818    -18010.861     -16652.239    
      5000   311.77773     -169.10513      32860.246      0.59989818    -18102.194     -16706.62     
      6000   297.14162     -560.34523      32860.246      0.59989818    -18142.895     -16812.835    
      7000   289.91806     -244.84931      32860.246      0.59989818    -18175.764     -16878.038    
      8000   307.55537     -870.31972      32860.246      0.59989818    -18178.344     -16801.67     
      9000   312.34856     -1340.0791      32860.246      0.59989818    -18213.68      -16815.551    
     10000   297.62704     -1359.2559      32860.246      0.59989818    -18245.985     -16913.752    
     11000   292.9354      -1486.3915      32860.246      0.59989818    -18213.288     -16902.056    
     12000   292.65712     -2023.1477      32860.246      0.59989818    -18246.183     -16936.197    
     13000   297.05563     -1571.763       32860.246      0.59989818    -18254.78      -16925.105    
     14000   298.96168     -320.28051      32860.246      0.59989818    -18232.74      -16894.532    
     15000   295.95521     -1135.4558      32860.246      0.59989818    -18326.281     -17001.531    
     16000   305.22401     -611.9062       32860.246      0.59989818    -18323.154     -16956.915    
     17000   306.53377     -1066.235       32860.246      0.59989818    -18300.554     -16928.452    
     18000   279.9863      -1719.3103      32860.246      0.59989818    -18290.218     -17036.948    
     19000   306.0606      -2035.4755      32860.246      0.59989818    -18304.244     -16934.26     
     20000   290.78343     -1713.4902      32860.246      0.59989818    -18360.822     -17059.223    
Loop time of 1060.29 on 2 procs for 20000 steps with 1862 atoms

Performance: 1.630 ns/day, 14.726 hours/ns, 18.863 timesteps/s, 35.122 katom-step/s
97.3% CPU use with 2 MPI tasks x 1 OpenMP threads

MPI task timing breakdown:
Section |  min time  |  avg time  |  max time  |%varavg| %total
---------------------------------------------------------------
Pair    | 406.13     | 419.69     | 433.26     |  66.2 | 39.58
Bond    | 32.541     | 35.362     | 38.183     |  47.4 |  3.34
Kspace  | 463.02     | 474.7      | 486.38     |  53.6 | 44.77
Neigh   | 32.82      | 32.904     | 32.988     |   1.5 |  3.10
Comm    | 57.127     | 58.109     | 59.091     |  12.9 |  5.48
Output  | 0.0068594  | 0.006999   | 0.0071387  |   0.2 |  0.00
Modify  | 33.202     | 33.293     | 33.383     |   1.6 |  3.14
Other   |            | 6.222      |            |       |  0.59

Nlocal:            931 ave         978 max         884 min
Histogram: 1 0 0 0 0 0 0 0 0 1
Nghost:           5575 ave        5734 max        5416 min
Histogram: 1 0 0 0 0 0 0 0 0 1
Neighs:         238366 ave      256193 max      220538 min
Histogram: 1 0 0 0 0 0 0 0 0 1

Total # of neighbors = 476731
Ave neighs/atom = 256.03169
Ave special neighs/atom = 7.5789474
Neighbor list builds = 716
Dangerous builds = 0
unfix NVTRELAX

# --- 3. NPT equilibration (this is where the density finds its own value) ---
# restart files are written every 25000 steps. If the run stops for any
# reason you can pick up from the last one instead of starting over:
#     read_restart rst_a.lmp      (or rst_b.lmp, whichever is newer)
print "RENEU >>> stage 3 of 4: NPT equilibration - watch the density column"
RENEU >>> stage 3 of 4: NPT equilibration - watch the density column
restart 25000 rst_a.lmp rst_b.lmp
fix NPTEQ all npt temp ${TK} ${TK} 100 iso ${PBAR} ${PBAR} 1000
fix NPTEQ all npt temp 300 ${TK} 100 iso ${PBAR} ${PBAR} 1000
fix NPTEQ all npt temp 300 300 100 iso ${PBAR} ${PBAR} 1000
fix NPTEQ all npt temp 300 300 100 iso 1 ${PBAR} 1000
fix NPTEQ all npt temp 300 300 100 iso 1 1 1000
run ${EQRUN}
run 100000
PPPM initialization ...
  using 12-bit tables for long-range coulomb
  G vector (1/distance) = 0.29382043
  grid = 24 24 24
  stencil order = 5
  estimated absolute RMS force accuracy = 0.0021337467
  estimated relative force accuracy = 6.4257149e-06
  using double precision FFTW3
  3d grid and FFT values/proc = 18259 6912
Generated 66 of 66 mixed pair_coeff terms from geometric mixing rule
Per MPI rank memory allocation (min/avg/max) = 14.99 | 14.99 | 14.99 Mbytes
   Step          Temp          Press          Volume         v_dens         PotEng         TotEng    
     20000   290.78343     -1713.2684      32860.246      0.59989818    -18360.822     -17059.223    
     21000   292.28662      888.54027      29257.759      0.67376323    -18363.923     -17055.595    
     22000   295.94041      778.60217      27628.497      0.71349529    -18439.276     -17114.592    
     23000   291.04638     -894.46206      27650.364      0.71293103    -18360.551     -17057.774    
     24000   304.52715     -562.45073      27782.152      0.70954916    -18423.662     -17060.542    
     25000   301.47231     -1083.3323      28082.808      0.70195266    -18420.095     -17070.649    
     26000   304.74008     -747.1761       27281.852      0.72256099    -18352.819     -16988.746    
     27000   297.18249      401.00199      26462.336      0.7449381     -18394.103     -17063.86     
     28000   295.42628     -443.833        25565.551      0.77106892    -18440.641     -17118.259    
     29000   294.84241      804.19011      25122.729      0.78466007    -18465.835     -17146.066    
     30000   308.21582      145.73607      24992.147      0.78875987    -18464.306     -17084.675    
     31000   307.85109     -641.66866      24678.646      0.79877972    -18472.144     -17094.146    
     32000   289.85759      383.26858      24575.148      0.80214378    -18476.239     -17178.783    
     33000   300.91968     -1202.8578      24593.821      0.80153475    -18476.294     -17129.322    
     34000   301.79552      819.06741      24350.093      0.80955758    -18513.465     -17162.573    
     35000   299.9914      -638.06022      24891.469      0.79195012    -18411.953     -17069.137    
     36000   292.36829      957.87888      24224.552      0.81375302    -18445.684     -17136.99     
     37000   302.57543     -981.28044      23554.478      0.83690252    -18474.671     -17120.288    
     38000   287.84389      970.75444      23414.965      0.84188902    -18512.762     -17224.32     
     39000   309.96642     -1749.7371      23485.045      0.83937682    -18534.689     -17147.223    
     40000   306.4443       740.68434      22986.23       0.85759178    -18503.391     -17131.69     
     41000   301.71763      622.16359      23637.903      0.83394885    -18538.921     -17188.378    
     42000   300.13013     -1168.924       22689.521      0.86880647    -18504.006     -17160.569    
     43000   301.71308     -413.48456      23266.81       0.84724988    -18542.478     -17191.955    
     44000   291.94674      1259.0797      22892.281      0.8611113     -18536.765     -17229.958    
     45000   300.42605     -698.22255      23365.012      0.84368893    -18526.519     -17181.757    
     46000   289.38093      107.77472      22562.018      0.87371628    -18497.389     -17202.067    
     47000   297.84625      1403.1555      23134.381      0.85209984    -18588.847     -17255.632    
     48000   299.86474      444.50505      22638.68       0.87075758    -18517.146     -17174.896    
     49000   300.72225      87.421476      23009.813      0.85671283    -18545.173     -17199.086    
     50000   297.69551      650.97638      22349.334      0.88203086    -18553.445     -17220.905    
     51000   295.53229     -723.24276      22839.102      0.86311634    -18590.161     -17267.304    
     52000   297.66373      794.68859      22361.24       0.88156123    -18592.325     -17259.928    
     53000   295.58558     -831.49529      22910.73       0.8604179     -18521.82      -17198.725    
     54000   299.76322      772.10395      22515.776      0.87551067    -18619.19      -17277.395    
     55000   303.9284       562.45144      22554.846      0.8739941     -18582.384     -17221.945    
     56000   297.44547     -511.19161      22768.756      0.865783      -18576.874     -17245.454    
     57000   311.58367      852.59964      22467.343      0.87739801    -18578.173     -17183.467    
     58000   291.9141       664.86521      22427.688      0.87894937    -18532.801     -17226.14     
     59000   313.84655     -623.95307      22623.575      0.87133897    -18549.965     -17145.13     
     60000   293.91944     -1230.5906      22591.783      0.87256513    -18602.947     -17287.31     
     61000   298.75172      335.3396       22473.753      0.87714776    -18521.608     -17184.341    
     62000   292.03643     -624.53626      22391.489      0.88037032    -18557.344     -17250.135    
     63000   299.29245     -524.90021      22661.498      0.86988082    -18562.431     -17222.743    
     64000   308.48556     -2270.5608      22271.041      0.88513159    -18575.587     -17194.749    
     65000   295.80279      1850.0421      22303.039      0.88386173    -18604.48      -17280.412    
     66000   303.89391     -1201.5148      22439.614      0.87848222    -18541.521     -17181.236    
     67000   297.59357      40.077806      22208.999      0.88760427    -18621.266     -17289.183    
     68000   300.19493      341.17003      22244.231      0.8861984     -18595.514     -17251.787    
     69000   310.92024     -696.68205      22517.481      0.87544438    -18566.653     -17174.917    
     70000   298.69538     -224.47268      22540.509      0.87454998    -18557.56      -17220.545    
     71000   309.25069     -126.09721      22604.287      0.87208246    -18637.63      -17253.367    
     72000   303.73588     -756.28889      22734.184      0.8670996     -18583.559     -17223.982    
     73000   303.4257       468.25913      22684.447      0.8690008     -18598.142     -17239.953    
     74000   300.57878     -968.53125      22678.057      0.86924565    -18528.693     -17183.247    
     75000   303.07512      1020.1501      22746.36       0.86663545    -18605.664     -17249.044    
     76000   299.33326     -1005.822       22784.243      0.86519452    -18546.744     -17206.874    
     77000   293.07514     -1371.1227      22660.265      0.86992813    -18619.44      -17307.582    
     78000   288.59416     -896.48637      22589.451      0.8726552     -18601.155     -17309.354    
     79000   298.44534      536.48442      22464.34       0.8775153     -18587.599     -17251.703    
     80000   307.56053      614.03467      22564.699      0.87361246    -18568.004     -17191.306    
     81000   310.41683      1332.6832      22295.071      0.88417758    -18621.204     -17231.722    
     82000   306.56226      177.34334      22312.112      0.8835023     -18602.912     -17230.683    
     83000   293.71765     -1727.439       22502.122      0.8760419     -18583.675     -17268.941    
     84000   315.24603      273.15483      21950.191      0.89806974    -18617.593     -17206.494    
     85000   300.90019      1435.592       22484.444      0.8767307     -18567.888     -17221.004    
     86000   290.8791       734.07308      22178.642      0.88881917    -18577.248     -17275.22     
     87000   299.21316     -536.28992      22319.233      0.8832204     -18592.059     -17252.726    
     88000   306.85336     -1014.7091      22174.835      0.88897178    -18637.32      -17263.788    
     89000   301.73698     -1428.4227      22071.751      0.89312362    -18585.067     -17234.437    
     90000   305.35472      523.07894      21888.995      0.90058049    -18602.917     -17236.093    
     91000   296.22073     -1082.9586      21733.956      0.90700478    -18639.38      -17313.442    
     92000   309.48128      539.31852      22528.104      0.87503155    -18624.614     -17239.319    
     93000   306.03694     -72.9876        22241.101      0.88632315    -18642.164     -17272.287    
     94000   295.72991      1498.3273      21992.341      0.89634853    -18623.715     -17299.974    
     95000   293.69486      457.40835      21817.341      0.90353826    -18572.494     -17257.862    
     96000   310.9641      -1015.6017      21925.012      0.89910108    -18691.759     -17299.827    
     97000   307.12064      147.0731       21686.946      0.90897087    -18621.866     -17247.138    
     98000   298.23084     -362.92281      21922.574      0.89920108    -18635.757     -17300.821    
     99000   302.00932     -293.42365      21647.42       0.91063055    -18638.659     -17286.81     
    100000   289.58783     -442.45695      21498.942      0.91691966    -18650.931     -17354.683    
    101000   304.74614      465.14926      21724.875      0.9073839     -18662.633     -17298.533    
    102000   284.4257       396.22095      21624.302      0.91160409    -18620.864     -17347.723    
    103000   299.51524      1184.9249      21837.226      0.90271551    -18615.84      -17275.155    
    104000   308.82506      525.80786      21339.246      0.92378158    -18667.524     -17285.166    
    105000   308.21438     -59.389727      21665.705      0.90986203    -18644.733     -17265.109    
    106000   302.70034     -120.10836      21593.216      0.91291647    -18686.354     -17331.412    
    107000   297.55294     -365.1164       21659.995      0.9101019     -18631.31      -17299.409    
    108000   307.85222      1545.9204      21542.255      0.9150761     -18602.474     -17224.471    
    109000   300.49872      1173.637       21160.307      0.93159338    -18610.156     -17265.069    
    110000   296.08751     -476.16627      21631.882      0.91128465    -18638.673     -17313.331    
    111000   297.99191     -570.73917      21214.521      0.92921267    -18567.234     -17233.368    
    112000   296.17031     -1153.2345      21504.027      0.9167028     -18620.697     -17294.985    
    113000   306.64182     -400.49424      20952.981      0.94081135    -18724.697     -17352.112    
    114000   304.04939     -312.50054      20982.577      0.9394843     -18645.56      -17284.579    
    115000   294.89016     -1135.4135      21002.54       0.93859132    -18655.126     -17335.143    
    116000   306.13986      1024.3624      20853.824      0.94528477    -18666.654     -17296.316    
    117000   303.32618      686.78984      21220.546      0.92894888    -18667.957     -17310.214    
    118000   286.90847     -227.24441      21202.589      0.92973561    -18664.128     -17379.873    
    119000   294.33409     -215.79482      21064.303      0.93583926    -18651.469     -17333.975    
    120000   288.6832       115.70333      21114.902      0.93359669    -18552.253     -17260.055    
Loop time of 5165.39 on 2 procs for 100000 steps with 1862 atoms

Performance: 1.673 ns/day, 14.348 hours/ns, 19.360 timesteps/s, 36.048 katom-step/s
96.6% CPU use with 2 MPI tasks x 1 OpenMP threads

MPI task timing breakdown:
Section |  min time  |  avg time  |  max time  |%varavg| %total
---------------------------------------------------------------
Pair    | 1927       | 2136.2     | 2345.5     | 452.7 | 41.36
Bond    | 146.52     | 151.07     | 155.62     |  37.1 |  2.92
Kspace  | 1695.8     | 1901       | 2106.1     | 470.5 | 36.80
Neigh   | 162.31     | 162.8      | 163.29     |   3.8 |  3.15
Comm    | 189.41     | 189.49     | 189.56     |   0.5 |  3.67
Output  | 0.088673   | 0.093798   | 0.098922   |   1.7 |  0.00
Modify  | 513.53     | 514.63     | 515.74     |   4.9 |  9.96
Other   |            | 110.1      |            |       |  2.13

Nlocal:            931 ave         933 max         929 min
Histogram: 1 0 0 0 0 0 0 0 0 1
Nghost:           7813 ave        7890 max        7736 min
Histogram: 1 0 0 0 0 0 0 0 0 1
Neighs:         312018 ave      356901 max      267136 min
Histogram: 1 0 0 0 0 0 0 0 0 1

Total # of neighbors = 624037
Ave neighs/atom = 335.14339
Ave special neighs/atom = 7.5789474
Neighbor list builds = 3171
Dangerous builds = 0
unfix NPTEQ
write_data data.after_equilibration.lmp
System init for write_data ...
PPPM initialization ...
  using 12-bit tables for long-range coulomb
  G vector (1/distance) = 0.29111724
  grid = 20 20 20
  stencil order = 5
  estimated absolute RMS force accuracy = 0.0031163102
  estimated relative force accuracy = 9.3846757e-06
  using double precision FFTW3
  3d grid and FFT values/proc = 12393 4000
Generated 66 of 66 mixed pair_coeff terms from geometric mixing rule

# --- 4. NPT production - this is the trajectory you analyse ----------------
print "RENEU >>> stage 4 of 4: NPT production"
RENEU >>> stage 4 of 4: NPT production
reset_timestep 0
fix NPTPROD all npt temp ${TK} ${TK} 100 iso ${PBAR} ${PBAR} 1000
fix NPTPROD all npt temp 300 ${TK} 100 iso ${PBAR} ${PBAR} 1000
fix NPTPROD all npt temp 300 300 100 iso ${PBAR} ${PBAR} 1000
fix NPTPROD all npt temp 300 300 100 iso 1 ${PBAR} 1000
fix NPTPROD all npt temp 300 300 100 iso 1 1 1000
fix DENSAVG all ave/time 10 100 1000 v_dens v_vol file density.dat

dump TRAJ all custom 500 dump.lammpstrj id mol type element q xu yu zu
dump_modify TRAJ element N C H C H O H H C C O H

run ${PRODRUN}
run 200000
PPPM initialization ...
  using 12-bit tables for long-range coulomb
  G vector (1/distance) = 0.29111724
  grid = 20 20 20
  stencil order = 5
  estimated absolute RMS force accuracy = 0.0031163102
  estimated relative force accuracy = 9.3846757e-06
  using double precision FFTW3
  3d grid and FFT values/proc = 12393 4000
Generated 66 of 66 mixed pair_coeff terms from geometric mixing rule
Per MPI rank memory allocation (min/avg/max) = 14.61 | 14.8 | 14.99 Mbytes
   Step          Temp          Press          Volume         v_dens         PotEng         TotEng    
         0   288.6832       173.57771      21114.902      0.93359669    -18552.282     -17260.084    
      1000   299.95552     -914.49873      21204.433      0.92965476    -18646.561     -17303.905    
      2000   298.27089      253.8703       20964.106      0.94031208    -18708.46      -17373.345    
      3000   293.60088      511.89231      21253.433      0.92751143    -18670.711     -17356.499    
      4000   293.57314     -1088.733       21144.751      0.93227877    -18640.086     -17325.999    
      5000   297.25701     -1085.3231      20852.649      0.94533803    -18685.972     -17355.395    
      6000   294.13899      433.59842      20909.282      0.94277758    -18671.326     -17354.706    
      7000   295.80785     -314.63657      21015.029      0.93803355    -18666.65      -17342.56     
      8000   302.23134     -362.99277      21058.558      0.93609458    -18655.711     -17302.868    
      9000   289.40412     -549.3586       20878.331      0.94417521    -18749.102     -17453.676    
     10000   305.52656      1032.4734      20707.018      0.95198651    -18690.707     -17323.114    
     11000   301.49956      1580.5685      20739.988      0.95047316    -18707.822     -17358.255    
     12000   301.35491      888.64738      20871.033      0.94450536    -18666.468     -17317.548    
     13000   298.98269     -1282.1361      21011.082      0.93820976    -18695.988     -17357.687    
     14000   303.42287     -507.13178      20741.801      0.9503901     -18671.316     -17313.14     
     15000   296.05514     -172.25386      20696.916      0.95245118    -18667.297     -17342.1      
     16000   306.1396       840.06718      20651.871      0.95452862    -18669.893     -17299.556    
     17000   295.0446       507.75845      20940.212      0.94138503    -18704.52      -17383.846    
     18000   303.14657     -428.32735      20943.76       0.94122555    -18625.634     -17268.694    
     19000   306.16809     -1385.763       20951.821      0.94086342    -18649.947     -17279.482    
     20000   302.29552      808.55408      20895.492      0.94339975    -18713.994     -17360.864    
     21000   294.93882      1553.7122      20548.252      0.95934206    -18686.282     -17366.082    
     22000   295.9972       882.56884      20583.135      0.9577162     -18654.315     -17329.377    
     23000   307.44142     -50.034156      20824.123      0.94663303    -18633.001     -17256.837    
     24000   302.13162      449.95857      20787.395      0.94830556    -18704.343     -17351.946    
     25000   299.29872     -873.83549      20584.937      0.95763238    -18670.072     -17330.356    
     26000   303.17259      496.92584      20678.3        0.95330862    -18672.071     -17315.015    
     27000   291.02492     -371.0172       20378.225      0.96734638    -18681.922     -17379.241    
     28000   293.96739      77.47437       20804.223      0.94753848    -18658.102     -17342.25     
     29000   302.96376     -163.17315      20564.617      0.95857864    -18642.194     -17286.073    
     30000   302.66962     -39.564506      20819.135      0.94685981    -18679.591     -17324.787    
     31000   309.27509      832.38483      20707.983      0.95194217    -18761.333     -17376.961    
     32000   302.03033      28.338659      20890.379      0.94363066    -18618.579     -17266.636    
     33000   300.49498      105.13228      20803.138      0.94758791    -18673.431     -17328.36     
     34000   304.22204     -1339.6955      20677.068      0.95336543    -18691.739     -17329.985    
     35000   302.09577      1195.2198      20591.77       0.95731461    -18708.322     -17356.086    
     36000   290.48017     -205.14409      20759.254      0.94959106    -18718.166     -17417.923    
     37000   300.50662     -3453.8803      20514.077      0.96094024    -18644.44      -17299.317    
     38000   299.12106     -510.55413      20923.484      0.94213764    -18702.704     -17363.784    
     39000   289.72869      294.58124      20622.045      0.95590918    -18663.855     -17366.976    
     40000   302.73626     -1367.9334      20850.683      0.94542716    -18694.446     -17339.343    
     41000   295.40295     -1208.9977      20386.12       0.96697176    -18695.253     -17372.976    
     42000   307.43987      592.93268      20675.427      0.95344112    -18684.923     -17308.766    
     43000   306.95594     -349.06716      20715.931      0.95157696    -18626.305     -17252.314    
     44000   292.03259      1195.5976      20733.63       0.95076462    -18655.401     -17348.21     
     45000   299.8759       638.701        20467.209      0.96314072    -18653.878     -17311.578    
     46000   296.28795     -756.98003      20789.862      0.94819303    -18666.013     -17339.773    
     47000   302.78519      906.78219      20227.579      0.97455072    -18645.736     -17290.414    
     48000   296.5593       106.44143      20556.769      0.95894459    -18675.305     -17347.852    
     49000   302.35901      519.20095      20407.455      0.96596081    -18726.552     -17373.138    
     50000   318.29272      467.5062       20822.752      0.94669534    -18630.758     -17206.021    
     51000   299.17771     -525.52801      20485.72       0.96227042    -18697.177     -17358.003    
     52000   298.53472      600.46982      20665.54       0.95389728    -18692.525     -17356.229    
     53000   292.70284      225.12063      20268.816      0.972568      -18714.34      -17404.148    
     54000   294.7328      -469.75354      20783.302      0.94849233    -18652.208     -17332.93     
     55000   305.56195      1011.9675      20737.716      0.9505773     -18697.57      -17329.819    
     56000   305.23873     -746.61728      20575.832      0.95805615    -18717.701     -17351.396    
     57000   306.73571     -205.13213      20705.146      0.95207261    -18740.75      -17367.745    
     58000   306.19738     -54.549153      20687.03       0.95290634    -18693.029     -17322.434    
     59000   302.65472     -690.37348      20684.106      0.95304106    -18708.984     -17354.246    
     60000   302.10908     -1492.4096      20595.961      0.9571198     -18632.785     -17280.489    
     61000   300.25802     -3151.9032      20480.5        0.96251568    -18709.896     -17365.886    
     62000   293.55776      445.24862      20514.417      0.96092434    -18666.188     -17352.169    
     63000   291.88164      345.29734      20245.956      0.97366613    -18634.489     -17327.974    
     64000   295.08266      1343.5468      20295.63       0.9712831     -18749.777     -17428.933    
     65000   305.64194     -1037.1312      20377.565      0.9673777     -18716.948     -17348.838    
     66000   302.07326     -81.816793      20294.917      0.9713172     -18674.872     -17322.737    
     67000   302.44714      1321.5912      20427.493      0.96501329    -18708.093     -17354.284    
     68000   303.54697      1270.715       20350.442      0.96866705    -18688.172     -17329.44     
     69000   288.91403     -393.64906      20315.646      0.97032611    -18716.705     -17423.473    
     70000   296.7622      -369.71952      20358.725      0.96827292    -18693.359     -17364.997    
     71000   300.45242     -840.74891      20293.297      0.97139477    -18740.962     -17396.082    
     72000   306.40322     -801.92033      20388.381      0.9668645     -18717.013     -17345.497    
     73000   302.78043     -2413.0734      20487.523      0.96218574    -18766.04      -17410.739    
     74000   305.8216       687.97192      20395.613      0.96652169    -18695.085     -17326.171    
     75000   299.08821     -488.76725      20488.995      0.96211662    -18766.541     -17427.767    
     76000   304.14394      778.93209      20420.045      0.96536529    -18766.952     -17405.548    
     77000   300.98689      1571.9165      20098.442      0.98081248    -18714.96      -17367.687    
     78000   287.10207     -458.49626      20351.675      0.96860834    -18709.304     -17424.183    
     79000   301.6311      -1391.2478      20405.13       0.96607088    -18739.5       -17389.344    
     80000   303.38062     -1609.4251      20355.992      0.96840292    -18720.686     -17362.699    
     81000   305.02477      745.18626      20455.599      0.96368737    -18718.413     -17353.066    
     82000   310.18977     -266.20749      20551.053      0.95921128    -18738.76      -17350.294    
     83000   295.5685       881.15739      20412.012      0.9657452     -18739         -17415.981    
     84000   313.99414      805.20138      20211.987      0.97530253    -18707.592     -17302.097    
     85000   300.88426     -1158.2367      20281.112      0.97197836    -18744.631     -17397.818    
     86000   299.2118      -880.89363      20334.63       0.96942025    -18705.431     -17366.104    
     87000   279.59799      619.62902      20418.84       0.96542222    -18693.703     -17442.171    
     88000   301.22385     -440.27867      20489.281      0.96210316    -18740.144     -17391.811    
     89000   295.85181     -1921.876       20568.617      0.9583922     -18681.923     -17357.636    
     90000   306.30027      263.41145      20369.095      0.96777996    -18712.84      -17341.784    
     91000   291.50596     -458.60405      20251.585      0.97339552    -18683.977     -17379.143    
     92000   295.43798     -1049.5492      20127.952      0.97937445    -18717.065     -17394.63     
     93000   308.66811      486.73208      20291.669      0.97147267    -18743.514     -17361.859    
     94000   298.81186      1581.2195      20142.008      0.978691      -18785.146     -17447.61     
     95000   305.83906     -295.22033      20124.164      0.9795588     -18740.091     -17371.099    
     96000   299.43799      1357.3493      20098.174      0.98082553    -18787.16      -17446.82     
     97000   314.49249     -1819.7441      20629.585      0.9555598     -18756.375     -17348.649    
     98000   305.19793     -341.05642      20297.613      0.97118822    -18727.289     -17361.167    
     99000   299.49267      38.641998      20232.843      0.97429719    -18695.238     -17354.654    
    100000   295.03074     -195.9824       20701.378      0.95224587    -18699.879     -17379.268    
    101000   298.08309      560.21238      20386.012      0.96697689    -18720.336     -17386.061    
    102000   296.25648      1130.4202      20616.768      0.95615386    -18671.754     -17345.656    
    103000   301.79652      314.77303      20343.754      0.96898548    -18759.438     -17408.541    
    104000   291.18004     -560.33245      20540.311      0.95971292    -18706.073     -17402.698    
    105000   306.44602      1349.24        20386.649      0.96694668    -18711.049     -17339.34     
    106000   299.74314      1765.7727      20189.532      0.9763873     -18713.187     -17371.482    
    107000   308.13809      1063.2117      20207.719      0.97550853    -18728.004     -17348.722    
    108000   301.51023     -1247.0426      20129.506      0.97929885    -18747.752     -17398.137    
    109000   294.93537     -149.19036      20615.932      0.95619264    -18685.592     -17365.408    
    110000   299.84837     -1249.4506      20350.632      0.96865799    -18758.271     -17416.095    
    111000   287.05851     -1305.627       20436.245      0.96459999    -18756.317     -17471.39     
    112000   304.10667      373.86805      20312.856      0.97045942    -18761.407     -17400.17     
    113000   302.33541     -376.09203      20516.22       0.96083989    -18745.549     -17392.241    
    114000   301.11262      207.98574      20084.111      0.98151233    -18762.01      -17414.175    
    115000   295.14029     -84.868304      20343.226      0.96901063    -18735.379     -17414.277    
    116000   291.47931     -938.64732      20358.356      0.96829046    -18702.339     -17397.624    
    117000   300.83892      848.55025      20262.523      0.97287008    -18738.932     -17392.322    
    118000   309.7049       1499.5826      20431.268      0.96483497    -18690.554     -17304.258    
    119000   295.07862     -617.51624      20159.785      0.97782799    -18712.31      -17391.485    
    120000   301.06136      524.57501      20116.108      0.97995109    -18714.147     -17366.541    
    121000   295.71556      945.37124      20422.018      0.96527202    -18700.293     -17376.616    
    122000   288.30028      1574.547       20209.496      0.97542276    -18750.507     -17460.023    
    123000   304.83374      231.28851      20398.887      0.96636657    -18731.168     -17366.676    
    124000   299.5126       2011.2233      20141.981      0.97869234    -18690.654     -17349.981    
    125000   294.06935      53.138568      20432.272      0.96478759    -18710.818     -17394.51     
    126000   308.28735     -2220.163       20609.383      0.95649646    -18689.669     -17309.719    
    127000   307.11838     -35.133279      20349.64       0.96870523    -18725.006     -17350.288    
    128000   288.52622     -429.83673      20431.187      0.96483882    -18695.842     -17404.346    
    129000   315.3708       24.016128      20473.044      0.9628662     -18713.976     -17302.318    
    130000   310.27463     -1012.9434      20522.204      0.96055972    -18760.85      -17372.004    
    131000   300.32116     -200.72599      20420.476      0.96534489    -18757.003     -17412.711    
    132000   297.2698       2094.905       20096.601      0.98090229    -18724.989     -17394.355    
    133000   307.6682      -253.11846      20335.328      0.96938698    -18744.253     -17367.073    
    134000   299.46528      28.028369      20169.38       0.97736284    -18700.949     -17360.488    
    135000   296.5982       37.543373      20391.184      0.96673162    -18733.78      -17406.152    
    136000   307.35714      18.119132      20224.764      0.9746864     -18706.109     -17330.322    
    137000   303.10427     -88.618814      20326.068      0.96982862    -18726.065     -17369.315    
    138000   301.36811      480.98182      20232.675      0.97430531    -18694.998     -17346.019    
    139000   300.45374      597.3434       20321.189      0.97006148    -18770.135     -17425.249    
    140000   305.41967     -177.77077      20390.83       0.96674838    -18659.057     -17291.943    
    141000   299.69974      624.47552      20087.651      0.98133934    -18752.134     -17410.623    
    142000   298.0057      -927.94531      20348.189      0.96877427    -18678.45      -17344.522    
    143000   307.10096     -626.00984      20432.085      0.9647964     -18718.315     -17343.675    
    144000   295.27187     -331.77906      20289.118      0.97159483    -18748.421     -17426.73     
    145000   299.34437     -664.75524      20268.329      0.97259136    -18768.012     -17428.092    
    146000   297.38274     -662.35025      20363.54       0.96804396    -18709.392     -17378.253    
    147000   307.01689     -321.03343      20445.028      0.96418561    -18758.847     -17384.583    
    148000   297.88095      214.31881      20251.298      0.97340932    -18670.728     -17337.358    
    149000   297.36164     -727.4969       20301.808      0.97098752    -18715.765     -17384.72     
    150000   292.77024     -56.939816      20323.09       0.96997073    -18720.996     -17410.503    
    151000   296.75554      855.71181      20394.876      0.96655661    -18711.926     -17383.594    
    152000   304.47714      1768.069       20665.81       0.95388481    -18710.561     -17347.665    
    153000   305.11474     -129.63118      20326.636      0.9698015     -18712.812     -17347.063    
    154000   289.37426      582.76616      20403.545      0.96614592    -18753.98      -17458.688    
    155000   302.98413      565.54712      20021.21       0.98459594    -18729.142     -17372.929    
    156000   297.08661      317.80904      20348.242      0.96877177    -18760.005     -17430.191    
    157000   308.72548      95.796401      19976.199      0.98681448    -18676.434     -17294.523    
    158000   301.55026      125.46946      20149.524      0.97832593    -18761.562     -17411.768    
    159000   302.53739     -118.67116      20068.229      0.98228909    -18762.357     -17408.144    
    160000   294.67695     -49.981008      19916.555      0.98976969    -18695.717     -17376.689    
    161000   294.3872       459.28202      20205.041      0.97563782    -18671.703     -17353.972    
    162000   312.06344     -458.54572      20287.993      0.97164869    -18712.449     -17315.596    
    163000   306.52392     -2207.9109      20080.262      0.98170047    -18748.152     -17376.095    
    164000   298.77239      734.9145       20170.885      0.97728988    -18771.17      -17433.81     
    165000   302.08775      428.47172      19950.594      0.98808094    -18725.246     -17373.046    
    166000   298.32161     -671.77524      20240.712      0.97391842    -18714.276     -17378.934    
    167000   281.54111      128.31481      19897.888      0.99069823    -18751.979     -17491.749    
    168000   300.21115     -1174.5666      20206.138      0.97558485    -18762.555     -17418.755    
    169000   295.39766     -1221.5709      19978.454      0.98670308    -18637.79      -17315.536    
    170000   288.18975      2800.2645      20094.588      0.98100056    -18714.698     -17424.708    
    171000   301.92006     -76.03382       20033.268      0.9840033     -18747.831     -17396.382    
    172000   305.74959      1242.063       20093.963      0.98103106    -18679.018     -17310.427    
    173000   313.32205     -663.70248      20067.604      0.98231969    -18744.294     -17341.807    
    174000   294.1997       973.83993      20149.275      0.97833803    -18658.708     -17341.817    
    175000   293.76059      1068.3898      20021.44       0.98458462    -18676.869     -17361.943    
    176000   299.64035      1450.1191      20053.223      0.98302413    -18711.827     -17370.582    
    177000   296.32492      1269.7477      19826.924      0.99424409    -18703.579     -17377.174    
    178000   288.77027      223.30166      20024.77       0.98442092    -18655.64      -17363.052    
    179000   298.1977      -280.07914      20188.009      0.97646092    -18660.331     -17325.543    
    180000   310.89841      964.43176      19969.603      0.98714043    -18691.577     -17299.939    
    181000   293.27043      2027.6359      20181.828      0.97676001    -18687.151     -17374.419    
    182000   315.86516     -1403.7177      20246.934      0.97361911    -18702.271     -17288.401    
    183000   298.24615     -1751.6168      20215.813      0.97511796    -18701.226     -17366.222    
    184000   299.35338     -112.25848      20120.036      0.97975979    -18693.167     -17353.207    
    185000   304.56179     -61.771853      19890.397      0.99107133    -18740.145     -17376.87     
    186000   297.3485      -717.34925      20258.348      0.97307059    -18684.947     -17353.961    
    187000   313.74289      1247.433       20101.783      0.98064945    -18715.584     -17311.213    
    188000   300.46074     -1856.3524      20191.676      0.97628362    -18702.226     -17357.309    
    189000   303.86083      222.27241      20073.76       0.98201843    -18705.402     -17345.265    
    190000   292.43197     -1073.0882      20040.362      0.98365497    -18738.871     -17429.892    
    191000   298.34551     -991.3129       19905.813      0.99030379    -18704.578     -17369.129    
    192000   294.36457     -427.28979      19942.639      0.9884751     -18662.739     -17345.109    
    193000   302.42388      413.31659      20266.9        0.97265995    -18696.371     -17342.666    
    194000   292.8927      -1604.5358      20106.697      0.98040976    -18696.21      -17385.169    
    195000   305.66432      1915.9335      19907.516      0.99021906    -18755.055     -17386.846    
    196000   303.16417     -900.68329      20378.505      0.96733307    -18681.133     -17324.115    
    197000   279.93232      1335.2623      19799.201      0.99563623    -18720.267     -17467.239    
    198000   305.74369     -1481.4389      20339.75       0.96917623    -18706.065     -17337.501    
    199000   301.52656      1423.0649      20041.189      0.98361441    -18632.286     -17282.598    
    200000   299.57201      758.10573      20230.446      0.97441264    -18681.209     -17340.27     
Loop time of 7637.64 on 2 procs for 200000 steps with 1862 atoms

Performance: 2.262 ns/day, 10.608 hours/ns, 26.186 timesteps/s, 48.759 katom-step/s
97.6% CPU use with 2 MPI tasks x 1 OpenMP threads

MPI task timing breakdown:
Section |  min time  |  avg time  |  max time  |%varavg| %total
---------------------------------------------------------------
Pair    | 3701.7     | 4136.9     | 4572.1     | 676.7 | 54.16
Bond    | 247.73     | 247.78     | 247.83     |   0.3 |  3.24
Kspace  | 1510.3     | 1945.5     | 2380.7     | 986.6 | 25.47
Neigh   | 300.24     | 301.22     | 302.19     |   5.6 |  3.94
Comm    | 254.55     | 254.69     | 254.82     |   0.9 |  3.33
Output  | 57.492     | 62.807     | 68.122     |  67.1 |  0.82
Modify  | 591.23     | 594.73     | 598.22     |  14.3 |  7.79
Other   |            | 93.97      |            |       |  1.23

Nlocal:            931 ave         934 max         928 min
Histogram: 1 0 0 0 0 0 0 0 0 1
Nghost:         8059.5 ave        8093 max        8026 min
Histogram: 1 0 0 0 0 0 0 0 0 1
Neighs:         319830 ave      358678 max      280982 min
Histogram: 1 0 0 0 0 0 0 0 0 1

Total # of neighbors = 639660
Ave neighs/atom = 343.53383
Ave special neighs/atom = 7.5789474
Neighbor list builds = 6296
Dangerous builds = 0

write_data data.final.lmp
System init for write_data ...
PPPM initialization ...
  using 12-bit tables for long-range coulomb
  G vector (1/distance) = 0.29221398
  grid = 20 20 20
  stencil order = 5
  estimated absolute RMS force accuracy = 0.0029856041
  estimated relative force accuracy = 8.991058e-06
  using double precision FFTW3
  3d grid and FFT values/proc = 12393 4000
Generated 66 of 66 mixed pair_coeff terms from geometric mixing rule
print "RENEU >>> finished. trajectory = dump.lammpstrj, density log = density.dat"
RENEU >>> finished. trajectory = dump.lammpstrj, density log = density.dat
Total wall time: 3:51:12
