LAMMPS (10 Dec 2025)
OMP_NUM_THREADS environment is not set. Defaulting to 1 thread.
  using 1 OpenMP thread(s) per MPI task
# created by fftool

units real
boundary p p p

atom_style full
bond_style harmonic
angle_style harmonic
dihedral_style opls

special_bonds lj/coul 0.0 0.0 0.5

# remove hybrid if not necessary
pair_style hybrid lj/cut/coul/long 10.0 10.0
pair_modify mix geometric tail yes
read_data data.lmp
Reading data file ...
  orthogonal box = (0 0 0) to (32.05 32.05 32.05)
  1 by 1 by 2 MPI processor grid
  reading atoms ...
  1872 atoms
  scanning bonds ...
  1 = max bonds/atom
  scanning angles ...
  6 = max angles/atom
  scanning dihedrals ...
  9 = max dihedrals/atom
  orthogonal box = (0 0 0) to (32.05 32.05 32.05)
  1 by 1 by 2 MPI processor grid
  reading bonds ...
  1728 bonds
  reading angles ...
  2952 angles
  reading dihedrals ...
  3528 dihedrals
Finding 1-2 1-3 1-4 neighbors ...
  special bond factors lj:    0        0        0.5     
  special bond factors coul:  0        0        0.5     
     4 = max # of 1-2 neighbors
     6 = max # of 1-3 neighbors
    12 = max # of 1-4 neighbors
    16 = max # of special neighbors
  special bonds CPU = 0.027 seconds
  read_data CPU = 0.368 seconds
# read_restart restart1.lmp

kspace_style pppm 1.0e-5

# remove pair style if not using hybrid
pair_coeff    1    1 lj/cut/coul/long     0.170000     3.250000  # N1 N1
pair_coeff    2    2 lj/cut/coul/long     0.065999     3.500000  # C1ND C1ND
pair_coeff    3    3 lj/cut/coul/long     0.000000     0.000000  # HN HN
pair_coeff    4    4 lj/cut/coul/long     0.065999     3.500000  # CTOD CTOD
pair_coeff    5    5 lj/cut/coul/long     0.030000     2.500000  # H1N H1N
pair_coeff    6    6 lj/cut/coul/long     0.170000     3.120000  # OH OH
pair_coeff    7    7 lj/cut/coul/long     0.030000     2.500000  # H1O H1O
pair_coeff    8    8 lj/cut/coul/long     0.000000     1.000000  # HO HO
pair_coeff    9    9 lj/cut/coul/long     0.105000     3.750000  # CO2 CO2
pair_coeff   10   10 lj/cut/coul/long     0.065999     3.500000  # CTA CTA
pair_coeff   11   11 lj/cut/coul/long     0.210000     2.960000  # O2 O2
pair_coeff   12   12 lj/cut/coul/long     0.030000     2.500000  # HC HC

# minimize 1.0e-4 1.0e-6 100 1000
# reset_timestep 0

fix SHAKE all shake 0.0001 20 0 b 2 4 6
Finding SHAKE clusters ...
     144 = # of size 2 clusters
     360 = # of size 3 clusters
      72 = # of size 4 clusters
       0 = # of frozen angles
  find clusters CPU = 0.133 seconds

neighbor 2.0 bin
neigh_modify delay 0 every 1 check yes








#fix VAVG all ave/time 10 1000 50000 v_vinst

# ---------------------------------------------------------------------------
# RENEU 2026 simulation protocol (stage1 M5 diethanolammonium acetate)
# 1 minimise  2 NVT relaxation  3 NPT equilibration  4 NPT production
# ---------------------------------------------------------------------------
timestep 1.0

variable TK      equal 300.0
variable PBAR    equal 1.0
variable NVTRUN  equal 20000
variable EQRUN   equal 100000
variable PRODRUN equal 200000

variable dens equal density
variable vol  equal vol

thermo 1000
thermo_style custom step temp press vol v_dens pe etotal

# --- 1. energy minimisation ------------------------------------------------
print "RENEU >>> stage 1 of 4: energy minimisation"
RENEU >>> stage 1 of 4: energy minimisation
minimize 1.0e-4 1.0e-6 10000 100000
PPPM initialization ...
  using 12-bit tables for long-range coulomb
  G vector (1/distance) = 0.29377109
  grid = 24 24 24
  stencil order = 5
  estimated absolute RMS force accuracy = 0.001860784
  estimated relative force accuracy = 5.6036956e-06
  using double precision FFTW3
  3d grid and FFT values/proc = 18259 6912
Generated 66 of 66 mixed pair_coeff terms from geometric mixing rule
WARNING: Using fix shake with minimization.
  Substituting constraints with harmonic restraint forces using kbond=1987206.7 (src/RIGID/fix_shake.cpp:397)
Neighbor list info ...
  update: every = 1 steps, delay = 0 steps, check = yes
  max neighbors/atom: 2000, page size: 100000
  master list distance cutoff = 12
  ghost atom cutoff = 12
  binsize = 6, bins = 6 6 6
  1 neighbor lists, perpetual/occasional/extra = 1 0 0
  (1) pair lj/cut/coul/long, perpetual
      attributes: half, newton on
      pair build: half/bin/newton
      stencil: half/bin/3d
      bin: standard
Per MPI rank memory allocation (min/avg/max) = 16.46 | 16.46 | 16.46 Mbytes
   Step          Temp          Press          Volume         v_dens         PotEng         TotEng    
         0   0             -17082341       32921.84       0.59989961     528187.79      528187.79    
        21   0              13079.158      32921.84       0.59989961    -4941.2339     -4941.2339    
Loop time of 2.31771 on 2 procs for 21 steps with 1872 atoms

99.9% CPU use with 2 MPI tasks x 1 OpenMP threads

Minimization stats:
  Stopping criterion = energy tolerance
  Energy initial, next-to-last, final = 
      528187.794284638  -4940.78235757211   -4941.2338874781
  Force two-norm initial, final = 2834204.4 1672.4468
  Force max component initial, final = 134569.57 454.72778
  Final line search alpha, max atom move = 0.00020315121 0.092378499
  Iterations, force evaluations = 21 59

MPI task timing breakdown:
Section |  min time  |  avg time  |  max time  |%varavg| %total
---------------------------------------------------------------
Pair    | 1.2669     | 1.3158     | 1.3647     |   4.3 | 56.77
Bond    | 0.078969   | 0.082333   | 0.085698   |   1.2 |  3.55
Kspace  | 0.75836    | 0.80213    | 0.84591    |   4.9 | 34.61
Neigh   | 0          | 0          | 0          |   0.0 |  0.00
Comm    | 0.075172   | 0.075865   | 0.076558   |   0.3 |  3.27
Output  | 0          | 0          | 0          |   0.0 |  0.00
Modify  | 0.01649    | 0.016494   | 0.016499   |   0.0 |  0.71
Other   |            | 0.02512    |            |       |  1.08

Nlocal:            936 ave         985 max         887 min
Histogram: 1 0 0 0 0 0 0 0 0 1
Nghost:           6077 ave        6196 max        5958 min
Histogram: 1 0 0 0 0 0 0 0 0 1
Neighs:         225015 ave      241585 max      208445 min
Histogram: 1 0 0 0 0 0 0 0 0 1

Total # of neighbors = 450030
Ave neighs/atom = 240.40064
Ave special neighs/atom = 8.6923077
Neighbor list builds = 0
Dangerous builds = 0
reset_timestep 0

# --- 2. NVT relaxation (lets the packed box relax before the barostat) ------
print "RENEU >>> stage 2 of 4: NVT relaxation"
RENEU >>> stage 2 of 4: NVT relaxation
velocity all create ${TK} 12345 mom yes rot yes dist gaussian
velocity all create 300 12345 mom yes rot yes dist gaussian
fix NVTRELAX all nvt temp ${TK} ${TK} 100
fix NVTRELAX all nvt temp 300 ${TK} 100
fix NVTRELAX all nvt temp 300 300 100
run ${NVTRUN}
run 20000
PPPM initialization ...
  using 12-bit tables for long-range coulomb
  G vector (1/distance) = 0.29377109
  grid = 24 24 24
  stencil order = 5
  estimated absolute RMS force accuracy = 0.001860784
  estimated relative force accuracy = 5.6036956e-06
  using double precision FFTW3
  3d grid and FFT values/proc = 18259 6912
Generated 66 of 66 mixed pair_coeff terms from geometric mixing rule
Per MPI rank memory allocation (min/avg/max) = 15.33 | 15.33 | 15.33 Mbytes
   Step          Temp          Press          Volume         v_dens         PotEng         TotEng    
         0   300            13445.524      32921.84       0.59989961    -4941.3288     -3590.1276    
      1000   315.94831     -570.68717      32921.84       0.59989961    -12474.928     -11051.896    
      2000   285.7537      -1739.8121      32921.84       0.59989961    -12790.136     -11503.1      
      3000   298.93157      131.81448      32921.84       0.59989961    -12850.212     -11503.823    
      4000   311.00342     -1114.5623      32921.84       0.59989961    -12952.067     -11551.306    
      5000   287.60759     -1234.6011      32921.84       0.59989961    -13045.051     -11749.665    
      6000   309.23152     -1056.1867      32921.84       0.59989961    -13059.551     -11666.771    
      7000   297.79579     -1307.787       32921.84       0.59989961    -13131.778     -11790.505    
      8000   290.64925     -1109.3501      32921.84       0.59989961    -13093.832     -11784.746    
      9000   309.94042      133.32863      32921.84       0.59989961    -13180.125     -11784.152    
     10000   306.23971     -243.12927      32921.84       0.59989961    -13185.456     -11806.151    
     11000   292.48097     -1482.0202      32921.84       0.59989961    -13189.678     -11872.342    
     12000   304.8372      -1320.5634      32921.84       0.59989961    -13263.892     -11890.904    
     13000   296.67429     -1291.2685      32921.84       0.59989961    -13262.611     -11926.389    
     14000   292.96898     -170.69672      32921.84       0.59989961    -13184.386     -11864.853    
     15000   313.3977       141.0155       32921.84       0.59989961    -13269.186     -11857.641    
     16000   301.59266     -1420.7149      32921.84       0.59989961    -13250.678     -11892.303    
     17000   297.82919     -494.71842      32921.84       0.59989961    -13261.758     -11920.334    
     18000   306.71032     -1032.6241      32921.84       0.59989961    -13211.777     -11830.353    
     19000   301.47046     -538.99291      32921.84       0.59989961    -13291.707     -11933.883    
     20000   296.27595     -661.52692      32921.84       0.59989961    -13284.465     -11950.037    
Loop time of 640.835 on 2 procs for 20000 steps with 1872 atoms

Performance: 2.696 ns/day, 8.900 hours/ns, 31.209 timesteps/s, 58.424 katom-step/s
97.9% CPU use with 2 MPI tasks x 1 OpenMP threads

MPI task timing breakdown:
Section |  min time  |  avg time  |  max time  |%varavg| %total
---------------------------------------------------------------
Pair    | 290.8      | 291.32     | 291.84     |   3.0 | 45.46
Bond    | 25.891     | 28.306     | 30.722     |  45.4 |  4.42
Kspace  | 244.53     | 245.22     | 245.91     |   4.4 | 38.27
Neigh   | 23.812     | 23.894     | 23.975     |   1.7 |  3.73
Comm    | 28.248     | 29.346     | 30.445     |  20.3 |  4.58
Output  | 0.0020143  | 0.0065306  | 0.011047   |   5.6 |  0.00
Modify  | 19.17      | 19.278     | 19.386     |   2.5 |  3.01
Other   |            | 3.462      |            |       |  0.54

Nlocal:            936 ave        1019 max         853 min
Histogram: 1 0 0 0 0 0 0 0 0 1
Nghost:         5537.5 ave        5889 max        5186 min
Histogram: 1 0 0 0 0 0 0 0 0 1
Neighs:         237058 ave      242260 max      231857 min
Histogram: 1 0 0 0 0 0 0 0 0 1

Total # of neighbors = 474117
Ave neighs/atom = 253.26763
Ave special neighs/atom = 8.6923077
Neighbor list builds = 730
Dangerous builds = 0
unfix NVTRELAX

# --- 3. NPT equilibration (this is where the density finds its own value) ---
# restart files are written every 25000 steps. If the run stops for any
# reason you can pick up from the last one instead of starting over:
#     read_restart rst_a.lmp      (or rst_b.lmp, whichever is newer)
print "RENEU >>> stage 3 of 4: NPT equilibration - watch the density column"
RENEU >>> stage 3 of 4: NPT equilibration - watch the density column
restart 25000 rst_a.lmp rst_b.lmp
fix NPTEQ all npt temp ${TK} ${TK} 100 iso ${PBAR} ${PBAR} 1000
fix NPTEQ all npt temp 300 ${TK} 100 iso ${PBAR} ${PBAR} 1000
fix NPTEQ all npt temp 300 300 100 iso ${PBAR} ${PBAR} 1000
fix NPTEQ all npt temp 300 300 100 iso 1 ${PBAR} 1000
fix NPTEQ all npt temp 300 300 100 iso 1 1 1000
run ${EQRUN}
run 100000
PPPM initialization ...
  using 12-bit tables for long-range coulomb
  G vector (1/distance) = 0.29377109
  grid = 24 24 24
  stencil order = 5
  estimated absolute RMS force accuracy = 0.001860784
  estimated relative force accuracy = 5.6036956e-06
  using double precision FFTW3
  3d grid and FFT values/proc = 18259 6912
Generated 66 of 66 mixed pair_coeff terms from geometric mixing rule
Per MPI rank memory allocation (min/avg/max) = 15.33 | 15.33 | 15.33 Mbytes
   Step          Temp          Press          Volume         v_dens         PotEng         TotEng    
     20000   296.27595     -661.58212      32921.84       0.59989961    -13284.465     -11950.037    
     21000   300.68166      328.13936      29702.367      0.66492341    -13294.167     -11939.896    
     22000   297.27915     -34.857713      27435.531      0.71986211    -13382.142     -12043.195    
     23000   314.43233     -1477.1036      27045.938      0.7302316     -13348.175     -11931.971    
     24000   301.45341      340.79531      25630.292      0.77056472    -13353.173     -11995.426    
     25000   297.81672      1314.608       24972.668      0.79085659    -13346.745     -12005.377    
     26000   291.02257      1211.4322      24764.526      0.79750361    -13341.372     -12030.605    
     27000   298.6857       123.45625      24751.004      0.79793929    -13396.988     -12051.707    
     28000   310.54162     -928.50816      23827.391      0.82886954    -13387.643     -11988.962    
     29000   304.22553     -889.20432      23138.193      0.8535584     -13383.677     -12013.444    
     30000   299.76112     -1096.847       23278.687      0.84840691    -13385.058     -12034.933    
     31000   289.82157      664.15842      23019.254      0.85796868    -13399.665     -12094.308    
     32000   304.60223      1191.3231      23219.219      0.85057982    -13391.197     -12019.268    
     33000   297.80004     -1659.13        22643.08       0.87222229    -13399.426     -12058.134    
     34000   297.47744      1340.7548      22567.629      0.8751384     -13483.264     -12143.425    
     35000   303.71508      614.62512      22783.072      0.86686285    -13429.117     -12061.183    
     36000   300.0216       233.17688      22150.382      0.89162342    -13453.988     -12102.69     
     37000   296.77606      202.46342      21889.861      0.90223501    -13483.615     -12146.935    
     38000   293.97127      1103.3232      21796.704      0.90609107    -13472.304     -12148.256    
     39000   293.09349     -38.658635      22254.14       0.88746627    -13468.771     -12148.677    
     40000   303.711        426.43349      22184.602      0.89024808    -13460.885     -12092.969    
     41000   298.30996      106.73153      21912.841      0.90128883    -13474.388     -12130.798    
     42000   299.10366      223.2052       21471.12       0.91983087    -13500.77      -12153.606    
     43000   295.08558      777.03804      22119.179      0.89288118    -13468.906     -12139.839    
     44000   304.1677      -75.559664      21702.224      0.9100357     -13471.23      -12101.258    
     45000   288.40459      1500.5962      21822.592      0.9050162     -13505.941     -12206.966    
     46000   305.4074      -81.688656      21558.926      0.91608453    -13565.383     -12189.827    
     47000   294.19012      367.97058      21189.482      0.93205674    -13476.179     -12151.146    
     48000   297.87292      163.70567      21368.689      0.92424008    -13507.624     -12166.003    
     49000   302.0473       661.60638      21445.552      0.9209275     -13540.483     -12180.061    
     50000   311.08089      483.44895      21281.248      0.92803762    -13552.824     -12151.714    
     51000   294.451       -1338.0353      21548.418      0.91653128    -13495.404     -12169.196    
     52000   309.33709     -1595.2906      21575.548      0.91537879    -13475.11      -12081.855    
     53000   299.8513      -1746.2877      21603.223      0.91420613    -13505.37      -12154.838    
     54000   299.9158       1168.4714      21401.19       0.92283651    -13522.838     -12172.016    
     55000   298.05274      721.98672      21554.283      0.91628187    -13530.253     -12187.822    
     56000   307.19311     -2336.2005      21345.669      0.92523682    -13525.77      -12142.171    
     57000   301.48761      360.831        21128.476      0.93474793    -13604.701     -12246.799    
     58000   309.56888     -1273.9914      21170.762      0.93288087    -13520.243     -12125.944    
     59000   302.49757     -285.5259       21453.159      0.92060098    -13571.618     -12209.168    
     60000   299.49973      216.97666      21125.029      0.93490044    -13511.326     -12162.378    
     61000   297.67443      210.23212      21034.811      0.93891021    -13520.224     -12179.497    
     62000   303.80803      676.93685      21183.296      0.93232892    -13512.642     -12144.29     
     63000   291.64959      40.238427      21189.718      0.93204634    -13537.251     -12223.66     
     64000   301.821       -96.628163      20913.926      0.94433722    -13537.899     -12178.496    
     65000   295.40767     -54.482726      20944.779      0.94294618    -13535.9       -12205.382    
     66000   301.79003      695.62217      20801.46       0.94944291    -13532.875     -12173.611    
     67000   300.7784       428.02478      20516.766      0.96261753    -13566.046     -12211.339    
     68000   304.96217     -2714.2764      20554.994      0.96082728    -13598.155     -12224.604    
     69000   298.8352       740.3521       20086.604      0.98323234    -13543.882     -12197.927    
     70000   290.76717      834.47471      20545.306      0.96128033    -13539.741     -12230.125    
     71000   307.91123     -23.156559      20236.925      0.97592885    -13586.615     -12199.782    
     72000   292.25489      274.05249      20066.493      0.98421777    -13554.152     -12237.835    
     73000   289.53654     -755.58976      20284.909      0.97362031    -13549.017     -12244.943    
     74000   304.12631      1800.378       20016.674      0.98666736    -13570.702     -12200.916    
     75000   296.76741     -433.37275      20072.929      0.98390222    -13592.459     -12255.817    
     76000   305.35053     -2342.642       20065.354      0.98427364    -13575.21      -12199.91     
     77000   301.68194     -1792.8906      20031.492      0.98593749    -13567.485     -12208.708    
     78000   289.11346      369.97725      20362.305      0.96991962    -13618.138     -12315.97     
     79000   300.45353      540.7978       20191.454      0.97812662    -13545.732     -12192.488    
     80000   289.57183      838.20129      19834.882      0.99571044    -13526.205     -12221.972    
     81000   295.08465      1533.2224      20015.32       0.98673411    -13631.651     -12302.588    
     82000   297.36603     -193.5903       19926.256      0.99114452    -13555.076     -12215.738    
     83000   304.34296      481.95034      20023.112      0.98635011    -13645.099     -12274.337    
     84000   291.9446       49.400227      20373.168      0.96940245    -13597.285     -12282.366    
     85000   301.95702     -1295.5804      20078.01       0.9836532     -13562.103     -12202.087    
     86000   301.6264       935.45965      19758.049      0.99958244    -13574.593     -12216.066    
     87000   308.11746      1679.5373      20160.507      0.9796281     -13559.329     -12171.567    
     88000   298.68537     -1246.0992      20080.011      0.98355517    -13625.617     -12280.337    
     89000   295.46707     -596.73506      20285.607      0.97358681    -13593.695     -12262.91     
     90000   305.74464      73.585561      20238.007      0.97587669    -13653.741     -12276.666    
     91000   297.31627      190.24571      20046.389      0.98520482    -13637.598     -12298.484    
     92000   316.05484      1906.4494      20200.625      0.97768258    -13556.841     -12133.328    
     93000   293.97916     -1381.3947      20255.295      0.97504378    -13566.575     -12242.492    
     94000   291.82737     -68.735789      20403.063      0.96798208    -13611.239     -12296.847    
     95000   293.61739      1815.2878      19748.577      1.0000619     -13635.327     -12312.873    
     96000   302.74376      56.653674      20320.386      0.97192048    -13623.903     -12260.343    
     97000   301.87251     -1877.8017      20102.91       0.98243484    -13588.617     -12228.982    
     98000   302.23035     -1366.5048      20090.32       0.98305049    -13539.466     -12178.219    
     99000   297.90961      1234.0462      20089.204      0.98310512    -13584.226     -12242.44     
    100000   305.09361      1481.0024      20069.061      0.98409184    -13578.951     -12204.809    
    101000   308.98966      2900.2037      19979.736      0.98849149    -13610.652     -12218.962    
    102000   291.57366      241.72553      20390.619      0.96857281    -13604.851     -12291.602    
    103000   305.51727     -3141.242       19827.979      0.99605708    -13622.711     -12246.66     
    104000   302.26013      448.16694      19958.88       0.98952442    -13618.434     -12257.053    
    105000   297.99543      384.03699      20136.849      0.98077904    -13618.369     -12276.196    
    106000   303.67932      221.35134      20005.325      0.98722708    -13529.539     -12161.766    
    107000   298.72384      1668.5735      19846.708      0.9951171     -13621.233     -12275.779    
    108000   305.09404     -938.76013      19572.682      1.0090492     -13630.45      -12256.305    
    109000   302.47634      214.80241      19499.668      1.0128275     -13648.889     -12286.535    
    110000   303.65023      330.25589      19358.987      1.0201876     -13663.34      -12295.698    
    111000   305.76405      44.315936      19558.18       1.0097974     -13584.782     -12207.62     
    112000   292.40455      947.67665      19356.129      1.0203383     -13628.697     -12311.705    
    113000   299.56957     -1109.0074      19484          1.0136419     -13609.928     -12260.666    
    114000   293.93658      682.22662      19603.594      1.0074581     -13609.255     -12285.363    
    115000   302.56353     -73.684431      19550.961      1.0101703     -13595.075     -12232.328    
    116000   293.45079     -44.624273      19682.869      1.0034004     -13627.555     -12305.851    
    117000   297.34119     -1302.3944      19280.12       1.0243608     -13611.956     -12272.73     
    118000   300.35039     -1487.3809      19478.814      1.0139118     -13626.53      -12273.751    
    119000   298.13485      790.81096      19442.59       1.0158008     -13597.008     -12254.208    
    120000   302.40737     -1643.6518      19453.021      1.0152561     -13650.689     -12288.645    
Loop time of 5095.06 on 2 procs for 100000 steps with 1872 atoms

Performance: 1.696 ns/day, 14.153 hours/ns, 19.627 timesteps/s, 36.741 katom-step/s
97.7% CPU use with 2 MPI tasks x 1 OpenMP threads

MPI task timing breakdown:
Section |  min time  |  avg time  |  max time  |%varavg| %total
---------------------------------------------------------------
Pair    | 1953.2     | 2030.9     | 2108.5     | 172.3 | 39.86
Bond    | 158        | 164.92     | 171.85     |  53.9 |  3.24
Kspace  | 1738.4     | 1810.6     | 1882.8     | 169.7 | 35.54
Neigh   | 148.29     | 148.63     | 148.97     |   2.8 |  2.92
Comm    | 257.17     | 257.84     | 258.51     |   4.2 |  5.06
Output  | 2.5566     | 2.6112     | 2.6658     |   3.4 |  0.05
Modify  | 586.03     | 586.58     | 587.13     |   2.3 | 11.51
Other   |            | 93.01      |            |       |  1.83

Nlocal:            936 ave         962 max         910 min
Histogram: 1 0 0 0 0 0 0 0 0 1
Nghost:           8406 ave        8528 max        8284 min
Histogram: 1 0 0 0 0 0 0 0 0 1
Neighs:         331222 ave      343160 max      319283 min
Histogram: 1 0 0 0 0 0 0 0 0 1

Total # of neighbors = 662443
Ave neighs/atom = 353.86912
Ave special neighs/atom = 8.6923077
Neighbor list builds = 3057
Dangerous builds = 0
unfix NPTEQ
write_data data.after_equilibration.lmp
System init for write_data ...
PPPM initialization ...
  using 12-bit tables for long-range coulomb
  G vector (1/distance) = 0.29323947
  grid = 20 20 20
  stencil order = 5
  estimated absolute RMS force accuracy = 0.0024976469
  estimated relative force accuracy = 7.5215894e-06
  using double precision FFTW3
  3d grid and FFT values/proc = 12393 4000
Generated 66 of 66 mixed pair_coeff terms from geometric mixing rule

# --- 4. NPT production - this is the trajectory you analyse ----------------
print "RENEU >>> stage 4 of 4: NPT production"
RENEU >>> stage 4 of 4: NPT production
reset_timestep 0
fix NPTPROD all npt temp ${TK} ${TK} 100 iso ${PBAR} ${PBAR} 1000
fix NPTPROD all npt temp 300 ${TK} 100 iso ${PBAR} ${PBAR} 1000
fix NPTPROD all npt temp 300 300 100 iso ${PBAR} ${PBAR} 1000
fix NPTPROD all npt temp 300 300 100 iso 1 ${PBAR} 1000
fix NPTPROD all npt temp 300 300 100 iso 1 1 1000
fix DENSAVG all ave/time 10 100 1000 v_dens v_vol file density.dat

dump TRAJ all custom 500 dump.lammpstrj id mol type element q xu yu zu
dump_modify TRAJ element N C H C H O H H C C O H

run ${PRODRUN}
run 200000
PPPM initialization ...
  using 12-bit tables for long-range coulomb
  G vector (1/distance) = 0.29323947
  grid = 20 20 20
  stencil order = 5
  estimated absolute RMS force accuracy = 0.0024976469
  estimated relative force accuracy = 7.5215894e-06
  using double precision FFTW3
  3d grid and FFT values/proc = 12393 4000
Generated 66 of 66 mixed pair_coeff terms from geometric mixing rule
Per MPI rank memory allocation (min/avg/max) = 15.33 | 15.34 | 15.34 Mbytes
   Step          Temp          Press          Volume         v_dens         PotEng         TotEng    
         0   302.40737     -1590.3204      19453.021      1.0152561     -13650.65      -12288.606    
      1000   307.14006      326.50648      19099.194      1.0340645     -13593.305     -12209.945    
      2000   302.01764     -2536.2931      19079.149      1.0351509     -13612.653     -12252.364    
      3000   294.95595      314.60343      19391.402      1.0184823     -13663.889     -12335.407    
      4000   307.60535     -768.38425      19386.02       1.018765      -13604.512     -12219.056    
      5000   298.99808     -1305.5712      19265.306      1.0251485     -13619.506     -12272.817    
      6000   303.61343     -626.86945      19277.191      1.0245164     -13640.005     -12272.529    
      7000   295.73217     -176.54798      19315.558      1.0224814     -13665.874     -12333.895    
      8000   293.59021     -1413.4955      19373.966      1.0193989     -13602.285     -12279.953    
      9000   313.09824     -954.51664      19554.409      1.0099921     -13581.567     -12171.371    
     10000   297.72006      1654.7185      19118.448      1.0330231     -13635.594     -12294.662    
     11000   304.60987     -1065.9128      19192.17       1.029055      -13573.818     -12201.854    
     12000   291.56517     -1115.9003      19234.96       1.0267658     -13630.93      -12317.719    
     13000   299.23407      1061.7713      19151.958      1.0312157     -13626.292     -12278.541    
     14000   295.37212      182.95471      19386.216      1.0187547     -13564.363     -12234.006    
     15000   297.42711      882.55723      19292.099      1.0237247     -13662.391     -12322.778    
     16000   301.3374      -820.64584      19206.542      1.028285      -13604.204     -12246.979    
     17000   305.60491     -1506.6934      19269.634      1.0249182     -13634.329     -12257.883    
     18000   306.60003      578.48718      19345.361      1.0209062     -13648.985     -12268.057    
     19000   302.97045     -650.67637      19496.666      1.0129834     -13661.632     -12297.052    
     20000   288.27266      335.75999      19086.638      1.0347448     -13601.529     -12303.148    
     21000   294.31351      1032.1309      19024.593      1.0381194     -13629.238     -12303.649    
     22000   294.84412      257.09784      19046.526      1.036924      -13626.517     -12298.538    
     23000   297.78399      1677.9919      19030.623      1.0377905     -13609.969     -12268.749    
     24000   302.99365     -1851.7392      19218.509      1.0276447     -13595.582     -12230.897    
     25000   306.16587      523.73148      19032.537      1.0376861     -13627.667     -12248.695    
     26000   298.38744      821.07676      19122.002      1.0328311     -13646.056     -12302.118    
     27000   294.01766      2215.6233      18931.97       1.0431983     -13653.653     -12329.397    
     28000   300.24681     -1559.1554      19193.275      1.0289958     -13662.873     -12310.56     
     29000   296.05383      1137.7405      19051.194      1.0366699     -13597.962     -12264.535    
     30000   298.98833      182.27571      19172.873      1.0300907     -13634.148     -12287.504    
     31000   303.01916      1080.6103      19208.066      1.0282034     -13633.584     -12268.784    
     32000   291.58827      1484.2431      18982.038      1.0404467     -13678.352     -12365.037    
     33000   303.8737       2239.6896      18950.662      1.0421694     -13668.415     -12299.767    
     34000   290.77617      1190.0863      18967.561      1.0412408     -13646.207     -12336.55     
     35000   304.46655      377.1703       19286.46       1.024024      -13654.139     -12282.821    
     36000   293.95471     -1077.6302      19318.233      1.0223398     -13679.671     -12355.698    
     37000   293.39115      1805.5294      19133.737      1.0321977     -13658.078     -12336.643    
     38000   309.31322      14.594922      19321.583      1.0221626     -13651.568     -12258.42     
     39000   311.14774      409.68621      18985.698      1.0402461     -13607.98      -12206.57     
     40000   315.74271      1438.4433      19250.186      1.0259537     -13704.56      -12282.454    
     41000   285.85488     -581.44559      18810.477      1.0499361     -13687.692     -12400.201    
     42000   293.2813       896.15815      19288.084      1.0239378     -13656.202     -12335.262    
     43000   301.80939      824.58875      19159.072      1.0308328     -13642.02      -12282.669    
     44000   316.15683      1779.7223      19410.508      1.0174798     -13664.462     -12240.49     
     45000   299.08062      1020.103       19042.147      1.0371624     -13640.817     -12293.757    
     46000   303.68469     -1387.4263      19279.037      1.0244183     -13620.868     -12253.071    
     47000   303.79916     -935.72659      19041.193      1.0372144     -13671.797     -12303.484    
     48000   299.3262      -910.10968      19098.832      1.0340841     -13697.123     -12348.956    
     49000   297.51668     -571.53512      18958.819      1.0417209     -13624.169     -12284.152    
     50000   296.84373     -749.20485      19165.234      1.0305013     -13673.913     -12336.928    
     51000   311.35058     -2202.0068      19273.568      1.024709      -13678.878     -12276.554    
     52000   307.16619     -37.807722      19082.719      1.0349573     -13652.965     -12269.487    
     53000   297.4449       1230.0072      19135.767      1.0320882     -13670.58      -12330.887    
     54000   319.80885      1900.6623      19059.461      1.0362202     -13683.386     -12242.965    
     55000   294.54153      1721.5582      19031.814      1.0377255     -13660.335     -12333.718    
     56000   296.98858     -1266.9999      19204.737      1.0283817     -13663.911     -12326.274    
     57000   312.10251     -2082.0557      19353.857      1.020458      -13677.623     -12271.912    
     58000   303.0115       1118.4562      19056.325      1.0363908     -13654.435     -12289.67     
     59000   302.02626     -376.2587       18942.755      1.0426044     -13619.143     -12258.816    
     60000   302.74039      1004.125       19141.568      1.0317754     -13642.988     -12279.444    
     61000   295.04263      1301.2055      18985.157      1.0402758     -13689.018     -12360.145    
     62000   291.15562     -886.87135      18903.097      1.0447917     -13624.349     -12312.983    
     63000   307.85946     -1295.8196      19132.737      1.0322516     -13645.471     -12258.871    
     64000   301.36691      1140.093       19057.18       1.0363443     -13654.221     -12296.863    
     65000   296.33339      55.059019      18885.05       1.0457901     -13715.155     -12380.468    
     66000   295.18084      2001.8771      18950.584      1.0421736     -13635.356     -12305.86     
     67000   292.38399     -1016.433       18777.7        1.0517688     -13673.13      -12356.231    
     68000   296.49475     -615.85885      18981.832      1.040458      -13669.613     -12334.2      
     69000   299.35292      123.86725      19119.689      1.0329561     -13627.045     -12278.758    
     70000   291.17645     -1230.8846      19046.877      1.0369048     -13627.905     -12316.445    
     71000   287.37155     -551.95869      18901.223      1.0448953     -13554.121     -12259.798    
     72000   307.75823     -361.71064      19093.004      1.0343998     -13636.529     -12250.385    
     73000   291.97427     -517.80329      18687.581      1.0568409     -13688.385     -12373.332    
     74000   303.75093     -1811.2015      18855.327      1.0474387     -13645.668     -12277.572    
     75000   290.16664      1139.2401      19123.354      1.0327581     -13654.039     -12347.127    
     76000   302.66657      188.3942       18978.713      1.040629      -13646.94      -12283.728    
     77000   306.47795     -1674.8441      18901.967      1.0448541     -13649.712     -12269.334    
     78000   289.41226      108.61552      18951.357      1.0421311     -13663.161     -12359.647    
     79000   309.24406     -327.10368      18967.196      1.0412609     -13671.047     -12278.21     
     80000   295.54276     -2290.1298      19162.927      1.0306254     -13635.741     -12304.615    
     81000   301.6618       242.61475      19322.725      1.0221022     -13616.855     -12258.169    
     82000   284.07089     -758.86971      19234.098      1.0268118     -13680.485     -12401.029    
     83000   291.31253      159.78667      18842.457      1.0481541     -13608.587     -12296.515    
     84000   299.58598      441.64655      18830.88       1.0487985     -13640.511     -12291.174    
     85000   302.93011     -158.84515      19033.68       1.0376238     -13675.168     -12310.77     
     86000   292.73764      1010.4385      18785.43       1.051336      -13717.695     -12399.204    
     87000   301.51247      87.765569      19002.69       1.0393159     -13636.525     -12278.511    
     88000   297.22987      1619.3372      18630.039      1.0601051     -13631.359     -12292.635    
     89000   288.13491     -947.65232      18890.775      1.0454732     -13647.182     -12349.421    
     90000   291.60125      1913.4909      18617.452      1.0608218     -13620.685     -12307.311    
     91000   303.43254     -1833.6098      18858.732      1.0472495     -13668.349     -12301.687    
     92000   300.15808     -1090.7187      18766.583      1.0523918     -13683.289     -12331.376    
     93000   299.61854     -964.80611      18820.795      1.0493605     -13602.724     -12253.241    
     94000   302.59934      1900.3515      18776.125      1.051857      -13672.032     -12309.124    
     95000   303.06432     -110.32736      18903.417      1.044774      -13656.915     -12291.912    
     96000   295.70819     -1149.9953      18563.417      1.0639097     -13683.621     -12351.75     
     97000   297.72295     -414.17486      18779.822      1.05165       -13643.424     -12302.479    
     98000   302.61138      1503.1314      18715.271      1.0552772     -13679.864     -12316.901    
     99000   296.24631      374.81961      18675.306      1.0575355     -13648.202     -12313.908    
    100000   300.30331     -2344.6148      18710.463      1.0555484     -13677.059     -12324.491    
    101000   306.73129     -1003.9415      18850.376      1.0477138     -13625.755     -12244.236    
    102000   293.34833      469.87638      18587.974      1.0625041     -13680.416     -12359.174    
    103000   292.41665     -680.62361      18381.148      1.0744595     -13664.561     -12347.515    
    104000   300.85397      466.20799      18529.489      1.0658577     -13690.72      -12335.672    
    105000   295.5192       27.926119      18549.129      1.0647292     -13686.507     -12355.488    
    106000   309.959        640.73833      18290.36       1.0797928     -13676.262     -12280.206    
    107000   304.32707      124.16075      18721.827      1.0549077     -13670.408     -12299.717    
    108000   288.43679      229.30904      18469.049      1.0693458     -13709.977     -12410.856    
    109000   302.07745     -372.78352      18631.504      1.0600217     -13644.3       -12283.742    
    110000   297.71358     -470.84622      18539.241      1.0652971     -13691.572     -12350.669    
    111000   298.90547     -1199.3252      18573.657      1.0633231     -13647.015     -12300.743    
    112000   302.53767     -373.96355      18410.501      1.0727464     -13683.251     -12320.62     
    113000   294.15206     -1119.8429      18485.084      1.0684182     -13691.509     -12366.647    
    114000   306.45069      2476.708       18370.362      1.0750904     -13675.517     -12295.262    
    115000   296.09341      555.7562       18454.492      1.0701893     -13634.048     -12300.442    
    116000   308.35862      2493.1061      18519.382      1.0664394     -13674.327     -12285.478    
    117000   311.05063      1510.4547      18470.327      1.0692717     -13659.159     -12258.185    
    118000   295.10411      2037.4063      18395.884      1.0735988     -13686.598     -12357.448    
    119000   305.59319      949.6437       18663.904      1.0581816     -13692.497     -12316.104    
    120000   291.53861      544.06035      18516.989      1.0665772     -13675.004     -12361.913    
    121000   294.86642      313.90402      18406.659      1.0729703     -13713.977     -12385.897    
    122000   298.59791     -240.82285      18567.682      1.0636653     -13646.333     -12301.447    
    123000   310.79961     -1607.8548      18506.335      1.0671913     -13645.869     -12246.026    
    124000   303.36005     -28.746102      18460.988      1.0698127     -13673.733     -12307.398    
    125000   304.83989     -471.47996      18447.647      1.0705863     -13680.668     -12307.668    
    126000   297.60471     -1921.463       18561.708      1.0640076     -13607.265     -12266.852    
    127000   294.44573      351.63845      18501.779      1.0674541     -13654.798     -12328.613    
    128000   297.77241      696.06802      18540.361      1.0652327     -13673.749     -12332.581    
    129000   307.23817      1221.6397      18479.076      1.0687655     -13630.875     -12247.073    
    130000   298.3317      -336.13845      18724.98       1.0547301     -13665.869     -12322.182    
    131000   305.40641     -1209.9974      18865.439      1.0468773     -13680.919     -12305.367    
    132000   305.99837     -398.2245       18700.708      1.056099      -13678.114     -12299.896    
    133000   297.79408      458.16353      18695.882      1.0563716     -13648.074     -12306.808    
    134000   300.87633      1248.2579      18830.695      1.0488088     -13631.064     -12275.916    
    135000   285.85694     -956.8684       18962.54       1.0415165     -13656.824     -12369.323    
    136000   297.10459      755.3076       18730.598      1.0544137     -13667.677     -12329.517    
    137000   307.54609     -417.49098      18675.006      1.0575525     -13716.072     -12330.883    
    138000   306.95695     -351.8988       18524.714      1.0661325     -13649.431     -12266.896    
    139000   301.78874     -1112.7102      18795.888      1.050751      -13657.706     -12298.448    
    140000   300.0353      -2600.8552      18946.309      1.0424088     -13686.162     -12334.802    
    141000   301.85979      147.82551      18652.425      1.0588328     -13673.45      -12313.873    
    142000   305.10747     -505.32829      18842.942      1.0481271     -13663.154     -12288.949    
    143000   300.19974     -1881.4969      18853.595      1.0475349     -13694.098     -12341.997    
    144000   298.91242      613.00871      18585.11       1.0626678     -13671.75      -12325.447    
    145000   293.64735      2389.4935      18657.019      1.0585721     -13718.12      -12395.531    
    146000   301.75258      152.27886      18605.19       1.061521      -13624.036     -12264.941    
    147000   297.04601     -1069.5431      18632.939      1.0599401     -13699.679     -12361.782    
    148000   296.11022      838.59412      18401.361      1.0732793     -13688.021     -12354.34     
    149000   302.99978     -887.27093      18439.517      1.0710584     -13660.624     -12295.912    
    150000   304.13734     -335.37293      18775.145      1.051912      -13625.877     -12256.041    
    151000   300.74267     -1058.0481      18552.502      1.0645356     -13624.015     -12269.469    
    152000   294.79267     -771.87594      18477.495      1.0688569     -13730.835     -12403.087    
    153000   304.47672     -1490.6457      18589.298      1.0624284     -13676.392     -12305.028    
    154000   291.07327      877.81457      18506.508      1.0671813     -13655.8       -12344.805    
    155000   307.91418     -2129.1454      18559.536      1.0641322     -13715.016     -12328.169    
    156000   303.74435     -1227.3779      18799.463      1.0505512     -13573.296     -12205.23     
    157000   298.69901     -67.545548      18808.756      1.0500322     -13664.807     -12319.465    
    158000   285.96537     -756.68461      18633.424      1.0599125     -13631.233     -12343.244    
    159000   304.37785     -1453.733       18321.296      1.0779695     -13646.624     -12275.705    
    160000   294.91664      239.06305      18549.595      1.0647025     -13649.454     -12321.149    
    161000   297.06629     -1456.3259      18411.323      1.0726985     -13688.55      -12350.562    
    162000   301.27217     -949.42291      18294.93       1.0795231     -13662.665     -12305.734    
    163000   297.81211      880.29117      18488.14       1.0682415     -13690.327     -12348.98     
    164000   288.2927      -2355.6512      18576.791      1.0631437     -13655.905     -12357.433    
    165000   304.67761     -1625.5287      18618.008      1.0607901     -13652.192     -12279.923    
    166000   289.00019     -879.90819      18737.242      1.0540398     -13655.563     -12353.905    
    167000   292.88251     -842.35477      18603.875      1.061596      -13606.881     -12287.737    
    168000   300.07647     -404.11819      18562.693      1.0639512     -13680.367     -12328.821    
    169000   301.29484     -494.46383      18612.294      1.0611158     -13656.984     -12299.951    
    170000   292.09211     -1325.4505      18593.502      1.0621882     -13683.901     -12368.317    
    171000   299.73695      1114.7955      18399.49       1.0733884     -13667.235     -12317.218    
    172000   313.91666     -1591.2468      18644.704      1.0592712     -13702.425     -12288.543    
    173000   294.53063      1786.173       18460.481      1.0698421     -13698.943     -12372.376    
    174000   299.10901      1227.5324      18661.93       1.0582935     -13606.193     -12259.005    
    175000   295.04218     -1994.7046      18473.231      1.0691036     -13675.612     -12346.741    
    176000   297.94033     -1199.6676      18558.465      1.0641935     -13636.137     -12294.212    
    177000   306.20503     -596.07005      18675.567      1.0575207     -13644.152     -12265.003    
    178000   299.06365     -924.56769      18487.278      1.0682914     -13654.701     -12307.717    
    179000   291.60045     -545.84673      18604.088      1.0615838     -13686.212     -12372.842    
    180000   304.73222     -63.926109      18636.076      1.0597617     -13706.693     -12334.178    
    181000   310.76061      751.10852      18540.863      1.0652039     -13665.896     -12266.229    
    182000   290.0476      -1452.0988      18640.375      1.0595172     -13658.976     -12352.6      
    183000   310.8249      -1805.8888      18411.274      1.0727014     -13708.065     -12308.108    
    184000   297.01751      1883.0418      18567.191      1.0636934     -13666.326     -12328.558    
    185000   305.27022     -1528.9331      18610.28       1.0612306     -13676.153     -12301.214    
    186000   290.87652     -96.097095      18564.789      1.0638311     -13672.936     -12362.827    
    187000   304.26647      1073.6395      18611.745      1.0611471     -13691.972     -12321.554    
    188000   303.82096     -2333.9934      18809.606      1.0499847     -13641.445     -12273.034    
    189000   295.93852      120.35242      18690.544      1.0566733     -13728.122     -12395.213    
    190000   303.67751     -2296.176       18645.375      1.0592331     -13660.864     -12293.099    
    191000   286.09324     -28.424885      18325.952      1.0776957     -13685.577     -12397.012    
    192000   306.71884     -693.78457      18650.851      1.0589221     -13680.984     -12299.521    
    193000   287.34554     -837.83107      18641.361      1.0594612     -13686.663     -12392.457    
    194000   303.65155      292.35444      18786.368      1.0512835     -13687.544     -12319.896    
    195000   303.81804     -863.67645      18438.78       1.0711012     -13655.345     -12286.947    
    196000   306.89145      1179.9949      18581.861      1.0628537     -13720.993     -12338.753    
    197000   309.15636     -134.71671      18570.769      1.0634885     -13665.894     -12273.453    
    198000   297.85135      1631.2925      18493.433      1.0679358     -13705.197     -12363.674    
    199000   300.28763     -2582.9192      18921.29       1.0437871     -13692.953     -12340.456    
    200000   295.65886      286.51948      18568.798      1.0636013     -13688.73      -12357.081    
Loop time of 8546.24 on 2 procs for 200000 steps with 1872 atoms

Performance: 2.022 ns/day, 11.870 hours/ns, 23.402 timesteps/s, 43.809 katom-step/s
98.0% CPU use with 2 MPI tasks x 1 OpenMP threads

MPI task timing breakdown:
Section |  min time  |  avg time  |  max time  |%varavg| %total
---------------------------------------------------------------
Pair    | 4437       | 4516.9     | 4596.7     | 118.8 | 52.85
Bond    | 313.69     | 326.28     | 338.88     |  69.7 |  3.82
Kspace  | 1998.9     | 2066.7     | 2134.5     | 149.1 | 24.18
Neigh   | 307.83     | 308.31     | 308.78     |   2.7 |  3.61
Comm    | 394.56     | 395.67     | 396.78     |   5.6 |  4.63
Output  | 17.377     | 17.382     | 17.387     |   0.1 |  0.20
Modify  | 773.72     | 777.55     | 781.38     |  13.7 |  9.10
Other   |            | 137.5      |            |       |  1.61

Nlocal:            936 ave         961 max         911 min
Histogram: 1 0 0 0 0 0 0 0 0 1
Nghost:           8656 ave        8763 max        8549 min
Histogram: 1 0 0 0 0 0 0 0 0 1
Neighs:         345230 ave      358937 max      331523 min
Histogram: 1 0 0 0 0 0 0 0 0 1

Total # of neighbors = 690460
Ave neighs/atom = 368.83547
Ave special neighs/atom = 8.6923077
Neighbor list builds = 6162
Dangerous builds = 0

write_data data.final.lmp
System init for write_data ...
PPPM initialization ...
  using 12-bit tables for long-range coulomb
  G vector (1/distance) = 0.29442943
  grid = 20 20 20
  stencil order = 5
  estimated absolute RMS force accuracy = 0.0023837526
  estimated relative force accuracy = 7.1786002e-06
  using double precision FFTW3
  3d grid and FFT values/proc = 12393 4000
Generated 66 of 66 mixed pair_coeff terms from geometric mixing rule
print "RENEU >>> finished. trajectory = dump.lammpstrj, density log = density.dat"
RENEU >>> finished. trajectory = dump.lammpstrj, density log = density.dat
Total wall time: 3:58:10
