LAMMPS (10 Dec 2025)
OMP_NUM_THREADS environment is not set. Defaulting to 1 thread.
  using 1 OpenMP thread(s) per MPI task
# created by fftool

units real
boundary p p p

atom_style full
bond_style harmonic
angle_style harmonic
dihedral_style opls

special_bonds lj/coul 0.0 0.0 0.5

# remove hybrid if not necessary
pair_style hybrid lj/cut/coul/long 10.0 10.0
pair_modify mix geometric tail yes
read_data data.lmp
Reading data file ...
  orthogonal box = (0 0 0) to (35.31 35.31 35.31)
  1 by 1 by 2 MPI processor grid
  reading atoms ...
  2860 atoms
  scanning bonds ...
  1 = max bonds/atom
  scanning angles ...
  6 = max angles/atom
  scanning dihedrals ...
  9 = max dihedrals/atom
  orthogonal box = (0 0 0) to (35.31 35.31 35.31)
  1 by 1 by 2 MPI processor grid
  reading bonds ...
  2568 bonds
  reading angles ...
  4263 angles
  reading dihedrals ...
  5415 dihedrals
Finding 1-2 1-3 1-4 neighbors ...
  special bond factors lj:    0        0        0.5     
  special bond factors coul:  0        0        0.5     
     4 = max # of 1-2 neighbors
    12 = max # of 1-3 neighbors
    16 = max # of 1-4 neighbors
    20 = max # of special neighbors
  special bonds CPU = 0.422 seconds
  read_data CPU = 1.126 seconds
# read_restart restart1.lmp

kspace_style pppm 1.0e-5

# remove pair style if not using hybrid
pair_coeff    1    1 lj/cut/coul/long     0.170000     3.250000  # N4 N4
pair_coeff    2    2 lj/cut/coul/long     0.065999     3.500000  # C1 C1
pair_coeff    3    3 lj/cut/coul/long     0.065999     3.500000  # C1C C1C
pair_coeff    4    4 lj/cut/coul/long     0.030000     2.500000  # H1 H1
pair_coeff    5    5 lj/cut/coul/long     0.065999     3.500000  # CTOC CTOC
pair_coeff    6    6 lj/cut/coul/long     0.170000     3.120000  # OH OH
pair_coeff    7    7 lj/cut/coul/long     0.030000     2.500000  # H1O H1O
pair_coeff    8    8 lj/cut/coul/long     0.000000     1.000000  # HO HO
pair_coeff    9    9 lj/cut/coul/long     0.105000     3.750000  # CO2 CO2
pair_coeff   10   10 lj/cut/coul/long     0.065999     3.500000  # C2C C2C
pair_coeff   11   11 lj/cut/coul/long     0.210000     2.960000  # O2 O2
pair_coeff   12   12 lj/cut/coul/long     0.065999     3.500000  # CS CS
pair_coeff   13   13 lj/cut/coul/long     0.030000     2.500000  # HC HC
pair_coeff   14   14 lj/cut/coul/long     0.065999     3.500000  # CT CT
pair_coeff   15   15 lj/cut/coul/long     0.000000     1.000000  # Hw Hw
pair_coeff   16   16 lj/cut/coul/long     0.155425     3.165500  # Ow Ow
pair_coeff   17   17 lj/cut/coul/long     0.125643     2.995200  # Nd Nd

# minimize 1.0e-4 1.0e-6 100 1000
# reset_timestep 0

fix SHAKE all shake 0.0001 20 0 b 2 5 8
Finding SHAKE clusters ...
      48 = # of size 2 clusters
     594 = # of size 3 clusters
     195 = # of size 4 clusters
       0 = # of frozen angles
  find clusters CPU = 0.076 seconds

neighbor 2.0 bin
neigh_modify delay 0 every 1 check yes








#fix VAVG all ave/time 10 1000 50000 v_vinst

# ---------------------------------------------------------------------------
# RENEU 2026 simulation protocol (stage3b M7 choline octanoate)
# 1 minimise  2 NVT relaxation  3 NPT equilibration  4 NPT production
# ---------------------------------------------------------------------------
timestep 1.0

variable TK      equal 300.0
variable PBAR    equal 1.0
variable NVTRUN  equal 20000
variable EQRUN   equal 100000
variable PRODRUN equal 200000

variable dens equal density
variable vol  equal vol

thermo 1000
thermo_style custom step temp press vol v_dens pe etotal

# --- 1. energy minimisation ------------------------------------------------
print "RENEU >>> stage 1 of 4: energy minimisation"
RENEU >>> stage 1 of 4: energy minimisation
minimize 1.0e-4 1.0e-6 10000 100000
PPPM initialization ...
  using 12-bit tables for long-range coulomb
  G vector (1/distance) = 0.28619079
  grid = 24 24 24
  stencil order = 5
  estimated absolute RMS force accuracy = 0.0026689616
  estimated relative force accuracy = 8.0374985e-06
  using double precision FFTW3
  3d grid and FFT values/proc = 18259 6912
Generated 136 of 136 mixed pair_coeff terms from geometric mixing rule
WARNING: Using fix shake with minimization.
  Substituting constraints with harmonic restraint forces using kbond=1987206.7 (src/RIGID/fix_shake.cpp:397)
Neighbor list info ...
  update: every = 1 steps, delay = 0 steps, check = yes
  max neighbors/atom: 2000, page size: 100000
  master list distance cutoff = 12
  ghost atom cutoff = 12
  binsize = 6, bins = 6 6 6
  1 neighbor lists, perpetual/occasional/extra = 1 0 0
  (1) pair lj/cut/coul/long, perpetual
      attributes: half, newton on
      pair build: half/bin/newton
      stencil: half/bin/3d
      bin: standard
Per MPI rank memory allocation (min/avg/max) = 17.33 | 17.52 | 17.71 Mbytes
   Step          Temp          Press          Volume         v_dens         PotEng         TotEng    
         0   0             -9889537.3      44024.37       0.59998768     179636.34      179636.34    
        49   0              16822.985      44024.37       0.59998768     71.090708      71.090708    
Loop time of 22.018 on 2 procs for 49 steps with 2860 atoms

94.4% CPU use with 2 MPI tasks x 1 OpenMP threads

Minimization stats:
  Stopping criterion = energy tolerance
  Energy initial, next-to-last, final = 
      179636.336886623   71.0940561817829   71.0907079390013
  Force two-norm initial, final = 1601987.5 1262.1773
  Force max component initial, final = 121921.12 244.01552
  Final line search alpha, max atom move = 5.0623228e-05 0.012352853
  Iterations, force evaluations = 49 214

MPI task timing breakdown:
Section |  min time  |  avg time  |  max time  |%varavg| %total
---------------------------------------------------------------
Pair    | 7.4749     | 8.9025     | 10.33      |  47.8 | 40.43
Bond    | 0.4448     | 0.58195    | 0.7191     |  18.0 |  2.64
Kspace  | 7.9155     | 9.5174     | 11.119     |  51.9 | 43.23
Neigh   | 0          | 0          | 0          |   0.0 |  0.00
Comm    | 2.1614     | 2.2057     | 2.25       |   3.0 | 10.02
Output  | 0          | 0          | 0          |   0.0 |  0.00
Modify  | 0.11948    | 0.11991    | 0.12033    |   0.1 |  0.54
Other   |            | 0.6906     |            |       |  3.14

Nlocal:           1430 ave        1703 max        1157 min
Histogram: 1 0 0 0 0 0 0 0 0 1
Nghost:           7727 ave        8404 max        7050 min
Histogram: 1 0 0 0 0 0 0 0 0 1
Neighs:         373208 ave      446774 max      299641 min
Histogram: 1 0 0 0 0 0 0 0 0 1

Total # of neighbors = 746415
Ave neighs/atom = 260.98427
Ave special neighs/atom = 8.527972
Neighbor list builds = 0
Dangerous builds = 0
reset_timestep 0

# --- 2. NVT relaxation (lets the packed box relax before the barostat) ------
print "RENEU >>> stage 2 of 4: NVT relaxation"
RENEU >>> stage 2 of 4: NVT relaxation
velocity all create ${TK} 12345 mom yes rot yes dist gaussian
velocity all create 300 12345 mom yes rot yes dist gaussian
fix NVTRELAX all nvt temp ${TK} ${TK} 100
fix NVTRELAX all nvt temp 300 ${TK} 100
fix NVTRELAX all nvt temp 300 300 100
run ${NVTRUN}
run 20000
PPPM initialization ...
  using 12-bit tables for long-range coulomb
  G vector (1/distance) = 0.28619079
  grid = 24 24 24
  stencil order = 5
  estimated absolute RMS force accuracy = 0.0026689616
  estimated relative force accuracy = 8.0374985e-06
  using double precision FFTW3
  3d grid and FFT values/proc = 18259 6912
Generated 136 of 136 mixed pair_coeff terms from geometric mixing rule
Per MPI rank memory allocation (min/avg/max) = 16.21 | 16.4 | 16.59 Mbytes
   Step          Temp          Press          Volume         v_dens         PotEng         TotEng    
         0   300            14484.967      44024.37       0.59998768     70.979931      2084.8152    
      1000   300.44041     -232.91156      44024.37       0.59998768    -5863.9237     -3847.132     
      2000   299.52492     -305.41772      44024.37       0.59998768    -6242.1752     -4231.529     
      3000   294.03996     -739.58987      44024.37       0.59998768    -6289.8612     -4316.0345    
      4000   304.65321     -869.50017      44024.37       0.59998768    -6413.9348     -4368.8635    
      5000   303.54454     -542.06954      44024.37       0.59998768    -6592.1929     -4554.564     
      6000   297.81136     -1113.7802      44024.37       0.59998768    -6644.6417     -4645.4982    
      7000   294.48722     -1105.1715      44024.37       0.59998768    -6685.3562     -4708.527     
      8000   296.84975     -1105.195       44024.37       0.59998768    -6768.9187     -4776.2304    
      9000   301.77952      258.54037      44024.37       0.59998768    -6810.6219     -4784.8411    
     10000   297.31164     -734.08129      44024.37       0.59998768    -6919.9491     -4924.1603    
     11000   303.76074     -1120.4375      44024.37       0.59998768    -6878.0684     -4838.9881    
     12000   290.10953     -1382.0292      44024.37       0.59998768    -6847.618      -4900.1753    
     13000   290.61799     -1104.2321      44024.37       0.59998768    -6866.2503     -4915.3945    
     14000   302.22294     -400.01314      44024.37       0.59998768    -6961.9034     -4933.146     
     15000   295.06706     -913.64612      44024.37       0.59998768    -6963.8242     -4983.1027    
     16000   295.45158     -80.984846      44024.37       0.59998768    -7000.4653     -5017.1625    
     17000   304.42945     -1210.5198      44024.37       0.59998768    -6912.214      -4868.6448    
     18000   297.26519     -313.65431      44024.37       0.59998768    -6996.2846     -5000.8075    
     19000   301.04902     -84.818701      44024.37       0.59998768    -7062.8968     -5042.0197    
     20000   302.44618      139.93461      44024.37       0.59998768    -6975.3366     -4945.0807    
Loop time of 1039.69 on 2 procs for 20000 steps with 2860 atoms

Performance: 1.662 ns/day, 14.440 hours/ns, 19.236 timesteps/s, 55.016 katom-step/s
97.6% CPU use with 2 MPI tasks x 1 OpenMP threads

MPI task timing breakdown:
Section |  min time  |  avg time  |  max time  |%varavg| %total
---------------------------------------------------------------
Pair    | 462.72     | 517.71     | 572.71     | 241.7 | 49.79
Bond    | 33.231     | 41.033     | 48.836     | 121.8 |  3.95
Kspace  | 293.51     | 352.4      | 411.29     | 313.7 | 33.89
Neigh   | 57.213     | 57.35      | 57.487     |   1.8 |  5.52
Comm    | 36.147     | 39.478     | 42.808     |  53.0 |  3.80
Output  | 0.0027709  | 0.013126   | 0.023481   |   9.0 |  0.00
Modify  | 26.323     | 27.031     | 27.739     |  13.6 |  2.60
Other   |            | 4.677      |            |       |  0.45

Nlocal:           1430 ave        1690 max        1170 min
Histogram: 1 0 0 0 0 0 0 0 0 1
Nghost:         7496.5 ave        8431 max        6562 min
Histogram: 1 0 0 0 0 0 0 0 0 1
Neighs:         410291 ave      450800 max      369782 min
Histogram: 1 0 0 0 0 0 0 0 0 1

Total # of neighbors = 820582
Ave neighs/atom = 286.91678
Ave special neighs/atom = 8.527972
Neighbor list builds = 941
Dangerous builds = 0
unfix NVTRELAX

# --- 3. NPT equilibration (this is where the density finds its own value) ---
# restart files are written every 25000 steps. If the run stops for any
# reason you can pick up from the last one instead of starting over:
#     read_restart rst_a.lmp      (or rst_b.lmp, whichever is newer)
print "RENEU >>> stage 3 of 4: NPT equilibration - watch the density column"
RENEU >>> stage 3 of 4: NPT equilibration - watch the density column
restart 25000 rst_a.lmp rst_b.lmp
fix NPTEQ all npt temp ${TK} ${TK} 100 iso ${PBAR} ${PBAR} 1000
fix NPTEQ all npt temp 300 ${TK} 100 iso ${PBAR} ${PBAR} 1000
fix NPTEQ all npt temp 300 300 100 iso ${PBAR} ${PBAR} 1000
fix NPTEQ all npt temp 300 300 100 iso 1 ${PBAR} 1000
fix NPTEQ all npt temp 300 300 100 iso 1 1 1000
run ${EQRUN}
run 100000
PPPM initialization ...
  using 12-bit tables for long-range coulomb
  G vector (1/distance) = 0.28619079
  grid = 24 24 24
  stencil order = 5
  estimated absolute RMS force accuracy = 0.0026689616
  estimated relative force accuracy = 8.0374985e-06
  using double precision FFTW3
  3d grid and FFT values/proc = 18259 6912
Generated 136 of 136 mixed pair_coeff terms from geometric mixing rule
Per MPI rank memory allocation (min/avg/max) = 16.59 | 16.59 | 16.59 Mbytes
   Step          Temp          Press          Volume         v_dens         PotEng         TotEng    
     20000   302.44618      140.00498      44024.37       0.59998768    -6975.3366     -4945.0807    
     21000   296.68419     -441.25744      40883.657      0.64607918    -7083.6106     -5092.0337    
     22000   297.63406     -751.42055      38612.448      0.68408198    -7094.2639     -5096.3107    
     23000   306.846       -57.512504      38293.627      0.68977744    -7103.3595     -5043.5685    
     24000   302.86725      622.42983      36774.382      0.71827393    -7153.3875     -5120.305     
     25000   305.69202      357.53314      35796.635      0.73789282    -7196.5087     -5144.4641    
     26000   306.74972      1380.1752      36103.185      0.7316274     -7180.9149     -5121.7702    
     27000   294.29848     -766.64851      36133.156      0.73102056    -7168.5475     -5192.9854    
     28000   301.25822     -269.55196      35518.222      0.74367686    -7246.2819     -5224.0005    
     29000   294.68997     -1641.9951      34278.616      0.77057019    -7197.6478     -5219.4576    
     30000   314.19617      1262.4607      33255.013      0.79428865    -7235.087      -5125.956     
     31000   303.35884      394.08042      34154.558      0.77336911    -7224.092      -5187.7095    
     32000   297.53979     -130.3398       34587.769      0.76368267    -7253.9901     -5256.6696    
     33000   299.41878     -225.42971      33968.675      0.77760112    -7203.6286     -5193.695     
     34000   295.70404     -172.54594      34070.441      0.77527847    -7276.5394     -5291.542     
     35000   312.08588     -697.97609      33848.26       0.78036743    -7212.0037     -5117.0386    
     36000   298.85303     -125.99934      34191.432      0.77253505    -7264.398      -5258.262     
     37000   299.91971      1330.6593      33906.415      0.77902897    -7266.6037     -5253.3074    
     38000   288.87361      295.09055      33911.463      0.77891301    -7292.8935     -5353.7472    
     39000   302.88385      29.705504      33343.669      0.79217676    -7267.3115     -5234.1176    
     40000   296.71216      141.82532      33289.316      0.7934702     -7366.338      -5374.5733    
     41000   301.16247      1261.3581      32685.532      0.80812757    -7329.0286     -5307.3899    
     42000   295.78073      898.88178      32905.377      0.80272836    -7311.0842     -5325.572     
     43000   306.36057      223.99323      32354.774      0.81638893    -7316.0278     -5259.4954    
     44000   294.30872      338.86095      32251.855      0.81899412    -7258.5002     -5282.8693    
     45000   292.42134      121.33414      32715.601      0.80738481    -7325.2256     -5362.2643    
     46000   298.92         918.7524       31671.71       0.83399602    -7307.5561     -5300.9707    
     47000   296.54172      233.24276      31178.079      0.84720035    -7318.7994     -5328.1788    
     48000   292.63117     -603.2732       30713.807      0.86000669    -7295.412      -5331.0421    
     49000   300.74161     -453.63617      31082.013      0.84981883    -7315.7772     -5296.9636    
     50000   301.90807     -1330.2022      31127.751      0.84857013    -7265.6157     -5238.9719    
     51000   301.586       -241.68643      31319.334      0.84337934    -7321.006      -5296.5242    
     52000   295.12437      297.02016      31004.283      0.85194939    -7336.6222     -5355.516     
     53000   297.45466     -1244.6084      31157.508      0.84775969    -7330.9422     -5334.1933    
     54000   299.47157      111.22726      30248.466      0.873237      -7326.6393     -5316.3513    
     55000   297.60647      1005.8256      30139.441      0.87639581    -7331.8035     -5334.0355    
     56000   304.89159     -82.962861      29947.054      0.88202599    -7420.8806     -5374.2092    
     57000   295.35386      373.74637      30570.969      0.86402495    -7360.0682     -5377.4214    
     58000   308.14108     -647.27783      30325.535      0.87101777    -7338.8064     -5270.3218    
     59000   292.92096     -927.28381      29679.953      0.88996365    -7353.2814     -5386.9661    
     60000   294.02214      368.29719      29771.898      0.88721517    -7434.0251     -5460.3179    
     61000   298.01502      313.70917      29654.697      0.89072162    -7345.6583     -5345.1478    
     62000   295.87224      1829.4915      29264.693      0.90259206    -7414.3776     -5428.2511    
     63000   309.20864      2109.474       29192.83       0.90481396    -7403.1249     -5327.474     
     64000   309.72819     -2014.3894      29008.544      0.91056205    -7460.0083     -5380.8698    
     65000   298.72234     -668.16347      28985.142      0.91129723    -7388.6874     -5383.4288    
     66000   300.70787     -145.99653      28753.748      0.91863083    -7372.566      -5353.979     
     67000   295.84522      969.19348      28920.409      0.913337      -7414.5063     -5428.5612    
     68000   305.74413      1467.6106      28769.017      0.91814327    -7363.7211     -5311.3268    
     69000   297.54999      215.3717       28720.652      0.91968941    -7396.2021     -5398.8132    
     70000   304.93755     -53.571643      28436.172      0.92889015    -7392.5721     -5345.5921    
     71000   308.56541     -671.89761      28592.691      0.92380531    -7449.0694     -5377.7364    
     72000   301.71516     -173.85867      28595.574      0.92371216    -7474.663      -5449.3142    
     73000   297.53792      318.56998      28563.448      0.92475108    -7377.0571     -5379.7492    
     74000   294.34686     -541.41526      28699.292      0.92037393    -7448.9086     -5473.0217    
     75000   302.83535      828.19778      28473.062      0.92768664    -7450.9682     -5418.0998    
     76000   297.02003     -942.09233      28534.454      0.92569073    -7398.7686     -5404.9372    
     77000   301.84297     -843.32338      28271.782      0.9342913     -7428.6909     -5402.4842    
     78000   302.01662      807.63519      28013.48       0.94290605    -7417.5136     -5390.1413    
     79000   291.88279     -710.42819      28232.876      0.93557877    -7427.9968     -5468.6507    
     80000   302.7054      -440.40856      28087.325      0.94042703    -7390.9957     -5358.9996    
     81000   295.12801      176.79411      28382.521      0.93064601    -7425.7414     -5444.6107    
     82000   295.81656     -1233.4463      28074.909      0.94084292    -7501.726      -5515.9733    
     83000   299.13374      1187.2729      27808.614      0.94985243    -7446.8727     -5438.8525    
     84000   296.55736     -146.34383      28249.738      0.93502034    -7395.2412     -5404.5157    
     85000   299.15474      214.67836      27840.261      0.94877272    -7454.5415     -5446.3802    
     86000   306.82868     -254.74536      27752.212      0.95178287    -7469.9625     -5410.2877    
     87000   297.39027      627.46219      27610.843      0.95665604    -7478.3866     -5482.0699    
     88000   302.04531     -436.88267      27333.219      0.96637282    -7470.2522     -5442.6873    
     89000   299.70993      91.335229      27582.538      0.95763776    -7526.9411     -5515.053     
     90000   300.98467     -216.02279      27705          0.95340478    -7432.7737     -5412.3286    
     91000   283.25063      1176.1445      27183.157      0.97170757    -7573.915      -5672.5146    
     92000   299.97725      1069.9795      27424.523      0.9631555     -7489.5506     -5475.868     
     93000   304.19968      150.99687      27135.656      0.97340854    -7547.6584     -5505.6315    
     94000   296.90662     -291.63763      27058.73       0.97617587    -7510.6528     -5517.5827    
     95000   294.94268     -1025.108       27338.337      0.96619191    -7497.1173     -5517.2307    
     96000   300.95518     -1502.243       27352.117      0.96570513    -7472.6223     -5452.3751    
     97000   292.44654     -485.53711      27488.154      0.96092592    -7527.1435     -5564.013     
     98000   302.19019      41.038657      27438.06       0.9626803     -7496.9963     -5468.4587    
     99000   300.82282      652.61651      26900.658      0.98191203    -7584.5884     -5565.2297    
    100000   305.68288     -1584.9621      26936.456      0.98060711    -7538.9075     -5486.9243    
    101000   299.82127      615.73458      26801.954      0.98552814    -7553.2246     -5540.5891    
    102000   304.80989     -511.86127      27161.611      0.9724784     -7465.84       -5419.7169    
    103000   298.94639     -274.05373      27163.555      0.97240881    -7483.478      -5476.7154    
    104000   302.76667      1613.5237      26834.207      0.9843436     -7527.8539     -5495.4466    
    105000   294.46626     -356.54398      26915.646      0.98136526    -7530.1853     -5553.4968    
    106000   299.3445       206.82077      27262.364      0.96888443    -7542.6023     -5533.1672    
    107000   297.8217       1226.1435      26917.416      0.98130073    -7470.3746     -5471.1618    
    108000   308.86652     -1039.8459      27264.374      0.96881297    -7479.2711     -5405.9168    
    109000   302.44172      181.43765      26985.022      0.97884224    -7558.8597     -5528.6337    
    110000   303.58626      8.2904656      27089.633      0.97506231    -7524.1182     -5486.2092    
    111000   296.6928      -346.39509      27028.519      0.977267      -7503.2836     -5511.6488    
    112000   296.45974      830.6655       26758.764      0.98711882    -7556.8493     -5566.779     
    113000   297.51744      250.50828      26894.047      0.98215341    -7507.9741     -5510.8037    
    114000   300.37673     -88.744071      26970.145      0.97938221    -7529.2141     -5512.85      
    115000   302.97405      1003.5481      27288.818      0.96794517    -7549.5879     -5515.7884    
    116000   309.15925     -655.80697      26907.479      0.98166312    -7569.0348     -5493.7155    
    117000   299.4994       593.6979       26908.365      0.98163078    -7558.607      -5548.1321    
    118000   307.6547      -508.97332      26865.486      0.98319754    -7500.9968     -5435.7772    
    119000   298.9506      -624.51102      26791.713      0.98590484    -7579.6222     -5572.8313    
    120000   304.43417     -77.854942      26929.164      0.98087263    -7574.8675     -5531.2666    
Loop time of 6554.76 on 2 procs for 100000 steps with 2860 atoms

Performance: 1.318 ns/day, 18.208 hours/ns, 15.256 timesteps/s, 43.632 katom-step/s
98.1% CPU use with 2 MPI tasks x 1 OpenMP threads

MPI task timing breakdown:
Section |  min time  |  avg time  |  max time  |%varavg| %total
---------------------------------------------------------------
Pair    | 3191.8     | 3402.4     | 3613       | 361.0 | 51.91
Bond    | 212.75     | 236.34     | 259.93     | 153.4 |  3.61
Kspace  | 1583.5     | 1819       | 2054.4     | 552.0 | 27.75
Neigh   | 281.88     | 282.3      | 282.73     |   2.5 |  4.31
Comm    | 194.26     | 196.19     | 198.12     |  13.8 |  2.99
Output  | 0.075433   | 0.11112    | 0.1468     |  10.7 |  0.00
Modify  | 541.72     | 542.94     | 544.15     |   5.2 |  8.28
Other   |            | 75.54      |            |       |  1.15

Nlocal:           1430 ave        1489 max        1371 min
Histogram: 1 0 0 0 0 0 0 0 0 1
Nghost:        10462.5 ave       10635 max       10290 min
Histogram: 1 0 0 0 0 0 0 0 0 1
Neighs:         551986 ave      561676 max      542296 min
Histogram: 1 0 0 0 0 0 0 0 0 1

Total # of neighbors = 1103972
Ave neighs/atom = 386.0042
Ave special neighs/atom = 8.527972
Neighbor list builds = 3781
Dangerous builds = 0
unfix NPTEQ
write_data data.after_equilibration.lmp
System init for write_data ...
PPPM initialization ...
  using 12-bit tables for long-range coulomb
  G vector (1/distance) = 0.28477233
  grid = 20 20 20
  stencil order = 5
  estimated absolute RMS force accuracy = 0.0037068751
  estimated relative force accuracy = 1.1163144e-05
  using double precision FFTW3
  3d grid and FFT values/proc = 12393 4000
Generated 136 of 136 mixed pair_coeff terms from geometric mixing rule

# --- 4. NPT production - this is the trajectory you analyse ----------------
print "RENEU >>> stage 4 of 4: NPT production"
RENEU >>> stage 4 of 4: NPT production
reset_timestep 0
fix NPTPROD all npt temp ${TK} ${TK} 100 iso ${PBAR} ${PBAR} 1000
fix NPTPROD all npt temp 300 ${TK} 100 iso ${PBAR} ${PBAR} 1000
fix NPTPROD all npt temp 300 300 100 iso ${PBAR} ${PBAR} 1000
fix NPTPROD all npt temp 300 300 100 iso 1 ${PBAR} 1000
fix NPTPROD all npt temp 300 300 100 iso 1 1 1000
fix DENSAVG all ave/time 10 100 1000 v_dens v_vol file density.dat

dump TRAJ all custom 500 dump.lammpstrj id mol type element q xu yu zu
dump_modify TRAJ element N C C H C O H H C C O C H C H O N

run ${PRODRUN}
run 200000
PPPM initialization ...
  using 12-bit tables for long-range coulomb
  G vector (1/distance) = 0.28477233
  grid = 20 20 20
  stencil order = 5
  estimated absolute RMS force accuracy = 0.0037068751
  estimated relative force accuracy = 1.1163144e-05
  using double precision FFTW3
  3d grid and FFT values/proc = 12393 4000
Generated 136 of 136 mixed pair_coeff terms from geometric mixing rule
Per MPI rank memory allocation (min/avg/max) = 16.53 | 16.53 | 16.53 Mbytes
   Step          Temp          Press          Volume         v_dens         PotEng         TotEng    
         0   304.43417     -249.30113      26929.164      0.98087263    -7574.8311     -5531.2302    
      1000   298.93382      393.1956       26552.958      0.99476977    -7581.7264     -5575.0482    
      2000   303.42581      331.01942      26701.8        0.98922469    -7513.481      -5476.649     
      3000   297.67109     -1383.5564      26428.561      0.99945205    -7572.6092     -5574.4074    
      4000   307.19378      21.219665      26787.357      0.98606517    -7538.0451     -5475.9196    
      5000   298.53616      1241.3454      26652.788      0.99104378    -7534.5537     -5530.5449    
      6000   300.24593     -516.3699       26892.043      0.98222658    -7569.8969     -5554.4108    
      7000   305.54804      1197.3171      26993.191      0.97854604    -7494.6867     -5443.6086    
      8000   292.9444      -603.46206      26575.539      0.9939245     -7549.7548     -5583.2822    
      9000   299.26915      1210.7666      26313.406      1.0038259     -7539.2297     -5530.3005    
     10000   293.01876      1016.7473      26462.373      0.998175      -7559.3005     -5592.3288    
     11000   300.92077     -373.71092      26759.762      0.98708201    -7548.4974     -5528.4812    
     12000   295.56903     -744.87341      26763.158      0.98695676    -7594.2345     -5610.1434    
     13000   300.0751      -1265.6197      26764.249      0.98691654    -7576.485      -5562.1455    
     14000   308.03794      644.78997      26793.891      0.98582471    -7497.4393     -5429.6471    
     15000   306.46046      301.44612      26660.175      0.99076918    -7578.3481     -5521.1451    
     16000   307.31036     -122.16157      26502.234      0.99667371    -7554.646      -5491.7378    
     17000   300.36155     -359.93365      26498.393      0.99681818    -7587.4495     -5571.1872    
     18000   302.56009      502.79882      26532.337      0.99554289    -7499.7203     -5468.6997    
     19000   301.12359      529.12868      26492.323      0.99704658    -7540.0072     -5518.6295    
     20000   305.32876     -676.57274      26905.257      0.98174419    -7549.2425     -5499.6364    
     21000   307.43319     -911.02682      26887.242      0.98240199    -7561.6045     -5497.8719    
     22000   289.90959     -1609.2933      26595.045      0.99319552    -7524.5684     -5578.4679    
     23000   298.28971      594.28842      26860.515      0.98337948    -7583.4164     -5581.0619    
     24000   294.96302     -749.87371      26679.559      0.99004935    -7584.812      -5604.7889    
     25000   295.98545      342.76681      26753.03       0.9873304     -7602.9503     -5616.0639    
     26000   311.50761      1180.4111      26471.195      0.99784238    -7523.0839     -5432.0005    
     27000   294.7962       855.78693      26694.374      0.98949989    -7572.1618     -5593.2585    
     28000   304.82204     -724.37347      26532.371      0.99554163    -7524.2881     -5478.0835    
     29000   301.62457     -178.88014      26634.008      0.99174259    -7467.7318     -5442.9912    
     30000   302.74228      196.85982      26549.675      0.99489279    -7572.2919     -5540.0483    
     31000   298.52823     -2015.3319      26856.106      0.98354094    -7518.7776     -5514.822     
     32000   299.36189     -810.43638      26334.709      1.0030139     -7574.3634     -5564.8116    
     33000   295.08571      768.0584       26647.535      0.99123914    -7570.8464     -5589.9997    
     34000   296.09448     -485.03566      26811.834      0.98516498    -7550.128      -5562.5096    
     35000   298.26618     -790.8442       26473.446      0.9977575     -7642.2605     -5640.064     
     36000   303.46727      726.04291      26546.625      0.99500706    -7595.0391     -5557.9288    
     37000   306.78897      19.806377      26723.65       0.98841586    -7530.0043     -5470.5962    
     38000   303.63905      544.69666      26917.349      0.98130317    -7556.2239     -5517.9605    
     39000   292.29214      389.6827       26551.861      0.99481085    -7560.3311     -5598.237     
     40000   301.20939      1642.4622      26351.464      1.0023762     -7591.3396     -5569.386     
     41000   293.88271      1129.1708      26521.83       0.99593729    -7580.7457     -5607.9744    
     42000   312.74658      2339.7721      26479.193      0.99754098    -7536.5026     -5437.1023    
     43000   305.80844     -832.57247      26587.821      0.99346538    -7584.9957     -5532.1696    
     44000   293.04375      149.49265      26780.38       0.98632207    -7575.1378     -5607.9983    
     45000   307.60339      1566.958       26302.225      1.0042527     -7702.3923     -5637.5171    
     46000   302.42441      861.68455      26738.351      0.98787244    -7544.7798     -5514.67      
     47000   298.91945      670.15517      26251.793      1.0061819     -7603.3615     -5596.7797    
     48000   302.76452     -725.08302      26347.615      1.0025226     -7627.9136     -5595.5207    
     49000   297.10021     -650.91848      26340.303      1.0028009     -7640.7211     -5646.3515    
     50000   300.54078      947.54284      26536.736      0.99537788    -7558.8828     -5541.4174    
     51000   291.22331     -511.408        26649.284      0.99117408    -7624.1373     -5669.218     
     52000   305.43977     -913.4563       26481.276      0.99746248    -7561.2079     -5510.8567    
     53000   290.23411     -506.91388      26923.677      0.98107254    -7583.2687     -5634.9898    
     54000   296.76148     -919.29815      26493.31       0.99700941    -7594.9313     -5602.8356    
     55000   299.17204     -296.57288      26285.234      1.0049018     -7589.8273     -5581.55      
     56000   295.91139     -351.79573      26425.716      0.99955965    -7601.3113     -5614.922     
     57000   305.90665      119.16732      26216.008      1.0075554     -7640.4352     -5586.9499    
     58000   293.70638      850.37592      26473.439      0.99775778    -7558.3025     -5586.715     
     59000   310.12837      1075.3861      26353.758      1.0022889     -7607.314      -5525.4891    
     60000   292.7631       1327.4126      26202.681      1.0080678     -7636.6341     -5671.3785    
     61000   300.46261     -690.13339      26399.628      1.0005474     -7616.0314     -5599.0908    
     62000   306.9893      -957.55643      26432.338      0.99930925    -7562.1219     -5501.3689    
     63000   296.96614      662.86842      26501.871      0.99668735    -7624.3686     -5630.899     
     64000   306.54506     -163.04701      26389.038      1.000949      -7658.0749     -5600.304     
     65000   297.7767      -1335.6665      26378.254      1.0013581     -7518.15       -5519.2392    
     66000   297.415       -95.823252      26236.09       1.0067842     -7618.7702     -5622.2874    
     67000   296.45827     -730.46464      26206.663      1.0079146     -7697.2224     -5707.162     
     68000   297.31265      243.78917      26189.589      1.0085717     -7592.19       -5596.3944    
     69000   299.12644      537.30152      26334.38       1.0030264     -7592.8621     -5584.8908    
     70000   307.49422     -1241.9283      26389.74       1.0009223     -7584.0901     -5519.9477    
     71000   308.01805      1939.8164      25897.21       1.0199585     -7619.1394     -5551.4807    
     72000   299.82921     -1399.3861      26529.041      0.9956666     -7580.0909     -5567.4021    
     73000   292.95315     -367.2028       26282.262      1.0050155     -7654.7129     -5688.1815    
     74000   300.84714     -1099.3814      26308.119      1.0040277     -7590.8799     -5571.3579    
     75000   294.79092      89.469595      26106.934      1.0117649     -7649.7465     -5670.8787    
     76000   306.96825      938.30862      26247.692      1.0063391     -7608.2455     -5547.6339    
     77000   296.55304     -634.05447      26295.302      1.0045171     -7591.0935     -5600.3969    
     78000   288.6758      -16.690562      26264.016      1.0057137     -7630.8535     -5693.0351    
     79000   301.24482     -273.99919      26162.908      1.0096003     -7615.8661     -5593.6747    
     80000   303.73344      342.8234       26042.77       1.0142577     -7662.0394     -5623.1424    
     81000   300.86682     -241.56249      26029.204      1.0147863     -7618.0686     -5598.4145    
     82000   303.67678      1285.3103      26207.793      1.0078712     -7607.1923     -5568.6756    
     83000   297.30973     -1445.8186      26287.467      1.0048165     -7592.122      -5596.346     
     84000   296.19628     -797.5686       26266.559      1.0056163     -7649.8257     -5661.524     
     85000   298.80923     -504.66659      26204.802      1.0079862     -7566.9002     -5561.0583    
     86000   305.82321     -613.55209      25970.752      1.0170703     -7589.3155     -5536.3903    
     87000   300.39183      738.97846      25993.953      1.0161625     -7646.5362     -5630.0706    
     88000   296.64482     -517.48908      26036.216      1.014513      -7662.8286     -5671.5159    
     89000   308.76508      78.990413      26218.029      1.0074777     -7618.1836     -5545.5102    
     90000   298.08071     -154.06758      26282.802      1.0049948     -7666.9203     -5665.9688    
     91000   304.56065      880.36618      26293.647      1.0045803     -7582.7215     -5538.2716    
     92000   298.01912     -1349.2434      26345.967      1.0025853     -7615.8034     -5615.2654    
     93000   299.91255     -17.573714      25943.299      1.0181465     -7667.9214     -5654.6732    
     94000   289.64929     -412.50645      26032.126      1.0146724     -7628.8547     -5684.5015    
     95000   297.10058     -301.63481      26143.25       1.0103594     -7646.167      -5651.7949    
     96000   295.02327     -292.07311      26188.26       1.0086229     -7686.6022     -5706.1746    
     97000   294.85628      675.2515       26111.452      1.0115898     -7638.5177     -5659.2111    
     98000   305.17503     -305.38736      25951.31       1.0178322     -7683.0108     -5634.4367    
     99000   299.14029      521.77642      26458.565      0.99831866    -7575.9491     -5567.8849    
    100000   296.5988      -816.50106      26364.589      1.0018772     -7613.1628     -5622.159     
    101000   297.31283     -365.24053      26260.192      1.0058601     -7657.9919     -5662.195     
    102000   299.11179     -331.6644       26271.057      1.0054441     -7678.7925     -5670.9196    
    103000   291.53719     -1770.6003      26244.263      1.0064706     -7688.1558     -5731.1295    
    104000   303.39236     -229.26236      26182.556      1.0088427     -7640.0314     -5603.424     
    105000   303.40582     -2978.1378      26596.429      0.99314386    -7734.485      -5697.7872    
    106000   299.72084      30.670969      26272.902      1.0053735     -7636.1747     -5624.2134    
    107000   295.19161     -780.62317      26392.815      1.0008057     -7594.4657     -5612.9081    
    108000   304.41812     -814.87459      26489.12       0.99716713    -7626.5294     -5583.0363    
    109000   303.39464      1314.4797      26317.321      1.0036766     -7569.4129     -5532.7901    
    110000   295.30291     -78.437201      26100.448      1.0120163     -7654.0399     -5671.7352    
    111000   295.61494      555.39374      26134.444      1.0106999     -7739.7786     -5755.3793    
    112000   296.09652      663.42254      26369.981      1.0016723     -7598.748      -5611.116     
    113000   299.50104     -829.17828      26421.062      0.99973571    -7579.5448     -5569.0589    
    114000   314.58154      71.975822      26106.608      1.0117776     -7632.667      -5520.949     
    115000   306.00687      439.74014      26327.187      1.0033005     -7653.6578     -5599.4997    
    116000   292.48082      10.046764      25937.396      1.0183782     -7677.3712     -5714.0106    
    117000   301.08006      438.57655      26398.317      1.0005971     -7683.0936     -5662.0081    
    118000   297.21437     -122.6862       26252.512      1.0061544     -7539.1847     -5544.0488    
    119000   299.44893      351.65873      26389.629      1.0009265     -7603.6581     -5593.5221    
    120000   301.36655     -81.446799      25956.045      1.0176466     -7646.0557     -5623.0471    
    121000   298.94084     -613.0327       26218.473      1.0074607     -7670.3277     -5663.6024    
    122000   309.9749      -14.20689       26269.609      1.0054995     -7633.0686     -5552.274     
    123000   292.21174     -81.530974      26067.84       1.0132822     -7624.3222     -5662.7678    
    124000   305.20843     -579.79382      26168.647      1.0093789     -7557.8099     -5509.0115    
    125000   302.15462     -565.50582      26268.077      1.0055582     -7624.2466     -5595.9478    
    126000   301.92117     -295.46954      25964.352      1.017321      -7654.0334     -5627.3017    
    127000   299.04007      665.44521      26167.845      1.0094098     -7571.4981     -5564.1066    
    128000   306.35258     -1657.0233      26313.781      1.0038116     -7564.2559     -5507.7771    
    129000   296.01692      301.06711      26395.011      1.0007224     -7678.1613     -5691.0636    
    130000   294.65814      1235.8024      26234.41       1.0068486     -7619.4016     -5641.4252    
    131000   304.62963     -141.4417       25972.753      1.0169919     -7667.6375     -5622.7245    
    132000   299.05006     -919.85328      26215.068      1.0075915     -7651.4649     -5644.0064    
    133000   285.06435      759.37019      26435.595      0.99918614    -7643.6097     -5730.0343    
    134000   302.42105     -315.88015      26086.985      1.0125386     -7614.452      -5584.3648    
    135000   296.26922      532.07043      26138.511      1.0105426     -7649.5257     -5660.7344    
    136000   299.48851     -936.29721      26429.333      0.99942288    -7597.521      -5587.1192    
    137000   300.43624     -664.59705      26413.345      1.0000278     -7662.0837     -5645.32      
    138000   301.50775      1779.0256      26045.617      1.0141468     -7646.9211     -5622.9646    
    139000   295.87378      1117.9733      25963.255      1.0173639     -7614.0296     -5627.8928    
    140000   300.02627      527.76108      26075.03       1.0130028     -7599.1207     -5585.1091    
    141000   299.72757     -1375.363       26562.48       0.99441315    -7667.4508     -5655.4443    
    142000   305.43953     -285.27992      26548.777      0.99492643    -7603.9329     -5553.5832    
    143000   296.04765     -1109.7989      26286.601      1.0048496     -7645.1315     -5657.8275    
    144000   304.38698      407.2302       26225.726      1.007182      -7651.2086     -5607.9245    
    145000   291.37298     -332.68328      26479.068      0.99754567    -7631.3725     -5675.4486    
    146000   298.28958     -27.340475      26759.468      0.98709286    -7592.3931     -5590.0395    
    147000   307.91858     -502.89566      26912.811      0.98146862    -7580.4611     -5513.4701    
    148000   300.89343      291.13559      26892.346      0.98221552    -7612.665      -5592.8323    
    149000   293.70711      193.47691      26695.714      0.9894502     -7591.4377     -5619.8453    
    150000   300.70545      28.081685      26563.29       0.99438283    -7571.4988     -5552.928     
    151000   304.02861     -235.42957      26382.183      1.001209      -7612.2673     -5571.3888    
    152000   301.98866     -839.68096      26155.555      1.0098841     -7568.8138     -5541.6291    
    153000   301.35468      217.96693      26186.215      1.0087017     -7620.0042     -5597.0753    
    154000   297.36218      9.7244687      26170.082      1.0093235     -7596.727      -5600.5989    
    155000   293.12637      918.77336      26031.432      1.0146995     -7694.2241     -5726.53      
    156000   300.96109     -513.12672      26424.736      0.99959675    -7645.4326     -5625.1458    
    157000   293.49162     -2261.9499      26539.108      0.99528889    -7636.2914     -5666.1455    
    158000   306.23107     -105.36895      26226.695      1.0071448     -7634.8995     -5579.2364    
    159000   296.64769     -502.46453      26508.069      0.9964543     -7647.3342     -5656.0023    
    160000   298.60592     -2018.7385      26239.638      1.006648      -7654.6111     -5650.134     
    161000   293.88331     -21.97508       26181.867      1.0088692     -7626.7067     -5653.9315    
    162000   303.01712     -59.503998      26031.265      1.0147059     -7668.1454     -5634.0568    
    163000   299.82562     -862.12171      26303.007      1.0042228     -7684.1518     -5671.4871    
    164000   301.39626     -125.50696      26163.629      1.0095725     -7669.9731     -5646.765     
    165000   289.21016      224.56303      25969.684      1.0171121     -7632.4931     -5691.0877    
    166000   298.37416      1304.2884      25875.481      1.020815      -7658.6688     -5655.7475    
    167000   308.6426       568.20806      26213.061      1.0076687     -7705.7688     -5633.9176    
    168000   299.02054     -685.91741      26446.785      0.99876337    -7570.9465     -5563.6861    
    169000   291.05744     -1286.4998      26548.105      0.99495159    -7608.8645     -5655.0588    
    170000   295.59198     -789.34111      26291.568      1.0046597     -7597.4318     -5613.1867    
    171000   309.31173      382.62658      25926.737      1.0187969     -7625.2402     -5548.8972    
    172000   302.33062     -719.56243      26014.153      1.0153734     -7655.8181     -5626.3379    
    173000   298.03368      28.988942      26189.062      1.0085921     -7608.9462     -5608.3104    
    174000   300.4727       376.60134      26199.185      1.0082023     -7609.0037     -5591.9953    
    175000   296.87208      1124.4562      26022.644      1.0150421     -7640.3248     -5647.4865    
    176000   297.25287      763.68838      25897.224      1.0199579     -7636.9125     -5641.5181    
    177000   304.76317     -527.22498      25956.177      1.0176414     -7704.2675     -5658.4581    
    178000   299.16134     -658.48627      25984.006      1.0165515     -7625.575      -5617.3695    
    179000   299.44116     -1441.7525      26116.823      1.0113818     -7636.3928     -5626.3089    
    180000   300.18527     -762.19423      25997.15       1.0160375     -7672.8844     -5657.8054    
    181000   305.47611     -76.852319      26013.22       1.0154099     -7640.806      -5590.2108    
    182000   304.11331     -1645.8767      26239.746      1.0066439     -7663.6225     -5622.1755    
    183000   309.48198      1453.7385      26126.089      1.0110231     -7677.0726     -5599.5869    
    184000   299.10108     -3.1257554      26129.014      1.0109099     -7618.1379     -5610.3368    
    185000   296.14329      830.92377      26049.827      1.0139829     -7633.8225     -5645.8765    
    186000   301.28993     -378.93203      26242.676      1.0065315     -7604.303      -5581.8087    
    187000   305.10193      85.552116      26298.907      1.0043794     -7648.7723     -5600.6889    
    188000   304.05568     -264.24069      26264.885      1.0056804     -7643.166      -5602.1058    
    189000   304.36303     -536.90437      26448.704      0.9986909     -7573.0282     -5529.9049    
    190000   307.75181     -544.29271      26180.649      1.0089162     -7641.4416     -5575.5701    
    191000   299.45274     -1368.2585      26386.268      1.001054      -7686.1634     -5676.0018    
    192000   300.6653       51.086935      26296.275      1.0044799     -7654.014      -5635.7127    
    193000   300.3427       28.51945       25987.46       1.0164164     -7651.6952     -5635.5595    
    194000   299.9866      -586.03374      26293.378      1.0045906     -7592.917      -5579.1716    
    195000   303.55551      253.08781      26178.333      1.0090054     -7652.9468     -5615.2442    
    196000   296.46684      779.77991      26122.445      1.0111641     -7571.531      -5581.4131    
    197000   304.16493      598.41658      26167.839      1.00941       -7666.5955     -5624.8019    
    198000   300.83969      359.29235      25973.187      1.0169749     -7647.5968     -5628.1249    
    199000   292.6598      -266.10864      25978.674      1.0167601     -7593.4107     -5628.8486    
    200000   296.80201     -1064.7235      26140.702      1.0104579     -7619.9122     -5627.5444    
Loop time of 12683.7 on 2 procs for 200000 steps with 2860 atoms

Performance: 1.362 ns/day, 17.616 hours/ns, 15.768 timesteps/s, 45.097 katom-step/s
98.0% CPU use with 2 MPI tasks x 1 OpenMP threads

MPI task timing breakdown:
Section |  min time  |  avg time  |  max time  |%varavg| %total
---------------------------------------------------------------
Pair    | 7816.9     | 7846.5     | 7876.2     |  33.5 | 61.86
Bond    | 482.35     | 509.35     | 536.34     | 119.6 |  4.02
Kspace  | 2323.6     | 2326.5     | 2329.5     |   6.1 | 18.34
Neigh   | 664.02     | 664.24     | 664.45     |   0.8 |  5.24
Comm    | 388.94     | 390.07     | 391.2      |   5.7 |  3.08
Output  | 21.66      | 22.753     | 23.847     |  22.9 |  0.18
Modify  | 803.97     | 804.3      | 804.62     |   1.1 |  6.34
Other   |            | 120        |            |       |  0.95

Nlocal:           1430 ave        1455 max        1405 min
Histogram: 1 0 0 0 0 0 0 0 0 1
Nghost:          10768 ave       10852 max       10684 min
Histogram: 1 0 0 0 0 0 0 0 0 1
Neighs:         566786 ave      567051 max      566522 min
Histogram: 1 0 0 0 0 0 0 0 0 1

Total # of neighbors = 1133573
Ave neighs/atom = 396.3542
Ave special neighs/atom = 8.527972
Neighbor list builds = 7259
Dangerous builds = 0

write_data data.final.lmp
System init for write_data ...
PPPM initialization ...
  using 12-bit tables for long-range coulomb
  G vector (1/distance) = 0.28555594
  grid = 20 20 20
  stencil order = 5
  estimated absolute RMS force accuracy = 0.0035978073
  estimated relative force accuracy = 1.083469e-05
  using double precision FFTW3
  3d grid and FFT values/proc = 12393 4000
Generated 136 of 136 mixed pair_coeff terms from geometric mixing rule
print "RENEU >>> finished. trajectory = dump.lammpstrj, density log = density.dat"
RENEU >>> finished. trajectory = dump.lammpstrj, density log = density.dat
Total wall time: 5:38:30
