LAMMPS (10 Dec 2025)
OMP_NUM_THREADS environment is not set. Defaulting to 1 thread.
  using 1 OpenMP thread(s) per MPI task
# created by fftool

units real
boundary p p p

atom_style full
bond_style harmonic
angle_style harmonic
dihedral_style opls

special_bonds lj/coul 0.0 0.0 0.5

# remove hybrid if not necessary
pair_style hybrid lj/cut/coul/long 10.0 10.0
pair_modify mix geometric tail yes
read_data data.lmp
Reading data file ...
  orthogonal box = (0 0 0) to (35.97 35.97 35.97)
  1 by 1 by 2 MPI processor grid
  reading atoms ...
  3085 atoms
  scanning bonds ...
  1 = max bonds/atom
  scanning angles ...
  6 = max angles/atom
  scanning dihedrals ...
  9 = max dihedrals/atom
  orthogonal box = (0 0 0) to (35.97 35.97 35.97)
  1 by 1 by 2 MPI processor grid
  reading bonds ...
  2727 bonds
  reading angles ...
  4442 angles
  reading dihedrals ...
  5375 dihedrals
Finding 1-2 1-3 1-4 neighbors ...
  special bond factors lj:    0        0        0.5     
  special bond factors coul:  0        0        0.5     
     4 = max # of 1-2 neighbors
     6 = max # of 1-3 neighbors
    12 = max # of 1-4 neighbors
    16 = max # of special neighbors
  special bonds CPU = 0.005 seconds
  read_data CPU = 0.236 seconds
# read_restart restart1.lmp

kspace_style pppm 1.0e-5

# remove pair style if not using hybrid
pair_coeff    1    1 lj/cut/coul/long     0.170000     3.250000  # N1 N1
pair_coeff    2    2 lj/cut/coul/long     0.065999     3.500000  # C1N C1N
pair_coeff    3    3 lj/cut/coul/long     0.000000     0.000000  # HN HN
pair_coeff    4    4 lj/cut/coul/long     0.065999     3.500000  # CS CS
pair_coeff    5    5 lj/cut/coul/long     0.030000     2.500000  # H1N H1N
pair_coeff    6    6 lj/cut/coul/long     0.065999     3.500000  # CEN CEN
pair_coeff    7    7 lj/cut/coul/long     0.030000     2.500000  # HC HC
pair_coeff    8    8 lj/cut/coul/long     0.030000     2.500000  # HCN HCN
pair_coeff    9    9 lj/cut/coul/long     0.105000     3.750000  # CO2 CO2
pair_coeff   10   10 lj/cut/coul/long     0.065999     3.500000  # C2C C2C
pair_coeff   11   11 lj/cut/coul/long     0.210000     2.960000  # O2 O2
pair_coeff   12   12 lj/cut/coul/long     0.065999     3.500000  # CT CT
pair_coeff   13   13 lj/cut/coul/long     0.000000     1.000000  # Hw Hw
pair_coeff   14   14 lj/cut/coul/long     0.155425     3.165500  # Ow Ow
pair_coeff   15   15 lj/cut/coul/long     0.125643     2.995200  # Nd Nd

# minimize 1.0e-4 1.0e-6 100 1000
# reset_timestep 0

fix SHAKE all shake 0.0001 20 0 b 2 4 7
Finding SHAKE clusters ...
       0 = # of size 2 clusters
     726 = # of size 3 clusters
     180 = # of size 4 clusters
       0 = # of frozen angles
  find clusters CPU = 0.001 seconds

neighbor 2.0 bin
neigh_modify delay 0 every 1 check yes








#fix VAVG all ave/time 10 1000 50000 v_vinst

# ---------------------------------------------------------------------------
# RENEU 2026 simulation protocol (stage3b M2 propylammonium octanoate)
# 1 minimise  2 NVT relaxation  3 NPT equilibration  4 NPT production
# ---------------------------------------------------------------------------
timestep 1.0

variable TK      equal 300.0
variable PBAR    equal 1.0
variable NVTRUN  equal 20000
variable EQRUN   equal 100000
variable PRODRUN equal 200000

variable dens equal density
variable vol  equal vol

thermo 1000
thermo_style custom step temp press vol v_dens pe etotal

# --- 1. energy minimisation ------------------------------------------------
print "RENEU >>> stage 1 of 4: energy minimisation"
RENEU >>> stage 1 of 4: energy minimisation
minimize 1.0e-4 1.0e-6 10000 100000
PPPM initialization ...
  using 12-bit tables for long-range coulomb
  G vector (1/distance) = 0.28476252
  grid = 24 24 24
  stencil order = 5
  estimated absolute RMS force accuracy = 0.0032395547
  estimated relative force accuracy = 9.7558228e-06
  using double precision FFTW3
  3d grid and FFT values/proc = 18259 6912
Generated 105 of 105 mixed pair_coeff terms from geometric mixing rule
WARNING: Using fix shake with minimization.
  Substituting constraints with harmonic restraint forces using kbond=1987206.7 (src/RIGID/fix_shake.cpp:397)
Neighbor list info ...
  update: every = 1 steps, delay = 0 steps, check = yes
  max neighbors/atom: 2000, page size: 100000
  master list distance cutoff = 12
  ghost atom cutoff = 12
  binsize = 6, bins = 6 6 6
  1 neighbor lists, perpetual/occasional/extra = 1 0 0
  (1) pair lj/cut/coul/long, perpetual
      attributes: half, newton on
      pair build: half/bin/newton
      stencil: half/bin/3d
      bin: standard
Per MPI rank memory allocation (min/avg/max) = 17.4 | 17.4 | 17.4 Mbytes
   Step          Temp          Press          Volume         v_dens         PotEng         TotEng    
         0   0             -11860743       46539.457      0.60019991     225049.14      225049.14    
        12   0             -49871.836      46539.457      0.60019991    -874.42861     -874.42861    
Loop time of 2.79598 on 2 procs for 12 steps with 3085 atoms

98.9% CPU use with 2 MPI tasks x 1 OpenMP threads

Minimization stats:
  Stopping criterion = energy tolerance
  Energy initial, next-to-last, final = 
       225049.14021568  -874.374515805782   -874.42861304411
  Force two-norm initial, final = 1645564.1 20344.455
  Force max component initial, final = 82843.001 2968.4023
  Final line search alpha, max atom move = 1.1545786e-07 0.00034272537
  Iterations, force evaluations = 12 53

MPI task timing breakdown:
Section |  min time  |  avg time  |  max time  |%varavg| %total
---------------------------------------------------------------
Pair    | 1.7836     | 1.7908     | 1.798      |   0.5 | 64.05
Bond    | 0.09169    | 0.10499    | 0.11829    |   4.1 |  3.75
Kspace  | 0.82346    | 0.82721    | 0.83096    |   0.4 | 29.59
Neigh   | 0          | 0          | 0          |   0.0 |  0.00
Comm    | 0.034604   | 0.036788   | 0.038971   |   1.1 |  1.32
Output  | 0          | 0          | 0          |   0.0 |  0.00
Modify  | 0.021243   | 0.023683   | 0.026122   |   1.6 |  0.85
Other   |            | 0.01249    |            |       |  0.45

Nlocal:         1542.5 ave        1675 max        1410 min
Histogram: 1 0 0 0 0 0 0 0 0 1
Nghost:           7803 ave        8057 max        7549 min
Histogram: 1 0 0 0 0 0 0 0 0 1
Neighs:         422908 ave      423411 max      422404 min
Histogram: 1 0 0 0 0 0 0 0 0 1

Total # of neighbors = 845815
Ave neighs/atom = 274.17018
Ave special neighs/atom = 8.0920583
Neighbor list builds = 0
Dangerous builds = 0
reset_timestep 0

# --- 2. NVT relaxation (lets the packed box relax before the barostat) ------
print "RENEU >>> stage 2 of 4: NVT relaxation"
RENEU >>> stage 2 of 4: NVT relaxation
velocity all create ${TK} 12345 mom yes rot yes dist gaussian
velocity all create 300 12345 mom yes rot yes dist gaussian
fix NVTRELAX all nvt temp ${TK} ${TK} 100
fix NVTRELAX all nvt temp 300 ${TK} 100
fix NVTRELAX all nvt temp 300 300 100
run ${NVTRUN}
run 20000
PPPM initialization ...
  using 12-bit tables for long-range coulomb
  G vector (1/distance) = 0.28476252
  grid = 24 24 24
  stencil order = 5
  estimated absolute RMS force accuracy = 0.0032395547
  estimated relative force accuracy = 9.7558228e-06
  using double precision FFTW3
  3d grid and FFT values/proc = 18259 6912
Generated 105 of 105 mixed pair_coeff terms from geometric mixing rule
Per MPI rank memory allocation (min/avg/max) = 16.27 | 16.27 | 16.27 Mbytes
   Step          Temp          Press          Volume         v_dens         PotEng         TotEng    
         0   300            22267.912      46539.457      0.60019991    -911.38812      1252.68      
      1000   301.92845     -940.85591      46539.457      0.60019991    -10261.258     -8083.2788    
      2000   294.45618     -1393.4721      46539.457      0.60019991    -10623.109     -8499.0311    
      3000   299.32697     -682.02249      46539.457      0.60019991    -10847.375     -8688.1623    
      4000   300.37027     -688.67028      46539.457      0.60019991    -11031.378     -8864.6393    
      5000   304.55482     -1026.1852      46539.457      0.60019991    -11203.57      -9006.6452    
      6000   294.81486     -350.11923      46539.457      0.60019991    -11210.948     -9084.2834    
      7000   301.10576     -368.12995      46539.457      0.60019991    -11274.671     -9102.6262    
      8000   296.70154     -90.009202      46539.457      0.60019991    -11373.305     -9233.0309    
      9000   305.38748     -833.8499       46539.457      0.60019991    -11347.009     -9144.0779    
     10000   298.53662     -349.81517      46539.457      0.60019991    -11503.859     -9350.3475    
     11000   313.39109     -115.65439      46539.457      0.60019991    -11527.633     -9266.9677    
     12000   307.90228     -1498.7856      46539.457      0.60019991    -11483.386     -9262.3143    
     13000   296.28181     -1492.1936      46539.457      0.60019991    -11470.845     -9333.5984    
     14000   302.40541     -937.7943       46539.457      0.60019991    -11570.532     -9389.1126    
     15000   300.35852      185.9445       46539.457      0.60019991    -11508.303     -9341.6482    
     16000   302.34905     -574.30031      46539.457      0.60019991    -11590.877     -9409.8642    
     17000   306.89593     -746.21081      46539.457      0.60019991    -11547.163     -9333.351     
     18000   300.81213     -593.15547      46539.457      0.60019991    -11636.551     -9466.625     
     19000   297.8251      -505.16172      46539.457      0.60019991    -11555.024     -9406.6445    
     20000   299.06874     -1772.4308      46539.457      0.60019991    -11552.573     -9395.2224    
Loop time of 839.3 on 2 procs for 20000 steps with 3085 atoms

Performance: 2.059 ns/day, 11.657 hours/ns, 23.829 timesteps/s, 73.514 katom-step/s
97.9% CPU use with 2 MPI tasks x 1 OpenMP threads

MPI task timing breakdown:
Section |  min time  |  avg time  |  max time  |%varavg| %total
---------------------------------------------------------------
Pair    | 389.86     | 416.55     | 443.25     | 130.8 | 49.63
Bond    | 38.85      | 40.919     | 42.989     |  32.4 |  4.88
Kspace  | 241.72     | 268.54     | 295.36     | 163.7 | 32.00
Neigh   | 60.911     | 61.021     | 61.131     |   1.4 |  7.27
Comm    | 25.139     | 26.792     | 28.445     |  31.9 |  3.19
Output  | 0.0019506  | 0.0044644  | 0.0069782  |   3.8 |  0.00
Modify  | 21.708     | 21.874     | 22.04      |   3.5 |  2.61
Other   |            | 3.595      |            |       |  0.43

Nlocal:         1542.5 ave        1671 max        1414 min
Histogram: 1 0 0 0 0 0 0 0 0 1
Nghost:           7726 ave        8138 max        7314 min
Histogram: 1 0 0 0 0 0 0 0 0 1
Neighs:         412685 ave      421718 max      403652 min
Histogram: 1 0 0 0 0 0 0 0 0 1

Total # of neighbors = 825370
Ave neighs/atom = 267.54295
Ave special neighs/atom = 8.0920583
Neighbor list builds = 956
Dangerous builds = 0
unfix NVTRELAX

# --- 3. NPT equilibration (this is where the density finds its own value) ---
# restart files are written every 25000 steps. If the run stops for any
# reason you can pick up from the last one instead of starting over:
#     read_restart rst_a.lmp      (or rst_b.lmp, whichever is newer)
print "RENEU >>> stage 3 of 4: NPT equilibration - watch the density column"
RENEU >>> stage 3 of 4: NPT equilibration - watch the density column
restart 25000 rst_a.lmp rst_b.lmp
fix NPTEQ all npt temp ${TK} ${TK} 100 iso ${PBAR} ${PBAR} 1000
fix NPTEQ all npt temp 300 ${TK} 100 iso ${PBAR} ${PBAR} 1000
fix NPTEQ all npt temp 300 300 100 iso ${PBAR} ${PBAR} 1000
fix NPTEQ all npt temp 300 300 100 iso 1 ${PBAR} 1000
fix NPTEQ all npt temp 300 300 100 iso 1 1 1000
run ${EQRUN}
run 100000
PPPM initialization ...
  using 12-bit tables for long-range coulomb
  G vector (1/distance) = 0.28476252
  grid = 24 24 24
  stencil order = 5
  estimated absolute RMS force accuracy = 0.0032395547
  estimated relative force accuracy = 9.7558228e-06
  using double precision FFTW3
  3d grid and FFT values/proc = 18259 6912
Generated 105 of 105 mixed pair_coeff terms from geometric mixing rule
Per MPI rank memory allocation (min/avg/max) = 16.37 | 16.37 | 16.38 Mbytes
   Step          Temp          Press          Volume         v_dens         PotEng         TotEng    
     20000   299.06874     -1772.1956      46539.457      0.60019991    -11552.573     -9395.2224    
     21000   295.20443     -435.28847      42320.645      0.66003195    -11740.108     -9610.6333    
     22000   286.78837     -68.46498       39675.407      0.7040376     -11751.997     -9683.2316    
     23000   297.82592     -778.91425      38069.632      0.73373386    -11759.657     -9611.2719    
     24000   304.5627      -1259.1664      37562.601      0.74363802    -11902.934     -9705.9529    
     25000   300.97933      388.93096      36805.891      0.75892682    -11822.34      -9651.2069    
     26000   295.86976     -751.8296       35691.132      0.78263076    -11916.906     -9782.6318    
     27000   297.68982      5.2148425      35067.289      0.79655368    -11842.69      -9695.2868    
     28000   295.7682      -166.69411      34761.795      0.80355395    -11955.202     -9821.6605    
     29000   306.75814      1341.2303      34032.998      0.8207616     -11954.102     -9741.2834    
     30000   302.34678     -1198.3185      33720.578      0.82836593    -11916.559     -9735.5625    
     31000   293.9476       1102.7996      33092.712      0.84408248    -11941.522     -9821.1128    
     32000   293.39345     -704.26576      32754.391      0.85280101    -12036.896     -9920.4846    
     33000   311.2139       145.08509      32892.453      0.84922148    -12008.242     -9763.2813    
     34000   298.75728      43.587807      32974.67       0.84710409    -11968.612     -9813.5086    
     35000   304.64422     -11.285079      32432.936      0.86125345    -12031.582     -9834.0127    
     36000   292.64434     -393.6635       32362.835      0.86311899    -12086.593     -9975.5859    
     37000   299.62455     -22.004687      32420.188      0.86159211    -11938.166     -9776.8066    
     38000   299.96612      233.39024      31800.981      0.87836845    -12002.2       -9838.3762    
     39000   293.9219       202.72294      31452.193      0.88810906    -12047.856     -9927.6324    
     40000   306.92222     -797.71241      31250.833      0.89383146    -12079.229     -9865.2274    
     41000   298.78738     -70.270916      30939.113      0.90283707    -12118.088     -9962.7673    
     42000   300.0215       217.47429      31233.989      0.89431349    -12036.524     -9872.3006    
     43000   296.92469     -816.75675      30860.92       0.90512462    -12107.013     -9965.1287    
     44000   304.95471      788.64092      30598.502      0.91288712    -12050.675     -9850.8661    
     45000   302.62056     -726.66306      30542.937      0.91454787    -12141.857     -9958.8856    
     46000   296.38332     -647.58397      30927.459      0.90317727    -12057.731     -9919.7524    
     47000   292.48548      542.60873      30840.669      0.90571894    -12123.038     -10013.176    
     48000   302.9695      -245.14806      30999.798      0.90106969    -12101.047     -9915.5582    
     49000   302.75541      57.148588      30642.129      0.91158737    -12063.415     -9879.4704    
     50000   312.23426      800.41076      30625.351      0.91208678    -12130.733     -9878.4119    
     51000   297.3765       818.05735      30546.036      0.91445509    -12092.89      -9947.7464    
     52000   299.50005     -151.73051      30960.598      0.90221055    -12090.898     -9930.4364    
     53000   297.80494      438.62435      30986.015      0.90147049    -12179.616     -10031.382    
     54000   296.35104      247.22743      31604.964      0.88381617    -12094.798     -9957.0517    
     55000   306.21736      552.83504      30748.498      0.90843389    -12087.5       -9878.5822    
     56000   293.98965      871.79496      30759.404      0.90811181    -12144.037     -10023.325    
     57000   303.14742     -110.71793      30474.347      0.91660628    -12092.765     -9905.9928    
     58000   309.5405       472.57065      30464.558      0.91690081    -12154.756     -9921.8669    
     59000   301.70351     -577.29479      30630.742      0.91192627    -12122.882     -9946.5254    
     60000   309.85173     -150.66139      30756.081      0.90820992    -12141.584     -9906.4493    
     61000   295.30281     -388.45242      30419.869      0.9182478     -12220.823     -10090.638    
     62000   301.30961     -720.61857      30589.518      0.91315522    -12129.964     -9956.4489    
     63000   297.15089      282.74945      30917.397      0.90347121    -12099.915     -9956.399     
     64000   305.97499     -1891.9729      30582.683      0.91335929    -12105.991     -9898.8224    
     65000   302.45363     -1115.6093      30404.68       0.91870651    -12132.23      -9950.4629    
     66000   305.74697      381.74834      30325.924      0.9210924     -12193.653     -9988.1286    
     67000   299.10203      237.83855      30335.091      0.92081404    -12171.231     -10013.64     
     68000   300.18618     -294.48288      30182.723      0.9254625     -12112.931     -9947.5202    
     69000   297.49111      1087.2271      30882.072      0.90450467    -12128.177     -9982.2068    
     70000   294.85216     -899.82389      30595.963      0.91296287    -12095.503     -9968.569     
     71000   299.76866      874.97942      30262.12       0.9230344     -12142.528     -9980.1289    
     72000   303.39708      118.74657      30852.828      0.905362      -12156.137     -9967.5637    
     73000   308.84416      505.26673      30387.954      0.9192122     -12169.733     -9941.8666    
     74000   305.94042      695.25764      30483.94       0.91631783    -12213.893     -10006.973    
     75000   305.13843      1182.5661      30696.021      0.90998693    -12118.129     -9916.9943    
     76000   299.15538     -1108.1541      30742.136      0.9086219     -12083.554     -9925.5788    
     77000   300.94581      316.31039      30386.777      0.9192478     -12159.455     -9988.5641    
     78000   303.45453      385.18637      30261.694      0.92304741    -12131.593     -9942.6056    
     79000   300.15448     -1550.6083      30441.46       0.91759654    -12121.873     -9956.6901    
     80000   300.36671      1028.5516      30218.513      0.92436639    -12157.774     -9991.0608    
     81000   296.8574      -157.29713      30016.777      0.93057887    -12171.411     -10030.012    
     82000   298.27099     -1178.9626      30559.142      0.91406291    -12110.874     -9959.2781    
     83000   295.84567      536.38678      29916.41       0.93370087    -12216.01      -10081.909    
     84000   303.69267     -789.64859      29900.365      0.93420189    -12188.043     -9997.3376    
     85000   292.69167     -714.51132      29870.598      0.93513288    -12175.076     -10063.727    
     86000   302.4035       119.15377      29920.209      0.93358231    -12209.729     -10028.323    
     87000   301.38788      202.60021      30038.011      0.92992102    -12186.048     -10011.968    
     88000   303.80694     -584.95111      29922.237      0.93351903    -12219.391     -10027.861    
     89000   298.35483      651.8393       29972.387      0.93195707    -12197.413     -10045.213    
     90000   302.9318       277.0538       29879.414      0.93485696    -12276.217     -10091.001    
     91000   294.81401      74.443384      30159.803      0.92616579    -12191.01      -10064.351    
     92000   305.75094      644.95918      29855.834      0.9355953     -12204.557     -9999.0043    
     93000   297.1602       374.76655      29740.897      0.93921101    -12190.661     -10047.078    
     94000   294.42002      458.63857      30037.712      0.92993028    -12135.976     -10012.159    
     95000   305.83282      1358.8116      29500.152      0.94687574    -12257.836     -10051.692    
     96000   299.83861     -196.25974      29897.299      0.93429772    -12308.199     -10145.295    
     97000   298.95612     -620.29363      30189.563      0.92525282    -12248.919     -10092.381    
     98000   304.72803     -700.63909      30071.144      0.92889641    -12230.826     -10032.652    
     99000   301.2852       296.30131      29994.511      0.93126965    -12193.205     -10019.866    
    100000   301.40474      45.554843      30208.548      0.92467132    -12227.527     -10053.326    
    101000   302.3976       1415.9252      30075.133      0.9287732     -12218.165     -10036.802    
    102000   291.9172      -467.86997      29905.11       0.93405366    -12222.941     -10117.179    
    103000   298.74832     -332.22848      30106.585      0.92780292    -12228.609     -10073.57     
    104000   294.20861      4.6897921      29888.604      0.9345695     -12267.765     -10145.473    
    105000   293.39422     -209.34424      30041.617      0.92980941    -12200.848     -10084.431    
    106000   295.52197     -39.414101      29552.576      0.94519604    -12183.353     -10051.587    
    107000   301.2679       43.342038      30017.61       0.93055304    -12223.944     -10050.73     
    108000   306.40062      494.64046      29993.707      0.93129462    -12225.513     -10015.274    
    109000   305.11394     -166.94569      29826.811      0.93650568    -12234.852     -10033.894    
    110000   310.04081      948.03414      29764.524      0.93846546    -12164.429     -9927.9309    
    111000   300.24835     -569.32075      29978.522      0.93176634    -12200.87      -10035.01     
    112000   299.2553      -1184.6468      29837.276      0.93617721    -12153.449     -9994.7527    
    113000   302.41678      847.11649      30149.785      0.92647354    -12190.002     -10008.5      
    114000   299.13766     -291.21973      30042.784      0.9297733     -12205.426     -10047.578    
    115000   302.49547      1107.5793      30092.354      0.92824171    -12179.712     -9997.6423    
    116000   304.72597      977.30291      29533.621      0.94580269    -12251.029     -10052.87     
    117000   305.77695     -1143.0902      29793.362      0.93755709    -12211.236     -10005.496    
    118000   304.16708     -103.5381       30330.322      0.92095883    -12169.725     -9975.5977    
    119000   306.91153      326.30332      30357.311      0.92014005    -12178.92      -9964.9954    
    120000   309.57172     -592.41634      30277.071      0.92257859    -12181.385     -9948.2711    
Loop time of 5577.78 on 2 procs for 100000 steps with 3085 atoms

Performance: 1.549 ns/day, 15.494 hours/ns, 17.928 timesteps/s, 55.309 katom-step/s
98.2% CPU use with 2 MPI tasks x 1 OpenMP threads

MPI task timing breakdown:
Section |  min time  |  avg time  |  max time  |%varavg| %total
---------------------------------------------------------------
Pair    | 2893.5     | 2975       | 3056.4     | 149.3 | 53.34
Bond    | 227.59     | 231.08     | 234.56     |  22.9 |  4.14
Kspace  | 1344.6     | 1430.3     | 1516.1     | 226.7 | 25.64
Neigh   | 312.74     | 313.04     | 313.33     |   1.7 |  5.61
Comm    | 145.49     | 146.35     | 147.22     |   7.2 |  2.62
Output  | 0.06992    | 0.099278   | 0.12864    |   9.3 |  0.00
Modify  | 423.56     | 425.43     | 427.3      |   9.1 |  7.63
Other   |            | 56.48      |            |       |  1.01

Nlocal:         1542.5 ave        1609 max        1476 min
Histogram: 1 0 0 0 0 0 0 0 0 1
Nghost:        10448.5 ave       10775 max       10122 min
Histogram: 1 0 0 0 0 0 0 0 0 1
Neighs:         573530 ave      588567 max      558492 min
Histogram: 1 0 0 0 0 0 0 0 0 1

Total # of neighbors = 1147059
Ave neighs/atom = 371.81815
Ave special neighs/atom = 8.0920583
Neighbor list builds = 3996
Dangerous builds = 0
unfix NPTEQ
write_data data.after_equilibration.lmp
System init for write_data ...
PPPM initialization ...
  using 12-bit tables for long-range coulomb
  G vector (1/distance) = 0.29590686
  grid = 24 24 24
  stencil order = 5
  estimated absolute RMS force accuracy = 0.0021034185
  estimated relative force accuracy = 6.3343823e-06
  using double precision FFTW3
  3d grid and FFT values/proc = 18259 6912
Generated 105 of 105 mixed pair_coeff terms from geometric mixing rule

# --- 4. NPT production - this is the trajectory you analyse ----------------
print "RENEU >>> stage 4 of 4: NPT production"
RENEU >>> stage 4 of 4: NPT production
reset_timestep 0
fix NPTPROD all npt temp ${TK} ${TK} 100 iso ${PBAR} ${PBAR} 1000
fix NPTPROD all npt temp 300 ${TK} 100 iso ${PBAR} ${PBAR} 1000
fix NPTPROD all npt temp 300 300 100 iso ${PBAR} ${PBAR} 1000
fix NPTPROD all npt temp 300 300 100 iso 1 ${PBAR} 1000
fix NPTPROD all npt temp 300 300 100 iso 1 1 1000
fix DENSAVG all ave/time 10 100 1000 v_dens v_vol file density.dat

dump TRAJ all custom 500 dump.lammpstrj id mol type element q xu yu zu
dump_modify TRAJ element N C H C H C H H C C O C H O N

run ${PRODRUN}
run 200000
PPPM initialization ...
  using 12-bit tables for long-range coulomb
  G vector (1/distance) = 0.29590686
  grid = 24 24 24
  stencil order = 5
  estimated absolute RMS force accuracy = 0.0021034185
  estimated relative force accuracy = 6.3343823e-06
  using double precision FFTW3
  3d grid and FFT values/proc = 18259 6912
Generated 105 of 105 mixed pair_coeff terms from geometric mixing rule
Per MPI rank memory allocation (min/avg/max) = 16.8 | 16.99 | 17.18 Mbytes
   Step          Temp          Press          Volume         v_dens         PotEng         TotEng    
         0   309.57172     -493.57819      30277.071      0.92257859    -12181.382     -9948.2673    
      1000   295.36666     -687.60171      29937.052      0.93305707    -12156.93      -10026.285    
      2000   303.00367      207.34921      29998.517      0.93114531    -12144.786     -9959.0505    
      3000   295.65713     -425.61407      29443.999      0.94868153    -12229.485     -10096.745    
      4000   297.29166      763.69346      29881.851      0.93478072    -12218.475     -10073.944    
      5000   296.19923     -1245.0403      30271.097      0.92276068    -12194.616     -10057.965    
      6000   305.97117      1356.9387      30185.323      0.92538279    -12204.239     -9997.0976    
      7000   299.53793     -1003.8799      30367.458      0.91983261    -12267.965     -10107.23     
      8000   306.87304     -89.799025      29985.968      0.93153497    -12240.65      -10027.003    
      9000   297.93698      8.712542       29927.579      0.93335241    -12277.372     -10128.186    
     10000   302.40338     -370.44848      30428.739      0.91798014    -12148.637     -9967.2316    
     11000   305.87337     -747.03938      30426.72       0.91804106    -12193.237     -9986.8009    
     12000   298.73484     -98.933431      29935.072      0.9331188     -12175.803     -10020.861    
     13000   298.8563      -345.25684      30016.792      0.93057838    -12217.855     -10062.037    
     14000   300.24152     -403.87186      29970.696      0.93200967    -12151.672     -9985.8615    
     15000   293.87023      67.24056       29629.079      0.94275552    -12217.74      -10097.889    
     16000   309.63837     -102.34876      30094.51       0.9281752     -12208.531     -9974.9357    
     17000   304.05319      1006.551       30136.029      0.92689643    -12191.101     -9997.7946    
     18000   293.71981     -491.25991      30244.191      0.92358158    -12189.247     -10070.481    
     19000   301.33809     -905.03515      30075.057      0.92877556    -12148.069     -9974.3489    
     20000   300.04597      991.82181      30058.674      0.92928176    -12152.566     -9988.1666    
     21000   298.08156      647.99151      29824.121      0.93659015    -12203.142     -10052.912    
     22000   291.63701      267.43733      30232.309      0.92394456    -12137.685     -10033.944    
     23000   302.28588      570.87544      29627.99       0.94279019    -12198.163     -10017.606    
     24000   305.18759      292.3763       29671.798      0.94139823    -12220.063     -10018.574    
     25000   297.57294     -949.04928      29711.798      0.94013087    -12238.992     -10092.432    
     26000   304.6063      -774.52494      29973.189      0.93193213    -12209.066     -10011.77     
     27000   299.27243      650.7995       29519.497      0.94625523    -12298.633     -10139.813    
     28000   302.76266     -415.84443      29554.424      0.94513695    -12191.101     -10007.104    
     29000   305.12118      1057.775       29586.048      0.94412671    -12197.715     -9996.7052    
     30000   295.69878     -999.24476      29774.33       0.9381564     -12221.332     -10088.291    
     31000   303.7819      -730.45568      30124.008      0.92726631    -12188.897     -9997.5482    
     32000   298.61419     -1366.1128      29891.478      0.93447967    -12249.156     -10095.084    
     33000   304.00285      591.59581      29584.43       0.94417835    -12156.657     -9963.7137    
     34000   299.69501     -59.128185      29835.99       0.93621756    -12243.417     -10081.548    
     35000   301.32576      1223.0394      29943.315      0.93286192    -12239.568     -10065.937    
     36000   302.27093      703.45137      29649.263      0.94211372    -12249.135     -10068.686    
     37000   294.50074     -970.12161      30104.335      0.92787227    -12222.672     -10098.273    
     38000   304.48766     -791.39695      29854.73       0.93562988    -12216.736     -10020.296    
     39000   307.6846       1103.2987      29754.26       0.93878919    -12258.191     -10038.689    
     40000   293.6704      -661.68308      29832.084      0.93634015    -12265.312     -10146.903    
     41000   301.20281      393.9789       29576.373      0.94443556    -12252.732     -10079.988    
     42000   289.14571     -58.03078       29458.008      0.94823037    -12226.739     -10140.969    
     43000   295.10634      30.926258      29230.374      0.9556148     -12176.14      -10047.373    
     44000   304.37535      780.89652      29627.007      0.94282145    -12149.437     -9953.8075    
     45000   290.5948      -440.82195      29625.683      0.9428636     -12218.201     -10121.977    
     46000   299.46029     -578.15654      29533.268      0.94581398    -12156.39      -9996.2148    
     47000   289.75717      174.53961      29443.541      0.94869629    -12176.962     -10086.781    
     48000   299.16584     -383.3288       29697.333      0.94058878    -12171.87      -10013.819    
     49000   296.88328     -826.91759      29569.807      0.94464525    -12264.896     -10123.311    
     50000   303.55351      806.74498      29483.437      0.94741254    -12193.814     -10004.112    
     51000   299.65211     -656.53468      29733.893      0.93943226    -12220.302     -10058.743    
     52000   309.71054     -249.471        29966.219      0.93214891    -12233.882     -9999.7659    
     53000   300.45883      137.52051      29562.737      0.94487116    -12142.151     -9974.7736    
     54000   302.246       -296.57692      29564.484      0.94481533    -12198.005     -10017.735    
     55000   299.7398      -565.16825      29715.66       0.94000868    -12239.729     -10077.538    
     56000   300.73506     -562.23537      29575.026      0.94447855    -12239.973     -10070.603    
     57000   309.46433     -1359.6093      29333.742      0.95224735    -12235.534     -10003.194    
     58000   298.76891      526.63185      29687.332      0.94090564    -12291.662     -10136.474    
     59000   305.15994     -527.41531      29743.315      0.93913466    -12218.28      -10016.99     
     60000   300.16162     -957.17991      29415.582      0.949598      -12230.984     -10065.75     
     61000   304.73596     -1611.2513      29865.681      0.93528682    -12268.234     -10070.003    
     62000   292.19654      276.14994      29522.815      0.94614887    -12152.708     -10044.931    
     63000   303.8373      -245.21137      29427.724      0.94920621    -12267.811     -10076.062    
     64000   302.18951     -59.431363      29555.927      0.94508888    -12212.904     -10033.041    
     65000   305.08264      525.706        29354.142      0.95158556    -12286.571     -10085.839    
     66000   300.18867      457.99119      29445.234      0.94864173    -12216.35      -10050.921    
     67000   302.82887      322.58177      29586.114      0.94412459    -12234.558     -10050.083    
     68000   304.32167      1352.275       29284.82       0.95383815    -12226.325     -10031.082    
     69000   290.83308     -1121.6173      29887.684      0.93459828    -12202.282     -10104.34     
     70000   301.45268     -787.81848      29353.694      0.95160009    -12194.631     -10020.084    
     71000   304.06926      194.79958      29318.294      0.95274908    -12252.745     -10059.323    
     72000   301.44355     -1266.5101      29191.225      0.95689639    -12255.248     -10080.767    
     73000   295.89246      853.12519      29081.569      0.96050451    -12254.302     -10119.864    
     74000   305.04924      733.91495      29407.935      0.94984494    -12260.92      -10060.429    
     75000   295.57979      279.31084      29093.177      0.96012126    -12229.556     -10097.374    
     76000   297.7487       536.06054      29419.654      0.94946658    -12199.73      -10051.902    
     77000   304.15167     -279.35665      29209.839      0.95628662    -12255.553     -10061.536    
     78000   297.83062      113.79925      29887.936      0.93459041    -12259.776     -10111.357    
     79000   297.85324      923.63393      29307.428      0.95310234    -12202.471     -10053.888    
     80000   304.99341      171.61346      29052.749      0.96145732    -12280.353     -10080.265    
     81000   296.62814      132.89033      29578.308      0.94437375    -12250.163     -10110.418    
     82000   287.11839      610.29641      29647.899      0.9421571     -12257.923     -10186.777    
     83000   296.11512      1282.327       29508.923      0.94659429    -12189.032     -10052.988    
     84000   292.26968      785.80223      29529.323      0.94594036    -12265.099     -10156.795    
     85000   307.61736     -316.85369      29548.902      0.94531358    -12266.987     -10047.97     
     86000   297.81754     -1272.26        29675.987      0.94126534    -12239.845     -10091.52     
     87000   305.23929      940.5211       29347.864      0.95178913    -12233.33      -10031.468    
     88000   303.98593     -982.94558      29124.285      0.95909576    -12166.41      -9973.5891    
     89000   289.88446     -1800.9368      29417.914      0.94952272    -12227.997     -10136.898    
     90000   298.77519     -286.52836      29431.394      0.94908785    -12226.367     -10071.135    
     91000   287.19639      893.82863      29007.444      0.96295897    -12202.961     -10131.252    
     92000   297.69648      408.66501      29389.8        0.95043103    -12189.661     -10042.21     
     93000   300.31841      181.80308      29290.622      0.95364919    -12233.044     -10066.679    
     94000   301.70526      166.84273      29267.38       0.95440651    -12249.676     -10073.307    
     95000   300.05038     -415.71101      28929.023      0.96556936    -12226.146     -10061.714    
     96000   298.41061     -52.917737      28788.919      0.9702684     -12201.419     -10048.816    
     97000   305.20168      596.5425       29107.51       0.9596485     -12265.569     -10063.978    
     98000   291.57817      152.07481      29054.333      0.96140489    -12262.264     -10158.947    
     99000   301.8652       1309.0468      29276.112      0.95412184    -12226.321     -10048.798    
    100000   296.66165     -567.68765      29572.768      0.94455069    -12188.737     -10048.751    
    101000   301.79764      681.45665      29523.833      0.94611625    -12204.058     -10027.022    
    102000   306.36437     -221.57721      29354.028      0.95158927    -12233.225     -10023.247    
    103000   301.76513      398.29047      29051.756      0.96149017    -12238.408     -10061.607    
    104000   301.61504      2035.7827      28730.57       0.9722389     -12231.7       -10055.982    
    105000   291.65157      974.16968      28876.353      0.96733053    -12315.445     -10211.599    
    106000   309.223       -937.28376      29220.325      0.95594344    -12254.057     -10023.458    
    107000   303.96898      584.74005      28938.991      0.96523677    -12223.587     -10030.888    
    108000   295.0299      -690.87739      29093.183      0.96012106    -12257.652     -10129.436    
    109000   302.72954     -1452.3892      29144.808      0.95842039    -12225.694     -10041.936    
    110000   303.9556       637.52591      29175.277      0.95741947    -12239.157     -10046.555    
    111000   302.94158      1447.66        28941.264      0.96516096    -12218.019     -10032.732    
    112000   306.36503      79.592191      29456.168      0.94828959    -12260.373     -10050.39     
    113000   303.00485     -858.99043      29151.083      0.95821408    -12231.792     -10046.048    
    114000   293.58522      898.69178      29142.598      0.95849307    -12226.924     -10109.129    
    115000   297.44474      45.603363      29205.441      0.95643062    -12252.911     -10107.276    
    116000   301.35662      690.7938       29287.403      0.953754      -12226.048     -10052.193    
    117000   298.08819     -300.12382      28863.697      0.96775467    -12215.193     -10064.916    
    118000   295.39861      542.44506      28886.111      0.96700376    -12207.723     -10076.847    
    119000   297.23592      597.08528      28849.221      0.96824029    -12284.803     -10140.673    
    120000   299.40515     -119.32833      28854.62       0.96805912    -12189.024     -10029.247    
    121000   301.08066     -29.302426      29062.978      0.96111891    -12274.898     -10103.034    
    122000   309.37785     -496.75926      28841.233      0.96850846    -12263.532     -10031.817    
    123000   303.68906      572.75249      28914.29       0.96606136    -12303.929     -10113.249    
    124000   300.8775       698.64991      29013.229      0.96276697    -12281.054     -10110.656    
    125000   298.51939      316.43035      28924.454      0.96572188    -12268.494     -10115.106    
    126000   301.6463       351.77846      28988.321      0.96359421    -12254.843     -10078.899    
    127000   314.92255      142.68707      29262.513      0.95456526    -12263.242     -9991.5296    
    128000   299.34873     -50.837215      29040.926      0.96184874    -12255.837     -10096.467    
    129000   305.89801      337.89966      29258.754      0.95468789    -12185.444     -9978.8298    
    130000   295.98606      46.578515      29070.534      0.9608691     -12274.163     -10139.05     
    131000   308.78711     -896.07334      29015.194      0.96270174    -12220.396     -9992.9413    
    132000   304.94393     -67.550367      28866.86       0.96764866    -12281.565     -10081.833    
    133000   300.20324     -1496.4279      29150.818      0.95822279    -12263.331     -10097.797    
    134000   298.57666     -688.06332      29270.304      0.95431117    -12316.146     -10162.346    
    135000   303.57302     -210.69018      28988.478      0.96358898    -12242.275     -10052.432    
    136000   295.83823     -494.84098      28953.945      0.96473826    -12295.362     -10161.315    
    137000   305.70979     -596.79088      28957.016      0.96463594    -12253.208     -10047.951    
    138000   301.01314      671.6268       29104.493      0.95974795    -12294.641     -10123.264    
    139000   295.95393      729.10788      29052.294      0.96147238    -12239.468     -10104.587    
    140000   306.88268     -1572.6198      29365.507      0.95121729    -12238.937     -10025.22     
    141000   297.03231      244.29284      28763.065      0.97114054    -12291.098     -10148.437    
    142000   299.97726     -461.37704      29389.77       0.95043201    -12247.459     -10083.555    
    143000   299.32729     -315.26116      29050.521      0.96153104    -12244.871     -10085.655    
    144000   305.88739      1276.0416      29082.845      0.96046237    -12258.118     -10051.581    
    145000   297.66935     -510.05507      28974.389      0.96405753    -12277.898     -10130.642    
    146000   308.45079     -465.98941      29033.542      0.96209334    -12271.004     -10045.975    
    147000   291.16271     -1751.3043      29580.238      0.94431215    -12290.145     -10189.825    
    148000   297.19929     -19.385002      28692.259      0.97353708    -12267.477     -10123.611    
    149000   299.66689     -328.07441      28910.595      0.96618482    -12240.638     -10078.973    
    150000   293.78382      87.973169      28933.337      0.96542537    -12298.234     -10179.007    
    151000   303.62085      405.00548      29369.581      0.95108535    -12227.236     -10037.049    
    152000   291.70889      457.70755      28877.412      0.96729507    -12226.457     -10122.197    
    153000   304.77406      1564.9622      29216.873      0.95605639    -12190.127     -9991.6207    
    154000   297.58773      973.53149      29128.992      0.95894078    -12283.803     -10137.136    
    155000   298.84365     -306.0006       29366.243      0.95119345    -12288.01      -10132.284    
    156000   306.44092     -210.19757      29404.438      0.9499579     -12250.218     -10039.688    
    157000   293.86206      938.6041       29517.044      0.94633386    -12214.237     -10094.445    
    158000   303.19342      415.39789      29009.678      0.96288481    -12258.315     -10071.211    
    159000   303.18266     -5.8932086      29500.872      0.94685263    -12195.781     -10008.755    
    160000   300.58639      111.03535      29024.05       0.962408      -12276.337     -10108.039    
    161000   289.69002      817.67082      29466.763      0.94794863    -12205.29      -10115.594    
    162000   295.24163     -219.45693      29196.85       0.95671206    -12172.785     -10043.041    
    163000   301.433       -185.73564      29166.594      0.9577045     -12251.04      -10076.635    
    164000   295.52154     -463.35252      29138.109      0.95864073    -12219.509     -10087.747    
    165000   294.77154     -95.135175      29017.804      0.96261516    -12225.307     -10098.955    
    166000   299.68165      105.42507      28992.132      0.96346754    -12273.268     -10111.497    
    167000   299.89894      157.06363      29158.214      0.95797972    -12299.02      -10135.681    
    168000   298.91391     -416.47449      29230.758      0.95560226    -12198.108     -10041.874    
    169000   305.40697      977.41562      28832.318      0.96880793    -12242.09      -10039.019    
    170000   295.6889      -575.88352      29291.7        0.9536141     -12265.501     -10132.531    
    171000   301.37594      175.10247      29004.595      0.96305353    -12260.703     -10086.709    
    172000   305.18674     -626.44254      28977.905      0.96394056    -12240.425     -10038.942    
    173000   295.71759     -1281.9668      29423.168      0.94935318    -12270.511     -10137.334    
    174000   296.0182      -417.67099      29490.311      0.9471917     -12174.052     -10038.706    
    175000   301.79318      524.09075      29281.768      0.95393756    -12260.243     -10083.239    
    176000   293.36276     -1029.8064      29354.808      0.95156398    -12256.996     -10140.806    
    177000   289.21447     -4.4460737      29030.724      0.96218676    -12224.942     -10138.676    
    178000   295.18048     -1025.7613      29323.177      0.95259044    -12259.605     -10130.303    
    179000   299.83874     -749.70643      29269.691      0.95433114    -12264.839     -10101.934    
    180000   299.3354      -981.22383      29435.623      0.94895148    -12205.587     -10046.313    
    181000   293.65548      512.7196       29044.751      0.96172208    -12200.805     -10082.504    
    182000   300.72502      318.29393      29347.086      0.95181436    -12277.52      -10108.222    
    183000   303.94494     -174.24636      29141.054      0.95854386    -12296.374     -10103.849    
    184000   306.84121     -228.90533      28959.535      0.96455202    -12248.024     -10034.606    
    185000   297.42624      266.85779      29248.46       0.95502389    -12284.487     -10138.985    
    186000   298.20957      871.92696      29078.702      0.9605992     -12220.179     -10069.026    
    187000   299.50149      1464.793       29182.681      0.95717654    -12242.112     -10081.64     
    188000   292.46439     -545.38183      29337.554      0.95212361    -12240.684     -10130.974    
    189000   304.29498      1147.6776      28878.195      0.96726884    -12310.761     -10115.711    
    190000   301.4915       150.31014      29219.341      0.95597562    -12183.629     -10008.802    
    191000   297.37305      347.73053      28992.377      0.9634594     -12229.96      -10084.842    
    192000   305.82751     -922.53471      28938.536      0.96525192    -12276.118     -10070.013    
    193000   308.82562      343.85621      28768.64       0.97095234    -12278.368     -10050.635    
    194000   299.0693       813.5992       28901.61       0.96648519    -12288.503     -10131.149    
    195000   286.08005      1939.1607      28263.579      0.98830292    -12304.265     -10240.61     
    196000   300.4383       653.77825      28815.436      0.96937551    -12244.042     -10076.812    
    197000   298.07352     -325.15767      28537.187      0.97882732    -12286.925     -10136.754    
    198000   297.76494     -115.26336      28775.393      0.97072445    -12249.786     -10101.84     
    199000   301.29496      322.80798      29073.623      0.96076701    -12293.976     -10120.566    
    200000   291.32113     -416.90994      28805.056      0.96972481    -12151.617     -10050.154    
Loop time of 11833.1 on 2 procs for 200000 steps with 3085 atoms

Performance: 1.460 ns/day, 16.435 hours/ns, 16.902 timesteps/s, 52.142 katom-step/s
98.1% CPU use with 2 MPI tasks x 1 OpenMP threads

MPI task timing breakdown:
Section |  min time  |  avg time  |  max time  |%varavg| %total
---------------------------------------------------------------
Pair    | 6541.3     | 6612.1     | 6682.8     |  87.0 | 55.88
Bond    | 465.73     | 467.22     | 468.72     |   6.9 |  3.95
Kspace  | 2763.8     | 2833.7     | 2903.7     | 131.4 | 23.95
Neigh   | 626.61     | 626.84     | 627.07     |   0.9 |  5.30
Comm    | 290.69     | 291.62     | 292.55     |   5.4 |  2.46
Output  | 22.652     | 25.931     | 29.21      |  64.4 |  0.22
Modify  | 861.69     | 861.82     | 861.96     |   0.5 |  7.28
Other   |            | 113.8      |            |       |  0.96

Nlocal:         1542.5 ave        1564 max        1521 min
Histogram: 1 0 0 0 0 0 0 0 0 1
Nghost:        10941.5 ave       11064 max       10819 min
Histogram: 1 0 0 0 0 0 0 0 0 1
Neighs:         597974 ave      606901 max      589046 min
Histogram: 1 0 0 0 0 0 0 0 0 1

Total # of neighbors = 1195947
Ave neighs/atom = 387.66515
Ave special neighs/atom = 8.0920583
Neighbor list builds = 7743
Dangerous builds = 0

write_data data.final.lmp
System init for write_data ...
PPPM initialization ...
  using 12-bit tables for long-range coulomb
  G vector (1/distance) = 0.2971688
  grid = 24 24 24
  stencil order = 5
  estimated absolute RMS force accuracy = 0.0020009532
  estimated relative force accuracy = 6.0258111e-06
  using double precision FFTW3
  3d grid and FFT values/proc = 18259 6912
Generated 105 of 105 mixed pair_coeff terms from geometric mixing rule
print "RENEU >>> finished. trajectory = dump.lammpstrj, density log = density.dat"
RENEU >>> finished. trajectory = dump.lammpstrj, density log = density.dat
Total wall time: 5:04:13
