14
propylammonium reneu.ff
N            0.000000        0.000000        0.000000
C            1.482000        0.000000        0.000000
H           -0.379952       -0.956283        0.000000
H           -0.368995        0.476022        0.834318
H           -0.380252        0.486612       -0.823078
C            1.982532       -0.712054       -1.247352
H            1.799846       -0.506848        0.915923
H            1.799772        1.046429        0.029047
C            3.501802       -0.733847       -1.289125
H            1.604593       -0.210360       -2.146726
H            1.607029       -1.742521       -1.270672
H            3.850164       -1.248054       -2.189719
H            3.907785        0.283061       -1.299171
H            3.909892       -1.257960       -0.418612
