19
diethanolammonium reneu.ff
N            0.000000        0.000000        0.000000
C            1.492000        0.000000        0.000000
C           -0.637221       -1.359025        0.000000
H           -0.370737        0.573213        0.772620
H           -0.324206        0.505937       -0.847608
C            1.992846        1.443585       -0.001083
H            1.797244       -0.516389       -0.918465
H            1.835127       -0.553689        0.878936
C           -2.148871       -1.184598       -0.100581
H           -0.252473       -1.877080       -0.884654
H           -0.337986       -1.876512        0.913855
O            1.348661        2.146871       -1.055834
H            3.076647        1.469424       -0.147861
H            1.746679        1.938381        0.945381
O           -2.411201       -0.374675       -1.245804
H           -2.651788       -2.152286       -0.198969
H           -2.545565       -0.671793        0.783093
H            1.807876        3.005544       -1.157041
H           -2.977241       -0.890052       -1.852859
