LAMMPS (10 Dec 2025)
OMP_NUM_THREADS environment is not set. Defaulting to 1 thread.
  using 1 OpenMP thread(s) per MPI task
# created by fftool

units real
boundary p p p

atom_style full
bond_style harmonic
angle_style harmonic
dihedral_style opls

special_bonds lj/coul 0.0 0.0 0.5

# remove hybrid if not necessary
pair_style hybrid lj/cut/coul/long 10.0 10.0
pair_modify mix geometric tail yes
read_data data.lmp
Reading data file ...
  orthogonal box = (0 0 0) to (36.38 36.38 36.38)
  1 by 1 by 2 MPI processor grid
  reading atoms ...
  2758 atoms
  scanning bonds ...
  1 = max bonds/atom
  scanning angles ...
  6 = max angles/atom
  scanning dihedrals ...
  9 = max dihedrals/atom
  orthogonal box = (0 0 0) to (36.38 36.38 36.38)
  1 by 1 by 2 MPI processor grid
  reading bonds ...
  2322 bonds
  reading angles ...
  3267 angles
  reading dihedrals ...
  3549 dihedrals
Finding 1-2 1-3 1-4 neighbors ...
  special bond factors lj:    0        0        0.5     
  special bond factors coul:  0        0        0.5     
     4 = max # of 1-2 neighbors
     6 = max # of 1-3 neighbors
    12 = max # of 1-4 neighbors
    16 = max # of special neighbors
  special bonds CPU = 0.004 seconds
  read_data CPU = 0.252 seconds
# read_restart restart1.lmp

kspace_style pppm 1.0e-5

# remove pair style if not using hybrid
pair_coeff    1    1 lj/cut/coul/long     0.170000     3.250000  # N1 N1
pair_coeff    2    2 lj/cut/coul/long     0.065999     3.500000  # C1ND C1ND
pair_coeff    3    3 lj/cut/coul/long     0.000000     0.000000  # HN HN
pair_coeff    4    4 lj/cut/coul/long     0.065999     3.500000  # CTOD CTOD
pair_coeff    5    5 lj/cut/coul/long     0.030000     2.500000  # H1N H1N
pair_coeff    6    6 lj/cut/coul/long     0.170000     3.120000  # OH OH
pair_coeff    7    7 lj/cut/coul/long     0.030000     2.500000  # H1O H1O
pair_coeff    8    8 lj/cut/coul/long     0.000000     1.000000  # HO HO
pair_coeff    9    9 lj/cut/coul/long     0.105000     3.750000  # CO2 CO2
pair_coeff   10   10 lj/cut/coul/long     0.065999     3.500000  # CTA CTA
pair_coeff   11   11 lj/cut/coul/long     0.210000     2.960000  # O2 O2
pair_coeff   12   12 lj/cut/coul/long     0.030000     2.500000  # HC HC
pair_coeff   13   13 lj/cut/coul/long     0.000000     1.000000  # Hw Hw
pair_coeff   14   14 lj/cut/coul/long     0.155425     3.165500  # Ow Ow
pair_coeff   15   15 lj/cut/coul/long     0.125643     2.995200  # Nd Nd

# minimize 1.0e-4 1.0e-6 100 1000
# reset_timestep 0

fix SHAKE all shake 0.0001 20 0 b 2 4 6 9
Finding SHAKE clusters ...
     144 = # of size 2 clusters
     648 = # of size 3 clusters
      75 = # of size 4 clusters
       0 = # of frozen angles
  find clusters CPU = 0.017 seconds

neighbor 2.0 bin
neigh_modify delay 0 every 1 check yes








#fix VAVG all ave/time 10 1000 50000 v_vinst

# ---------------------------------------------------------------------------
# RENEU 2026 simulation protocol (stage3b M5 diethanolammonium acetate)
# 1 minimise  2 NVT relaxation  3 NPT equilibration  4 NPT production
# ---------------------------------------------------------------------------
timestep 1.0

variable TK      equal 300.0
variable PBAR    equal 1.0
variable NVTRUN  equal 20000
variable EQRUN   equal 100000
variable PRODRUN equal 200000

variable dens equal density
variable vol  equal vol

thermo 1000
thermo_style custom step temp press vol v_dens pe etotal

# --- 1. energy minimisation ------------------------------------------------
print "RENEU >>> stage 1 of 4: energy minimisation"
RENEU >>> stage 1 of 4: energy minimisation
minimize 1.0e-4 1.0e-6 10000 100000
PPPM initialization ...
  using 12-bit tables for long-range coulomb
  G vector (1/distance) = 0.2930596
  grid = 27 27 27
  stencil order = 5
  estimated absolute RMS force accuracy = 0.0028785549
  estimated relative force accuracy = 8.6686826e-06
  using double precision FFTW3
  3d grid and FFT values/proc = 23120 10206
Generated 105 of 105 mixed pair_coeff terms from geometric mixing rule
WARNING: Using fix shake with minimization.
  Substituting constraints with harmonic restraint forces using kbond=1987206.7 (src/RIGID/fix_shake.cpp:397)
Neighbor list info ...
  update: every = 1 steps, delay = 0 steps, check = yes
  max neighbors/atom: 2000, page size: 100000
  master list distance cutoff = 12
  ghost atom cutoff = 12
  binsize = 6, bins = 7 7 7
  1 neighbor lists, perpetual/occasional/extra = 1 0 0
  (1) pair lj/cut/coul/long, perpetual
      attributes: half, newton on
      pair build: half/bin/newton
      stencil: half/bin/3d
      bin: standard
Per MPI rank memory allocation (min/avg/max) = 16.99 | 17.15 | 17.3 Mbytes
   Step          Temp          Press          Volume         v_dens         PotEng         TotEng    
         0   0             -11708825       48149.09       0.60019536     529305.32      529305.32    
         7   0              77685.027      48149.09       0.60019536    -2730.0084     -2730.0084    
Loop time of 1.72759 on 2 procs for 7 steps with 2758 atoms

99.9% CPU use with 2 MPI tasks x 1 OpenMP threads

Minimization stats:
  Stopping criterion = energy tolerance
  Energy initial, next-to-last, final = 
      529305.318436648  -2729.85224063544  -2730.00843696618
  Force two-norm initial, final = 2834737.6 21032.94
  Force max component initial, final = 134861.75 1205.6092
  Final line search alpha, max atom move = 6.070979e-07 0.00073192278
  Iterations, force evaluations = 7 33

MPI task timing breakdown:
Section |  min time  |  avg time  |  max time  |%varavg| %total
---------------------------------------------------------------
Pair    | 0.93412    | 0.97116    | 1.0082     |   3.8 | 56.21
Bond    | 0.04415    | 0.04743    | 0.050711   |   1.5 |  2.75
Kspace  | 0.52846    | 0.56405    | 0.59964    |   4.7 | 32.65
Neigh   | 0          | 0          | 0          |   0.0 |  0.00
Comm    | 0.095091   | 0.1003     | 0.1055     |   1.6 |  5.81
Output  | 0          | 0          | 0          |   0.0 |  0.00
Modify  | 0.013116   | 0.016169   | 0.019222   |   2.4 |  0.94
Other   |            | 0.02848    |            |       |  1.65

Nlocal:           1379 ave        1385 max        1373 min
Histogram: 1 0 0 0 0 0 0 0 0 1
Nghost:         6806.5 ave        6854 max        6759 min
Histogram: 1 0 0 0 0 0 0 0 0 1
Neighs:         304410 ave      326008 max      282813 min
Histogram: 1 0 0 0 0 0 0 0 0 1

Total # of neighbors = 608821
Ave neighs/atom = 220.74728
Ave special neighs/atom = 6.5721537
Neighbor list builds = 0
Dangerous builds = 0
reset_timestep 0

# --- 2. NVT relaxation (lets the packed box relax before the barostat) ------
print "RENEU >>> stage 2 of 4: NVT relaxation"
RENEU >>> stage 2 of 4: NVT relaxation
velocity all create ${TK} 12345 mom yes rot yes dist gaussian
velocity all create 300 12345 mom yes rot yes dist gaussian
fix NVTRELAX all nvt temp ${TK} ${TK} 100
fix NVTRELAX all nvt temp 300 ${TK} 100
fix NVTRELAX all nvt temp 300 300 100
run ${NVTRUN}
run 20000
PPPM initialization ...
  using 12-bit tables for long-range coulomb
  G vector (1/distance) = 0.2930596
  grid = 27 27 27
  stencil order = 5
  estimated absolute RMS force accuracy = 0.0028785549
  estimated relative force accuracy = 8.6686826e-06
  using double precision FFTW3
  3d grid and FFT values/proc = 23120 10206
Generated 105 of 105 mixed pair_coeff terms from geometric mixing rule
Per MPI rank memory allocation (min/avg/max) = 15.86 | 16.02 | 16.18 Mbytes
   Step          Temp          Press          Volume         v_dens         PotEng         TotEng    
         0   300            20489.166      48149.09       0.60019536    -2770.0987     -800.97554    
      1000   296.79634     -896.66145      48149.09       0.60019536    -16418.073     -14469.978    
      2000   315.16985     -1302.1907      48149.09       0.60019536    -16971.235     -14902.541    
      3000   290.28433     -1020.4746      48149.09       0.60019536    -17257.124     -15351.772    
      4000   313.55391     -610.81355      48149.09       0.60019536    -17470.677     -15412.59     
      5000   300.10547     -301.46535      48149.09       0.60019536    -17597.254     -15627.439    
      6000   291.19102     -1116.852       48149.09       0.60019536    -17568.959     -15657.656    
      7000   300.05151     -817.19714      48149.09       0.60019536    -17725.031     -15755.569    
      8000   304.93396     -749.29725      48149.09       0.60019536    -17762.427     -15760.919    
      9000   298.08482     -1169.9215      48149.09       0.60019536    -17815.814     -15859.261    
     10000   298.7113       9.5865609      48149.09       0.60019536    -17806.28      -15845.616    
     11000   296.70306     -629.42303      48149.09       0.60019536    -17818.494     -15871.011    
     12000   304.41601     -1322.7586      48149.09       0.60019536    -17855.272     -15857.164    
     13000   299.80466     -882.52351      48149.09       0.60019536    -17888.9       -15921.059    
     14000   301.75721     -254.98237      48149.09       0.60019536    -17882.465     -15901.808    
     15000   293.82798     -689.80686      48149.09       0.60019536    -17956.636     -16028.025    
     16000   298.75559     -747.98891      48149.09       0.60019536    -17937.059     -15976.104    
     17000   306.42766     -137.85329      48149.09       0.60019536    -17940.756     -15929.444    
     18000   299.7192      -650.92099      48149.09       0.60019536    -17982.764     -16015.484    
     19000   298.06708      151.59483      48149.09       0.60019536    -17992.835     -16036.399    
     20000   303.2662      -861.52542      48149.09       0.60019536    -18009.23      -16018.668    
Loop time of 889.247 on 2 procs for 20000 steps with 2758 atoms

Performance: 1.943 ns/day, 12.351 hours/ns, 22.491 timesteps/s, 62.030 katom-step/s
97.5% CPU use with 2 MPI tasks x 1 OpenMP threads

MPI task timing breakdown:
Section |  min time  |  avg time  |  max time  |%varavg| %total
---------------------------------------------------------------
Pair    | 389.45     | 436.51     | 483.56     | 225.2 | 49.09
Bond    | 26.707     | 26.948     | 27.189     |   4.6 |  3.03
Kspace  | 289.39     | 335.41     | 381.43     | 251.3 | 37.72
Neigh   | 41.13      | 41.304     | 41.478     |   2.7 |  4.64
Comm    | 25.357     | 26.454     | 27.551     |  21.3 |  2.97
Output  | 0.010404   | 0.010964   | 0.011524   |   0.5 |  0.00
Modify  | 19.073     | 19.251     | 19.429     |   4.1 |  2.16
Other   |            | 3.362      |            |       |  0.38

Nlocal:           1379 ave        1448 max        1310 min
Histogram: 1 0 0 0 0 0 0 0 0 1
Nghost:           5918 ave        6058 max        5778 min
Histogram: 1 0 0 0 0 0 0 0 0 1
Neighs:         377750 ave      428556 max      326943 min
Histogram: 1 0 0 0 0 0 0 0 0 1

Total # of neighbors = 755499
Ave neighs/atom = 273.93002
Ave special neighs/atom = 6.5721537
Neighbor list builds = 947
Dangerous builds = 0
unfix NVTRELAX

# --- 3. NPT equilibration (this is where the density finds its own value) ---
# restart files are written every 25000 steps. If the run stops for any
# reason you can pick up from the last one instead of starting over:
#     read_restart rst_a.lmp      (or rst_b.lmp, whichever is newer)
print "RENEU >>> stage 3 of 4: NPT equilibration - watch the density column"
RENEU >>> stage 3 of 4: NPT equilibration - watch the density column
restart 25000 rst_a.lmp rst_b.lmp
fix NPTEQ all npt temp ${TK} ${TK} 100 iso ${PBAR} ${PBAR} 1000
fix NPTEQ all npt temp 300 ${TK} 100 iso ${PBAR} ${PBAR} 1000
fix NPTEQ all npt temp 300 300 100 iso ${PBAR} ${PBAR} 1000
fix NPTEQ all npt temp 300 300 100 iso 1 ${PBAR} 1000
fix NPTEQ all npt temp 300 300 100 iso 1 1 1000
run ${EQRUN}
run 100000
PPPM initialization ...
  using 12-bit tables for long-range coulomb
  G vector (1/distance) = 0.2930596
  grid = 27 27 27
  stencil order = 5
  estimated absolute RMS force accuracy = 0.0028785549
  estimated relative force accuracy = 8.6686826e-06
  using double precision FFTW3
  3d grid and FFT values/proc = 23120 10206
Generated 105 of 105 mixed pair_coeff terms from geometric mixing rule
Per MPI rank memory allocation (min/avg/max) = 16.25 | 16.4 | 16.56 Mbytes
   Step          Temp          Press          Volume         v_dens         PotEng         TotEng    
     20000   303.2662      -861.52761      48149.09       0.60019536    -18009.23      -16018.668    
     21000   294.87276     -465.01055      45853.316      0.63024581    -18038.729     -16103.259    
     22000   307.40274      214.1357       44461.413      0.6499762     -18093.427     -16075.714    
     23000   306.37278      267.33883      43872.397      0.65870257    -18005.18      -15994.228    
     24000   306.61148     -197.68678      42077.255      0.68680479    -18096.192     -16083.673    
     25000   307.18048     -318.5388       41652.12       0.69381487    -18111.093     -16094.839    
     26000   302.07148      316.48473      40831.137      0.70776526    -18087.573     -16104.853    
     27000   300.95927      14.181763      39672.232      0.7284405     -18119.527     -16144.108    
     28000   301.15405      181.3887       38930.783      0.74231388    -18169.073     -16192.375    
     29000   294.97836      415.72478      39654.104      0.72877351    -18126.149     -16189.987    
     30000   308.5728       77.130865      38957.709      0.74180082    -18087.658     -16062.265    
     31000   296.92893     -9.1803515      38356.41       0.75342974    -18193.645     -16244.68     
     32000   302.33971     -115.64818      37994.585      0.76060471    -18236.787     -16252.307    
     33000   294.64038      1656.1651      37185.657      0.77715072    -18189.202     -16255.258    
     34000   311.51731      446.03163      37206.053      0.77672469    -18109.626     -16064.906    
     35000   300.47218      465.74931      36381.143      0.79433623    -18233.561     -16261.339    
     36000   302.36461      617.8815       35534.381      0.81326477    -18243.205     -16258.562    
     37000   297.62639     -1371.9521      35245.038      0.81994124    -18184.602     -16231.059    
     38000   293.24757     -681.56615      34280.557      0.84301024    -18234.066     -16309.264    
     39000   296.18241      1131.8436      33146.241      0.87185935    -18264.391     -16320.325    
     40000   312.43939      750.92959      33144.443      0.87190664    -18237.682     -16186.91     
     41000   295.93095     -1014.4392      33191.457      0.87067164    -18189.128     -16246.714    
     42000   299.3901      -526.03389      32779.949      0.88160174    -18279.062     -16313.942    
     43000   302.00496     -758.88639      32893.933      0.87854682    -18219.662     -16237.379    
     44000   299.86279     -212.17963      32091.273      0.90052084    -18283.705     -16315.483    
     45000   310.53019     -670.48621      31689.593      0.91193535    -18382.908     -16344.667    
     46000   296.54639     -231.62474      31663.048      0.91269988    -18309.152     -16362.697    
     47000   306.06535      942.40345      31109.933      0.92892711    -18336.511     -16327.576    
     48000   306.07015     -551.29334      31296.429      0.92339161    -18373.381     -16364.415    
     49000   299.27732     -912.41996      30963.252      0.93332768    -18316.574     -16352.194    
     50000   298.61442      700.98305      30877.82       0.93590998    -18334.686     -16374.657    
     51000   298.19348     -561.35564      30715.187      0.9408655     -18344.068     -16386.803    
     52000   302.23953      422.54349      30461.963      0.94868675    -18430.996     -16447.173    
     53000   315.27378      1616.3464      29985.132      0.96377299    -18399.525     -16330.149    
     54000   303.80737     -219.91088      30354.423      0.95204776    -18413.525     -16419.411    
     55000   302.98737      89.068885      30145.266      0.95865335    -18335.905     -16347.174    
     56000   303.23606      456.91619      30302.984      0.95366383    -18377.133     -16386.77     
     57000   295.11455      1213.1573      30027.797      0.96240363    -18425.014     -16487.958    
     58000   301.18935     -132.21458      30187.756      0.95730402    -18391.458     -16414.528    
     59000   295.03408     -600.82589      30242.698      0.9555649     -18449.997     -16513.469    
     60000   294.84186     -285.25987      30202.687      0.95683076    -18339.031     -16403.765    
     61000   296.49191      706.63554      29688.66       0.97339725    -18446.272     -16500.175    
     62000   291.53865     -571.92055      29830.791      0.96875944    -18404.107     -16490.522    
     63000   301.33128     -456.46208      30067.1        0.96114558    -18434.614     -16456.753    
     64000   297.01555     -601.5817       29906.543      0.9663056     -18403.083     -16453.549    
     65000   304.59521     -914.33867      29176.78       0.99047463    -18412.925     -16413.64     
     66000   301.35605     -628.98916      29126.291      0.99219158    -18349.646     -16371.622    
     67000   302.51319     -574.11529      29032.256      0.99540528    -18483.529     -16497.91     
     68000   305.55005     -424.4976       29099.749      0.99309656    -18460.341     -16454.788    
     69000   311.51167      379.10275      28601.942      1.0103811     -18445.259     -16400.576    
     70000   300.41347     -269.55339      28428.23       1.0165551     -18532.698     -16560.861    
     71000   300.89782      825.13096      28012.002      1.03166       -18451.782     -16476.766    
     72000   299.42115      749.21953      27946.334      1.0340841     -18501.865     -16536.541    
     73000   303.12675     -365.65497      27701.366      1.0432287     -18440.053     -16450.407    
     74000   297.25948      262.85439      27116.953      1.0657119     -18552.862     -16601.727    
     75000   303.25975     -1509.5842      27417.997      1.0540106     -18525.901     -16535.382    
     76000   293.89218      769.03196      27441.156      1.0531211     -18450.715     -16521.682    
     77000   295.98739     -24.311497      27316.302      1.0579346     -18515.446     -16572.66     
     78000   297.37315      1032.582       27367.199      1.055967      -18507.348     -16555.467    
     79000   292.44477      930.03421      27204.208      1.0622937     -18494.281     -16574.749    
     80000   299.94315      1394.3084      27086.869      1.0668956     -18551.558     -16582.808    
     81000   294.89097      726.69168      27195.117      1.0626489     -18552.072     -16616.484    
     82000   300.85068     -674.48438      27136.888      1.0649291     -18517.872     -16543.165    
     83000   293.94337      1323.9833      27211.136      1.0620233     -18548.652     -16619.283    
     84000   296.7009      -339.61803      26993.285      1.0705944     -18476.203     -16528.734    
     85000   298.80296      847.6386       26892.202      1.0746186     -18483.875     -16522.609    
     86000   302.43315      1030.5987      26449.154      1.0926194     -18585.333     -16600.239    
     87000   309.74631     -181.71         26740.917      1.0806982     -18551.334     -16518.238    
     88000   295.92624      1370.9444      26679.901      1.0831697     -18612.919     -16670.535    
     89000   303.22025      209.24497      26610.876      1.0859793     -18600.9       -16610.64     
     90000   303.26963     -905.75443      26445.092      1.0927873     -18514.668     -16524.083    
     91000   291.99276      483.78749      26496.858      1.0906523     -18555.019     -16638.453    
     92000   293.52672     -1556.8119      26609.183      1.0860484     -18601.84      -16675.206    
     93000   306.47399     -395.83311      26472.251      1.0916661     -18561.692     -16550.076    
     94000   297.11107      353.52054      26297.876      1.0989047     -18597.747     -16647.586    
     95000   301.71513      650.45626      26530.071      1.089287      -18612.938     -16632.557    
     96000   307.35654      254.93481      26484.853      1.0911467     -18589.51      -16572.1      
     97000   299.41086      1017.2621      26398.594      1.0947121     -18611.687     -16646.431    
     98000   296.01068      821.2391       26506.48       1.0902564     -18545.836     -16602.898    
     99000   303.04532     -772.01744      26431.532      1.0933479     -18611.382     -16622.27     
    100000   299.57432     -162.54497      26255.647      1.1006722     -18636.621     -16670.292    
    101000   303.15323      336.5102       26164.947      1.1044877     -18569.848     -16580.028    
    102000   294.80634      1277.7853      26175.177      1.104056      -18650.977     -16715.944    
    103000   305.14739      350.78448      26425.387      1.0936022     -18624.978     -16622.069    
    104000   294.73752      532.84809      26482.286      1.0912525     -18621.027     -16686.445    
    105000   302.40673      159.07513      26099.425      1.1072604     -18601.315     -16616.394    
    106000   306.78957      332.96869      26255.109      1.1006947     -18577.41      -16563.721    
    107000   301.53289      584.82942      26129.887      1.1059696     -18640.168     -16660.983    
    108000   308.22941      383.03404      26272.515      1.0999655     -18598.87      -16575.731    
    109000   308.10544      648.01829      26341.281      1.097094      -18621.565     -16599.239    
    110000   299.34913     -1733.5647      26502.423      1.0904233     -18581.082     -16616.231    
    111000   303.87635     -1233.095       25913.743      1.1151944     -18626.946     -16632.379    
    112000   300.74399     -1008.9006      26097.709      1.1073332     -18615.041     -16641.034    
    113000   304.11095      679.48383      26108.652      1.1068691     -18675.643     -16679.537    
    114000   300.68486     -2049.9599      25899.063      1.1158265     -18604.465     -16630.847    
    115000   301.52435      914.92925      25971.507      1.112714      -18684.984     -16705.856    
    116000   298.2931       1952.767       26010.636      1.1110401     -18630.044     -16672.125    
    117000   293.56251     -967.64457      26077.96       1.1081718     -18676.754     -16749.885    
    118000   296.60934     -648.14764      25889.693      1.1162303     -18627.583     -16680.715    
    119000   315.57663      591.34354      25938.505      1.1141297     -18615.111     -16543.747    
    120000   294.83168      547.67345      26030.047      1.1102116     -18667.442     -16732.243    
Loop time of 6353.73 on 2 procs for 100000 steps with 2758 atoms

Performance: 1.360 ns/day, 17.649 hours/ns, 15.739 timesteps/s, 43.408 katom-step/s
97.8% CPU use with 2 MPI tasks x 1 OpenMP threads

MPI task timing breakdown:
Section |  min time  |  avg time  |  max time  |%varavg| %total
---------------------------------------------------------------
Pair    | 2952.2     | 3142.7     | 3333.3     | 339.9 | 49.46
Bond    | 153.26     | 156.21     | 159.17     |  23.6 |  2.46
Kspace  | 1667.1     | 1855.2     | 2043.3     | 436.7 | 29.20
Neigh   | 278.59     | 279.22     | 279.85     |   3.8 |  4.39
Comm    | 177.99     | 178.14     | 178.3      |   1.2 |  2.80
Output  | 0.028678   | 0.069135   | 0.10959    |  15.4 |  0.00
Modify  | 650.45     | 664.89     | 679.33     |  56.0 | 10.46
Other   |            | 77.27      |            |       |  1.22

Nlocal:           1379 ave        1435 max        1323 min
Histogram: 1 0 0 0 0 0 0 0 0 1
Nghost:          10366 ave       10588 max       10144 min
Histogram: 1 0 0 0 0 0 0 0 0 1
Neighs:         533892 ave      584072 max      483713 min
Histogram: 1 0 0 0 0 0 0 0 0 1

Total # of neighbors = 1067785
Ave neighs/atom = 387.15917
Ave special neighs/atom = 6.5721537
Neighbor list builds = 3994
Dangerous builds = 0
unfix NPTEQ
write_data data.after_equilibration.lmp
System init for write_data ...
PPPM initialization ...
  using 12-bit tables for long-range coulomb
  G vector (1/distance) = 0.29966388
  grid = 24 24 24
  stencil order = 5
  estimated absolute RMS force accuracy = 0.0026438548
  estimated relative force accuracy = 7.9618901e-06
  using double precision FFTW3
  3d grid and FFT values/proc = 18259 6912
Generated 105 of 105 mixed pair_coeff terms from geometric mixing rule

# --- 4. NPT production - this is the trajectory you analyse ----------------
print "RENEU >>> stage 4 of 4: NPT production"
RENEU >>> stage 4 of 4: NPT production
reset_timestep 0
fix NPTPROD all npt temp ${TK} ${TK} 100 iso ${PBAR} ${PBAR} 1000
fix NPTPROD all npt temp 300 ${TK} 100 iso ${PBAR} ${PBAR} 1000
fix NPTPROD all npt temp 300 300 100 iso ${PBAR} ${PBAR} 1000
fix NPTPROD all npt temp 300 300 100 iso 1 ${PBAR} 1000
fix NPTPROD all npt temp 300 300 100 iso 1 1 1000
fix DENSAVG all ave/time 10 100 1000 v_dens v_vol file density.dat

dump TRAJ all custom 500 dump.lammpstrj id mol type element q xu yu zu
dump_modify TRAJ element N C H C H O H H C C O H H O N

run ${PRODRUN}
run 200000
PPPM initialization ...
  using 12-bit tables for long-range coulomb
  G vector (1/distance) = 0.29966388
  grid = 24 24 24
  stencil order = 5
  estimated absolute RMS force accuracy = 0.0026438548
  estimated relative force accuracy = 7.9618901e-06
  using double precision FFTW3
  3d grid and FFT values/proc = 18259 6912
Generated 105 of 105 mixed pair_coeff terms from geometric mixing rule
Per MPI rank memory allocation (min/avg/max) = 16.78 | 16.97 | 17.17 Mbytes
   Step          Temp          Press          Volume         v_dens         PotEng         TotEng    
         0   294.83168      677.07187      26030.047      1.1102116     -18667.426     -16732.226    
      1000   303.24916      491.96147      25893.991      1.116045      -18635.564     -16645.114    
      2000   295.57616     -381.29984      25944.45       1.1138745     -18587.838     -16647.752    
      3000   301.29484      221.48946      25978.979      1.112394      -18628.111     -16650.489    
      4000   302.47965      274.70622      25885.67       1.1164038     -18748.494     -16763.095    
      5000   295.86344     -1125.1864      26157.793      1.1047897     -18653.347     -16711.375    
      6000   293.63984     -1622.0996      26005.631      1.111254      -18585.412     -16658.035    
      7000   300.78954      570.44952      26133.805      1.1058038     -18635.635     -16661.329    
      8000   303.04821     -1694.8184      25816.206      1.1194077     -18680.124     -16690.993    
      9000   297.10804      152.6475       25810.958      1.1196353     -18707.703     -16757.562    
     10000   299.33674      201.41842      25740.74       1.1226896     -18646.001     -16681.231    
     11000   300.19943     -475.57715      25587.034      1.1294338     -18696.27      -16725.837    
     12000   304.90873     -738.10139      25894.406      1.1160272     -18700.553     -16699.211    
     13000   306.1632      -284.83496      25634.559      1.1273399     -18630.201     -16620.624    
     14000   299.09989      602.08189      25740.888      1.1226831     -18657.476     -16694.261    
     15000   300.861       -189.83478      25622.366      1.1278763     -18657.618     -16682.843    
     16000   301.70672      95.166166      25569.102      1.1302259     -18615.222     -16634.896    
     17000   297.61727     -36.167041      25493.159      1.1335927     -18682.45      -16728.967    
     18000   298.52564     -1849.4951      25691.598      1.124837      -18707.466     -16748.021    
     19000   307.06458     -713.68456      25913.342      1.1152116     -18627.877     -16612.384    
     20000   300.51607     -24.228513      25451.056      1.135468      -18611.609     -16639.099    
     21000   304.31558      333.06893      25499.718      1.1333012     -18662.718     -16665.268    
     22000   303.30124     -406.83296      25437.334      1.1360806     -18701.487     -16710.695    
     23000   306.0617       832.28386      25235.24       1.1451787     -18780.249     -16771.338    
     24000   302.44922     -687.99177      25318.693      1.1414041     -18708.693     -16723.494    
     25000   295.61863      29.587026      25404.742      1.137538      -18652.005     -16711.64     
     26000   304.64734      390.24156      25538.435      1.1315831     -18719.036     -16719.409    
     27000   308.09036      1017.9414      25138.121      1.1496031     -18677.788     -16655.562    
     28000   297.51314     -893.10142      25342.87       1.1403152     -18685.409     -16732.609    
     29000   307.52733      890.37456      25454.325      1.1353222     -18694.262     -16675.731    
     30000   298.60561      1400.5034      25258.737      1.1441134     -18737.025     -16777.054    
     31000   298.70157     -274.87385      25127.889      1.1500711     -18667.341     -16706.74     
     32000   305.90501     -1000.1681      25520.153      1.1323937     -18758.136     -16750.254    
     33000   302.02384      2120.0898      25212.659      1.1462044     -18667.141     -16684.734    
     34000   294.36213      912.36715      25331.332      1.1408346     -18701.945     -16769.828    
     35000   303.98923      1878.9765      25389.317      1.1382292     -18677.914     -16682.606    
     36000   295.72102      529.9363       25409.165      1.13734       -18671.62      -16730.583    
     37000   296.54194      1330.0935      25421.827      1.1367735     -18721.818     -16775.393    
     38000   302.2247       327.55438      25538.963      1.1315597     -18729.252     -16745.527    
     39000   296.80905     -2371.0837      25395.2        1.1379655     -18688.596     -16740.418    
     40000   293.32511      308.24368      25422.838      1.1367283     -18753.651     -16828.34     
     41000   310.3761       496.92471      25198.172      1.1468633     -18749.004     -16711.775    
     42000   304.72052     -648.76445      25327.118      1.1410244     -18726.25      -16726.143    
     43000   301.78979     -26.469481      25141.663      1.1494411     -18666.215     -16685.344    
     44000   296.79412     -651.58883      25423.207      1.1367118     -18722.369     -16774.289    
     45000   289.43812      828.02595      25323.89       1.1411699     -18607.58      -16707.783    
     46000   292.90692     -1272.8537      25379.053      1.1386895     -18734.816     -16812.25     
     47000   301.88181      1101.8268      25142.911      1.149384      -18763.407     -16781.932    
     48000   313.72227     -796.12242      25220.165      1.1458633     -18674.395     -16615.202    
     49000   300.79223     -536.88389      25346.247      1.1401633     -18724.062     -16749.739    
     50000   301.62552     -273.50613      25332.804      1.1407683     -18677.256     -16697.464    
     51000   299.29101     -44.39799       25266.136      1.1437784     -18725.123     -16760.654    
     52000   294.80992      653.485        25256.808      1.1442008     -18678.02      -16742.964    
     53000   306.08759      2014.6895      25442.88       1.1358329     -18678.789     -16669.708    
     54000   294.26171     -377.56491      25299.667      1.1422625     -18804.078     -16872.619    
     55000   294.46919      462.77662      25610.456      1.1284008     -18625.997     -16693.177    
     56000   298.2039       338.36111      25291.769      1.1426192     -18662.554     -16705.22     
     57000   307.91312     -430.95469      25227.555      1.1455276     -18654.071     -16633.008    
     58000   300.63729     -1697.5274      25390.776      1.1381637     -18739.492     -16766.186    
     59000   305.86711      340.92814      25218.437      1.1459418     -18687.152     -16679.519    
     60000   302.24292     -484.91546      25368.093      1.1391814     -18687.725     -16703.879    
     61000   301.70818      421.59904      25251.779      1.1444287     -18676.712     -16696.377    
     62000   299.77207     -118.41998      25080          1.1522672     -18720.809     -16753.182    
     63000   295.64633      872.87964      25144.374      1.1493172     -18707.006     -16766.459    
     64000   294.68717     -56.176306      25192.725      1.1471113     -18720.999     -16786.748    
     65000   305.928       -798.06694      25136.294      1.1496866     -18720.015     -16711.982    
     66000   296.57239      242.24621      24972.963      1.1572059     -18696         -16749.375    
     67000   300.37063      1352.2471      25175.643      1.1478897     -18696.143     -16724.587    
     68000   305.40667      721.52537      25229.368      1.1454453     -18722.049     -16717.438    
     69000   302.94116      178.5321       25091.506      1.1517388     -18688.057     -16699.629    
     70000   295.2982       728.68947      25028.019      1.1546603     -18712.21      -16773.948    
     71000   301.86406     -565.44798      25186.786      1.1473818     -18720.041     -16738.683    
     72000   301.56325      1545.4419      25092.509      1.1516927     -18665.986     -16686.602    
     73000   299.58548     -275.84629      24996.508      1.1561159     -18739.482     -16773.08     
     74000   287.36226     -875.79558      24848.788      1.1629887     -18678.767     -16792.595    
     75000   308.60011      696.39989      24752.183      1.1675278     -18728.958     -16703.386    
     76000   305.42991     -71.978473      25114.164      1.1506997     -18756.089     -16751.325    
     77000   307.51125      1013.0572      24833.149      1.1637211     -18719.33      -16700.905    
     78000   311.85482     -634.77392      25097.993      1.1514411     -18730.864     -16683.928    
     79000   297.59858     -926.67952      24978.465      1.156951      -18699.036     -16745.676    
     80000   300.40424      1058.7155      25056.539      1.1533461     -18650.894     -16679.118    
     81000   302.24055      225.8012       25124.682      1.1502179     -18647.899     -16664.069    
     82000   300.43976     -1210.3169      24958.805      1.1578623     -18679.746     -16707.736    
     83000   301.03114     -150.34499      24823.585      1.1641695     -18755.666     -16779.775    
     84000   296.98232      829.57358      24725.886      1.1687695     -18737.832     -16788.516    
     85000   308.56703      792.21993      24758.309      1.1672389     -18741.712     -16716.358    
     86000   305.54933      1150.9568      25013.369      1.1553366     -18704.142     -16698.595    
     87000   296.50288     -1211.9025      25054.208      1.1534534     -18773.843     -16827.675    
     88000   303.83157      82.981999      24903.241      1.1604458     -18736.619     -16742.347    
     89000   298.49492      981.2994       24950.294      1.1582573     -18736.508     -16777.264    
     90000   287.22036      768.7128       25242.889      1.1448317     -18628.869     -16743.628    
     91000   298.78165     -343.71755      24800.62       1.1652475     -18736.951     -16775.825    
     92000   296.17223     -2165.8803      25057.205      1.1533154     -18761.913     -16817.914    
     93000   303.428        1165.423       24948.312      1.1583493     -18701.078     -16709.455    
     94000   296.39459      85.477333      25254.434      1.1443084     -18741.315     -16795.857    
     95000   297.3528       5.2749628      24837.955      1.1634959     -18753.869     -16802.121    
     96000   294.8691       1312.2908      24727.346      1.1687004     -18781.527     -16846.082    
     97000   301.32799     -1139.1547      24823.475      1.1641746     -18760.5       -16782.66     
     98000   303.38484      1320.8913      24835.89       1.1635927     -18710.961     -16719.621    
     99000   284.8802      -1769.3305      24973.44       1.1571838     -18714.745     -16844.864    
    100000   301.61732     -295.4439       24914.221      1.1599343     -18729.853     -16750.114    
    101000   292.95134      1663.2224      24867.97       1.1620917     -18676.335     -16753.478    
    102000   301.85998      325.42452      24861.325      1.1624023     -18704.709     -16723.377    
    103000   298.15787      1290.8865      24993.964      1.1562336     -18743.408     -16786.376    
    104000   299.4493       712.09272      25083.271      1.1521169     -18714.147     -16748.638    
    105000   298.61707      87.865994      24964.091      1.1576171     -18724.359     -16764.314    
    106000   307.03547      1159.7858      24926.371      1.1593689     -18670.615     -16655.312    
    107000   304.25047     -709.29124      25027.81       1.15467       -18716.545     -16719.523    
    108000   302.92114      292.42462      24798.697      1.1653379     -18764.613     -16776.316    
    109000   288.98191     -1483.0353      24782.471      1.1661009     -18748.344     -16851.541    
    110000   300.77322     -508.2505       24750.002      1.1676306     -18754.424     -16780.226    
    111000   284.9409       453.60699      24575.032      1.1759439     -18722.456     -16852.177    
    112000   299.65532      168.22892      24572.873      1.1760473     -18753.897     -16787.036    
    113000   290.8398      -254.1509       24560.054      1.1766611     -18832.536     -16923.538    
    114000   296.23336     -1060.7155      24649.627      1.1723853     -18788.725     -16844.325    
    115000   297.34676     -1068.2954      24576.128      1.1758915     -18728.916     -16777.208    
    116000   299.96133     -747.96396      24532.672      1.1779744     -18759.773     -16790.903    
    117000   292.96411     -896.36232      24687.909      1.1705673     -18784.361     -16861.419    
    118000   296.19084      1121.3838      24539.979      1.1776237     -18764.354     -16820.234    
    119000   306.98653      1551.2003      24508.065      1.1791572     -18718.082     -16703.101    
    120000   298.04145      141.30577      24367.867      1.1859413     -18768.101     -16811.833    
    121000   300.5082      -1548.7291      24652.663      1.1722409     -18756.65      -16784.191    
    122000   301.70318      1867.9005      24401.826      1.1842909     -18775.842     -16795.539    
    123000   298.40919      40.271782      24616.391      1.1739682     -18758.328     -16799.646    
    124000   300.86741      1544.5828      24583.543      1.1755368     -18756.172     -16781.356    
    125000   294.78036     -125.4524       24642.028      1.1727468     -18681.575     -16746.712    
    126000   297.31418      141.95768      24370.135      1.1858309     -18837.92      -16886.426    
    127000   306.02272     -987.33867      24780.749      1.1661819     -18743.036     -16734.382    
    128000   299.30961     -1722.0853      24662.065      1.171794      -18691.393     -16726.802    
    129000   298.0623       981.68121      24615.905      1.1739914     -18765.861     -16809.456    
    130000   302.01133     -1141.4407      24554.049      1.1769489     -18734.201     -16751.876    
    131000   299.40834     -1777.622       24785.731      1.1659475     -18752.467     -16787.227    
    132000   298.83953     -116.8298       24775.478      1.16643       -18707.93      -16746.424    
    133000   297.2137      -142.63231      24477.396      1.1806346     -18796.631     -16845.797    
    134000   308.74984      490.24355      24445.327      1.1821834     -18835.385     -16808.831    
    135000   305.0415       162.01154      24315.327      1.1885039     -18837.091     -16834.877    
    136000   297.85088     -402.10377      24757.971      1.1672548     -18722.643     -16767.627    
    137000   294.24026     -721.33712      24740.028      1.1681014     -18678.837     -16747.519    
    138000   298.10113      784.76708      24594.818      1.174998      -18735.764     -16779.105    
    139000   300.54257      368.19298      24671.055      1.171367      -18791.971     -16819.287    
    140000   297.81547      2004.8267      24610.338      1.1742569     -18786.828     -16832.043    
    141000   294.94447     -889.29567      24504.683      1.1793199     -18802.852     -16866.912    
    142000   300.24239     -1536.4985      24690.264      1.1704557     -18734.805     -16764.09     
    143000   300.34829     -341.57011      24517.095      1.1787228     -18730.083     -16758.674    
    144000   304.36449     -106.82669      24643.357      1.1726836     -18812.329     -16814.559    
    145000   291.07367      426.39079      24325.626      1.1880007     -18803.489     -16892.956    
    146000   297.03386      210.99053      24633.501      1.1731528     -18701.225     -16751.571    
    147000   310.13971      1532.4762      24217.565      1.1933016     -18746.987     -16711.31     
    148000   301.33167      1005.0704      24338.432      1.1873756     -18770.821     -16792.957    
    149000   302.24116     -702.28261      24345.839      1.1870143     -18744.51      -16760.677    
    150000   292.30981     -583.65295      24386.022      1.1850584     -18809.66      -16891.013    
    151000   296.13109      531.73996      24426.867      1.1830768     -18714.113     -16770.384    
    152000   309.07374      736.20254      24338.973      1.1873492     -18783.647     -16754.966    
    153000   302.09219     -640.83412      24516.238      1.1787641     -18822.16      -16839.305    
    154000   295.48613     -1961.25        24591.207      1.1751705     -18727.798     -16788.303    
    155000   302.02092      1767.8706      24309.875      1.1887704     -18795.262     -16812.874    
    156000   310.31679      776.19126      24341.635      1.1872194     -18783.575     -16746.735    
    157000   307.91398     -1032.6783      24252.913      1.1915624     -18833.178     -16812.109    
    158000   302.47539      350.92624      24324.18       1.1880713     -18806.686     -16821.315    
    159000   301.08247     -1010.1053      24467.866      1.1810944     -18832.542     -16856.313    
    160000   303.75139     -749.39254      24273.074      1.1905727     -18877.029     -16883.282    
    161000   298.89825      2793.1171      24274.355      1.1905099     -18758.402     -16796.511    
    162000   296.54098     -122.30344      24458.413      1.1815509     -18744.351     -16797.932    
    163000   299.3512      -1604.2158      24464.688      1.1812479     -18831.431     -16866.566    
    164000   299.77082     -1362.1539      24444.094      1.1822431     -18831.165     -16863.546    
    165000   296.67128     -50.287931      24382.417      1.1852336     -18766.259     -16818.985    
    166000   299.91852     -505.27485      24481.807      1.1804219     -18731.942     -16763.353    
    167000   305.67706      1535.2551      24460.452      1.1814524     -18777.364     -16770.978    
    168000   297.88176     -321.8595       24489.364      1.1800576     -18882.571     -16927.351    
    169000   298.76675      533.62926      24248.325      1.1917879     -18735.832     -16774.804    
    170000   295.79387      1629.5259      24256.933      1.191365      -18846.469     -16904.954    
    171000   299.58096      1466.5519      24369.188      1.185877      -18745.734     -16779.361    
    172000   301.09769      75.173169      24387.239      1.1849993     -18735.771     -16759.443    
    173000   288.37092      1096.5069      24418.999      1.183458      -18783.118     -16890.325    
    174000   301.3825      -1394.4084      24384.888      1.1851135     -18765.695     -16787.497    
    175000   297.45239     -2326.0237      24417.166      1.1835469     -18776.886     -16824.485    
    176000   286.30074     -453.31746      24409.154      1.1839354     -18775.119     -16895.914    
    177000   302.90041     -576.20101      24420.548      1.183383      -18748.225     -16760.065    
    178000   303.10246     -1336.738       24364.565      1.186102      -18840.851     -16851.364    
    179000   299.2468       386.54084      24256.304      1.1913959     -18793.241     -16829.062    
    180000   295.91281      507.6072       24353.269      1.1866522     -18782.521     -16840.225    
    181000   295.56472     -405.9678       24366.928      1.185987      -18784.684     -16844.673    
    182000   298.82839      2151.6802      24246.726      1.1918665     -18870.141     -16908.708    
    183000   301.29406      602.34888      24361.956      1.1862291     -18787.46      -16809.843    
    184000   303.12745      47.162461      24498.672      1.1796092     -18798.291     -16808.641    
    185000   301.23096      467.34788      24279.148      1.1902749     -18823.201     -16845.998    
    186000   307.30549      169.5391       24261.502      1.1911406     -18813.304     -16796.229    
    187000   306.33873      2147.0861      24267.779      1.1908325     -18751.043     -16740.314    
    188000   294.08408     -618.33177      24285.788      1.1899495     -18794.691     -16864.398    
    189000   300.84286      1420.7532      24143.42       1.1969663     -18775.181     -16800.525    
    190000   312.5369      -158.65976      24271.12       1.1906686     -18782.196     -16730.784    
    191000   292.44         1831.2493      24072.766      1.2004794     -18799.388     -16879.887    
    192000   298.79453      1535.6935      24281.626      1.1901534     -18753.668     -16792.457    
    193000   301.20307     -741.38843      24337.5        1.1874211     -18789.344     -16812.324    
    194000   299.20665      1145.8716      23925.99       1.2078439     -18792.953     -16829.037    
    195000   298.71912      696.73965      24077.768      1.20023       -18754.089     -16793.373    
    196000   296.35421     -2185.3364      24380.922      1.1853063     -18811.599     -16866.406    
    197000   302.05999     -726.95543      24229.726      1.1927027     -18796.096     -16813.451    
    198000   294.33338      95.08227       24069.582      1.2006382     -18836.794     -16904.865    
    199000   305.90782     -574.15884      24272.86       1.1905832     -18801.729     -16793.829    
    200000   295.42904     -42.814219      24182.539      1.19503       -18806.782     -16867.662    
Loop time of 13790.3 on 2 procs for 200000 steps with 2758 atoms

Performance: 1.253 ns/day, 19.153 hours/ns, 14.503 timesteps/s, 39.999 katom-step/s
97.8% CPU use with 2 MPI tasks x 1 OpenMP threads

MPI task timing breakdown:
Section |  min time  |  avg time  |  max time  |%varavg| %total
---------------------------------------------------------------
Pair    | 7253.9     | 7567.4     | 7880.9     | 360.4 | 54.87
Bond    | 323.35     | 331.88     | 340.4      |  46.8 |  2.41
Kspace  | 3226       | 3532.4     | 3838.8     | 515.6 | 25.62
Neigh   | 652.05     | 652.95     | 653.85     |   3.5 |  4.73
Comm    | 418.35     | 418.42     | 418.49     |   0.3 |  3.03
Output  | 12.303     | 16.193     | 20.083     |  96.7 |  0.12
Modify  | 1124.5     | 1124.9     | 1125.2     |   1.1 |  8.16
Other   |            | 146.2      |            |       |  1.06

Nlocal:           1379 ave        1381 max        1377 min
Histogram: 1 0 0 0 0 0 0 0 0 1
Nghost:          10877 ave       10903 max       10851 min
Histogram: 1 0 0 0 0 0 0 0 0 1
Neighs:         568909 ave      575246 max      562572 min
Histogram: 1 0 0 0 0 0 0 0 0 1

Total # of neighbors = 1137818
Ave neighs/atom = 412.55185
Ave special neighs/atom = 6.5721537
Neighbor list builds = 7693
Dangerous builds = 0

write_data data.final.lmp
System init for write_data ...
PPPM initialization ...
  using 12-bit tables for long-range coulomb
  G vector (1/distance) = 0.30155445
  grid = 24 24 24
  stencil order = 5
  estimated absolute RMS force accuracy = 0.0024536893
  estimated relative force accuracy = 7.3892124e-06
  using double precision FFTW3
  3d grid and FFT values/proc = 18259 6912
Generated 105 of 105 mixed pair_coeff terms from geometric mixing rule
print "RENEU >>> finished. trajectory = dump.lammpstrj, density log = density.dat"
RENEU >>> finished. trajectory = dump.lammpstrj, density log = density.dat
Total wall time: 5:50:38
