23
hexylammonium reneu.ff
N            0.000000        0.000000        0.000000
C            1.481000        0.000000        0.000000
H           -0.379351       -0.956522        0.000000
H           -0.369532        0.476327        0.833906
H           -0.379234        0.485855       -0.823995
C            1.978673       -0.713309       -1.247779
H            1.799868       -0.507384        0.915270
H            1.799649        1.046185        0.028218
C            3.506098       -0.733909       -1.284317
H            1.595431       -0.208063       -2.144136
H            1.595019       -1.739737       -1.269472
C            4.018834       -1.446731       -2.533603
H            3.888175       -1.239630       -0.388956
H            3.889089        0.293854       -1.263578
C            5.545272       -1.467641       -2.569381
H            3.636309       -0.941263       -3.428916
H            3.636006       -2.474556       -2.554301
C            6.055258       -2.175805       -3.813896
H            5.932393       -1.976560       -1.679237
H            5.933243       -0.442760       -2.551711
H            7.149175       -2.182822       -3.825456
H            5.706671       -3.213419       -3.843365
H            5.707275       -1.670437       -4.720833
