LAMMPS (10 Dec 2025)
OMP_NUM_THREADS environment is not set. Defaulting to 1 thread.
  using 1 OpenMP thread(s) per MPI task
# created by fftool

units real
boundary p p p

atom_style full
bond_style harmonic
angle_style harmonic
dihedral_style opls

special_bonds lj/coul 0.0 0.0 0.5

# remove hybrid if not necessary
pair_style hybrid lj/cut/coul/long 10.0 10.0
pair_modify mix geometric tail yes
read_data data.lmp
Reading data file ...
  orthogonal box = (0 0 0) to (35.24 35.24 35.24)
  1 by 1 by 2 MPI processor grid
  reading atoms ...
  2956 atoms
  scanning bonds ...
  1 = max bonds/atom
  scanning angles ...
  6 = max angles/atom
  scanning dihedrals ...
  9 = max dihedrals/atom
  orthogonal box = (0 0 0) to (35.24 35.24 35.24)
  1 by 1 by 2 MPI processor grid
  reading bonds ...
  2664 bonds
  reading angles ...
  4503 angles
  reading dihedrals ...
  5703 dihedrals
Finding 1-2 1-3 1-4 neighbors ...
  special bond factors lj:    0        0        0.5     
  special bond factors coul:  0        0        0.5     
     4 = max # of 1-2 neighbors
     6 = max # of 1-3 neighbors
    12 = max # of 1-4 neighbors
    16 = max # of special neighbors
  special bonds CPU = 0.012 seconds
  read_data CPU = 0.361 seconds
# read_restart restart1.lmp

kspace_style pppm 1.0e-5

# remove pair style if not using hybrid
pair_coeff    1    1 lj/cut/coul/long     0.170000     3.250000  # N1 N1
pair_coeff    2    2 lj/cut/coul/long     0.065999     3.500000  # C1N C1N
pair_coeff    3    3 lj/cut/coul/long     0.000000     0.000000  # HN HN
pair_coeff    4    4 lj/cut/coul/long     0.065999     3.500000  # CS CS
pair_coeff    5    5 lj/cut/coul/long     0.030000     2.500000  # H1N H1N
pair_coeff    6    6 lj/cut/coul/long     0.030000     2.500000  # HC HC
pair_coeff    7    7 lj/cut/coul/long     0.065999     3.500000  # CEN CEN
pair_coeff    8    8 lj/cut/coul/long     0.030000     2.500000  # HCN HCN
pair_coeff    9    9 lj/cut/coul/long     0.105000     3.750000  # CO2 CO2
pair_coeff   10   10 lj/cut/coul/long     0.065999     3.500000  # C2C C2C
pair_coeff   11   11 lj/cut/coul/long     0.210000     2.960000  # O2 O2
pair_coeff   12   12 lj/cut/coul/long     0.065999     3.500000  # CT CT
pair_coeff   13   13 lj/cut/coul/long     0.000000     1.000000  # Hw Hw
pair_coeff   14   14 lj/cut/coul/long     0.155425     3.165500  # Ow Ow
pair_coeff   15   15 lj/cut/coul/long     0.125643     2.995200  # Nd Nd

# minimize 1.0e-4 1.0e-6 100 1000
# reset_timestep 0

fix SHAKE all shake 0.0001 20 0 b 2 4 7
Finding SHAKE clusters ...
       0 = # of size 2 clusters
     738 = # of size 3 clusters
     147 = # of size 4 clusters
       0 = # of frozen angles
  find clusters CPU = 0.002 seconds

neighbor 2.0 bin
neigh_modify delay 0 every 1 check yes








#fix VAVG all ave/time 10 1000 50000 v_vinst

# ---------------------------------------------------------------------------
# RENEU 2026 simulation protocol (stage3b M3 hexylammonium octanoate)
# 1 minimise  2 NVT relaxation  3 NPT equilibration  4 NPT production
# ---------------------------------------------------------------------------
timestep 1.0

variable TK      equal 300.0
variable PBAR    equal 1.0
variable NVTRUN  equal 20000
variable EQRUN   equal 100000
variable PRODRUN equal 200000

variable dens equal density
variable vol  equal vol

thermo 1000
thermo_style custom step temp press vol v_dens pe etotal

# --- 1. energy minimisation ------------------------------------------------
print "RENEU >>> stage 1 of 4: energy minimisation"
RENEU >>> stage 1 of 4: energy minimisation
minimize 1.0e-4 1.0e-6 10000 100000
PPPM initialization ...
  using 12-bit tables for long-range coulomb
  G vector (1/distance) = 0.28633454
  grid = 24 24 24
  stencil order = 5
  estimated absolute RMS force accuracy = 0.0025753093
  estimated relative force accuracy = 7.7554676e-06
  using double precision FFTW3
  3d grid and FFT values/proc = 18259 6912
Generated 105 of 105 mixed pair_coeff terms from geometric mixing rule
WARNING: Using fix shake with minimization.
  Substituting constraints with harmonic restraint forces using kbond=1987206.7 (src/RIGID/fix_shake.cpp:397)
Neighbor list info ...
  update: every = 1 steps, delay = 0 steps, check = yes
  max neighbors/atom: 2000, page size: 100000
  master list distance cutoff = 12
  ghost atom cutoff = 12
  binsize = 6, bins = 6 6 6
  1 neighbor lists, perpetual/occasional/extra = 1 0 0
  (1) pair lj/cut/coul/long, perpetual
      attributes: half, newton on
      pair build: half/bin/newton
      stencil: half/bin/3d
      bin: standard
Per MPI rank memory allocation (min/avg/max) = 17.03 | 17.22 | 17.42 Mbytes
   Step          Temp          Press          Volume         v_dens         PotEng         TotEng    
         0   0             -12509909       43763.062      0.59997858     209037.71      209037.71    
        16   0              6414.47        43763.062      0.59997858    -1238.9366     -1238.9366    
Loop time of 3.96955 on 2 procs for 16 steps with 2956 atoms

99.9% CPU use with 2 MPI tasks x 1 OpenMP threads

Minimization stats:
  Stopping criterion = energy tolerance
  Energy initial, next-to-last, final = 
        209037.7123404  -1238.87773222028  -1238.93664607232
  Force two-norm initial, final = 1600414.3 2596.9104
  Force max component initial, final = 82767.299 282.08141
  Final line search alpha, max atom move = 1.2312347e-05 0.0034730841
  Iterations, force evaluations = 16 65

MPI task timing breakdown:
Section |  min time  |  avg time  |  max time  |%varavg| %total
---------------------------------------------------------------
Pair    | 2.2567     | 2.4861     | 2.7156     |  14.6 | 62.63
Bond    | 0.13378    | 0.13744    | 0.1411     |   1.0 |  3.46
Kspace  | 0.87096    | 1.1207     | 1.3705     |  23.6 | 28.23
Neigh   | 0          | 0          | 0          |   0.0 |  0.00
Comm    | 0.11766    | 0.13055    | 0.14345    |   3.6 |  3.29
Output  | 0          | 0          | 0          |   0.0 |  0.00
Modify  | 0.029557   | 0.033729   | 0.0379     |   2.3 |  0.85
Other   |            | 0.06095    |            |       |  1.54

Nlocal:           1478 ave        1662 max        1294 min
Histogram: 1 0 0 0 0 0 0 0 0 1
Nghost:           7897 ave        8462 max        7332 min
Histogram: 1 0 0 0 0 0 0 0 0 1
Neighs:         404575 ave      447974 max      361176 min
Histogram: 1 0 0 0 0 0 0 0 0 1

Total # of neighbors = 809150
Ave neighs/atom = 273.73139
Ave special neighs/atom = 8.673207
Neighbor list builds = 0
Dangerous builds = 0
reset_timestep 0

# --- 2. NVT relaxation (lets the packed box relax before the barostat) ------
print "RENEU >>> stage 2 of 4: NVT relaxation"
RENEU >>> stage 2 of 4: NVT relaxation
velocity all create ${TK} 12345 mom yes rot yes dist gaussian
velocity all create 300 12345 mom yes rot yes dist gaussian
fix NVTRELAX all nvt temp ${TK} ${TK} 100
fix NVTRELAX all nvt temp 300 ${TK} 100
fix NVTRELAX all nvt temp 300 300 100
run ${NVTRUN}
run 20000
PPPM initialization ...
  using 12-bit tables for long-range coulomb
  G vector (1/distance) = 0.28633454
  grid = 24 24 24
  stencil order = 5
  estimated absolute RMS force accuracy = 0.0025753093
  estimated relative force accuracy = 7.7554676e-06
  using double precision FFTW3
  3d grid and FFT values/proc = 18259 6912
Generated 105 of 105 mixed pair_coeff terms from geometric mixing rule
Per MPI rank memory allocation (min/avg/max) = 15.91 | 16.1 | 16.29 Mbytes
   Step          Temp          Press          Volume         v_dens         PotEng         TotEng    
         0   300            15999.048      43763.062      0.59997858    -1239.4927      831.57409    
      1000   290.61852      644.37412      43763.062      0.59997858    -7978.0892     -5971.788     
      2000   301.72985     -138.14227      43763.062      0.59997858    -8389.965      -6306.9561    
      3000   292.20902     -265.89471      43763.062      0.59997858    -8562.7225     -6545.4412    
      4000   304.18995     -716.24141      43763.062      0.59997858    -8638.9726     -6538.9802    
      5000   292.72048     -156.25803      43763.062      0.59997858    -8784.3468     -6763.5346    
      6000   310.39188     -657.19869      43763.062      0.59997858    -8859.693      -6716.8853    
      7000   293.33046     -1011.4836      43763.062      0.59997858    -8941.8272     -6916.8039    
      8000   303.9481      -856.42483      43763.062      0.59997858    -9046.866      -6948.5432    
      9000   288.54157     -454.7032       43763.062      0.59997858    -9083.2313     -7091.2684    
     10000   303.86164     -482.76496      43763.062      0.59997858    -9137.3587     -7039.6328    
     11000   292.3023      -193.08107      43763.062      0.59997858    -9221.0867     -7203.1614    
     12000   302.89656     -261.83857      43763.062      0.59997858    -9256.3779     -7165.3145    
     13000   297.41309     -656.38643      43763.062      0.59997858    -9136.9793     -7083.7714    
     14000   287.69572     -289.52984      43763.062      0.59997858    -9224.1092     -7237.9857    
     15000   304.04402     -597.49565      43763.062      0.59997858    -9294.549      -7195.5641    
     16000   302.64277     -544.82381      43763.062      0.59997858    -9260.4023     -7171.0909    
     17000   303.73321      88.352374      43763.062      0.59997858    -9384.2791     -7287.4399    
     18000   303.56995     -625.87712      43763.062      0.59997858    -9367.3584     -7271.6462    
     19000   306.04055     -424.13283      43763.062      0.59997858    -9299.5943     -7186.8262    
     20000   300.96823     -911.0486       43763.062      0.59997858    -9325.4635     -7247.7124    
Loop time of 997.28 on 2 procs for 20000 steps with 2956 atoms

Performance: 1.733 ns/day, 13.851 hours/ns, 20.055 timesteps/s, 59.281 katom-step/s
98.0% CPU use with 2 MPI tasks x 1 OpenMP threads

MPI task timing breakdown:
Section |  min time  |  avg time  |  max time  |%varavg| %total
---------------------------------------------------------------
Pair    | 439.77     | 498.46     | 557.16     | 262.9 | 49.98
Bond    | 38.556     | 42.838     | 47.119     |  65.4 |  4.30
Kspace  | 275.01     | 335.18     | 395.34     | 328.7 | 33.61
Neigh   | 61.663     | 61.903     | 62.142     |   3.0 |  6.21
Comm    | 29.277     | 31.558     | 33.838     |  40.6 |  3.16
Output  | 0.0058712  | 0.014123   | 0.022374   |   6.9 |  0.00
Modify  | 22.926     | 23.332     | 23.738     |   8.4 |  2.34
Other   |            | 3.997      |            |       |  0.40

Nlocal:           1478 ave        1625 max        1331 min
Histogram: 1 0 0 0 0 0 0 0 0 1
Nghost:         7849.5 ave        8251 max        7448 min
Histogram: 1 0 0 0 0 0 0 0 0 1
Neighs:         403476 ave      456926 max      350027 min
Histogram: 1 0 0 0 0 0 0 0 0 1

Total # of neighbors = 806953
Ave neighs/atom = 272.98816
Ave special neighs/atom = 8.673207
Neighbor list builds = 982
Dangerous builds = 0
unfix NVTRELAX

# --- 3. NPT equilibration (this is where the density finds its own value) ---
# restart files are written every 25000 steps. If the run stops for any
# reason you can pick up from the last one instead of starting over:
#     read_restart rst_a.lmp      (or rst_b.lmp, whichever is newer)
print "RENEU >>> stage 3 of 4: NPT equilibration - watch the density column"
RENEU >>> stage 3 of 4: NPT equilibration - watch the density column
restart 25000 rst_a.lmp rst_b.lmp
fix NPTEQ all npt temp ${TK} ${TK} 100 iso ${PBAR} ${PBAR} 1000
fix NPTEQ all npt temp 300 ${TK} 100 iso ${PBAR} ${PBAR} 1000
fix NPTEQ all npt temp 300 300 100 iso ${PBAR} ${PBAR} 1000
fix NPTEQ all npt temp 300 300 100 iso 1 ${PBAR} 1000
fix NPTEQ all npt temp 300 300 100 iso 1 1 1000
run ${EQRUN}
run 100000
PPPM initialization ...
  using 12-bit tables for long-range coulomb
  G vector (1/distance) = 0.28633454
  grid = 24 24 24
  stencil order = 5
  estimated absolute RMS force accuracy = 0.0025753093
  estimated relative force accuracy = 7.7554676e-06
  using double precision FFTW3
  3d grid and FFT values/proc = 18259 6912
Generated 105 of 105 mixed pair_coeff terms from geometric mixing rule
Per MPI rank memory allocation (min/avg/max) = 16 | 16.38 | 16.77 Mbytes
   Step          Temp          Press          Volume         v_dens         PotEng         TotEng    
     20000   300.96823     -911.15151      43763.062      0.59997858    -9325.4635     -7247.7124    
     21000   302.24663     -332.01936      40488.958      0.64849531    -9460.3575     -7373.781     
     22000   296.55431      781.93492      37084.243      0.70803385    -9516.7043     -7469.425     
     23000   296.63454     -3.8606731      36237.013      0.72458787    -9419.013      -7371.1798    
     24000   306.49084     -161.70535      35181.006      0.74633738    -9522.7834     -7406.9067    
     25000   304.26969     -131.99166      34401.354      0.76325194    -9518.299      -7417.7561    
     26000   296.49315      644.31548      33377.435      0.78666619    -9533.6422     -7486.7851    
     27000   302.95684     -6.1822019      33177.114      0.79141603    -9488.9157     -7397.4362    
     28000   298.33008      581.60019      31553.287      0.83214467    -9547.2506     -7487.7121    
     29000   309.57312      1384.9855      31500.763      0.83353217    -9570.2421     -7433.0867    
     30000   297.40866      353.07179      31443.371      0.83505359    -9594.7953     -7541.6179    
     31000   298.69422     -592.2267       31431.901      0.8353583     -9640.1365     -7578.0841    
     32000   307.36769     -434.86801      31449.228      0.83489808    -9599.2341     -7477.304     
     33000   302.48222     -27.568286      31255.006      0.84008622    -9624.7124     -7536.5094    
     34000   302.33425      28.171438      30928.72       0.8489488     -9603.0815     -7515.9       
     35000   296.27999     -650.63129      31138.19       0.84323784    -9623.7644     -7578.3788    
     36000   303.37562     -265.41432      30775.551      0.85317399    -9637.8739     -7543.5033    
     37000   304.78471      89.888126      30422.686      0.86306974    -9604.0764     -7499.9781    
     38000   298.38352     -117.61499      30159.261      0.87060818    -9642.4667     -7582.5594    
     39000   295.41531     -621.29806      30288.352      0.86689762    -9628.9251     -7589.5089    
     40000   308.66193      311.7046       30667.477      0.85618063    -9613.9332     -7483.0682    
     41000   298.1171      -344.54232      30251.132      0.86796421    -9639.928      -7581.8599    
     42000   306.60297      507.0618       30145.294      0.87101158    -9683.6356     -7566.9848    
     43000   297.39558      151.769        30082.312      0.87283517    -9635.7027     -7582.6157    
     44000   298.89262     -1223.3931      30498.175      0.86093348    -9637.6689     -7574.2469    
     45000   306.40186      1097.1646      29827.299      0.88029759    -9696.5476     -7581.2852    
     46000   299.19266     -806.631        29750.299      0.882576      -9726.8473     -7661.354     
     47000   297.44846     -191.40199      29535.99       0.88897985    -9662.2825     -7608.8304    
     48000   297.94191      599.17406      29670.932      0.8849368     -9729.537      -7672.6783    
     49000   297.51713     -500.59935      29358.066      0.89436749    -9700.1798     -7646.2536    
     50000   301.33259      1018.274       29185.749      0.89964797    -9722.6122     -7642.3458    
     51000   297.25408     -294.96965      29564.947      0.88810913    -9685.313      -7633.2028    
     52000   301.33653      914.23141      29258.955      0.89739704    -9679.5339     -7599.2403    
     53000   306.92028     -1256.9184      29068.683      0.90327105    -9760.6406     -7641.7992    
     54000   293.42295      1016.6315      29640.115      0.88585688    -9699.732      -7674.0702    
     55000   310.52796      168.4127       29298.642      0.89618145    -9791.6059     -7647.8587    
     56000   308.2608      -855.88772      28974.376      0.90621104    -9702.6908     -7574.5951    
     57000   292.53042     -166.93722      29388.751      0.89343368    -9722.3412     -7702.841     
     58000   300.68675     -308.00577      29188.392      0.89956649    -9706.2293     -7630.4215    
     59000   301.81583     -563.86464      29213.154      0.89880401    -9744.9816     -7661.3791    
     60000   302.84027     -802.13474      28683.855      0.9153895     -9732.2342     -7641.5595    
     61000   300.00364     -521.63402      29173.137      0.90003691    -9764.2931     -7693.2011    
     62000   296.73049      593.73946      29167.158      0.90022138    -9713.0774     -7664.5818    
     63000   304.47022      852.67492      28816.255      0.91118362    -9743.2525     -7641.3252    
     64000   305.93625      375.90201      29159.445      0.90045952    -9675.6078     -7563.5597    
     65000   296.78716     -447.27882      28961.627      0.90660997    -9764.1595     -7715.2727    
     66000   300.15443      15.658185      28568.504      0.91908555    -9821.7184     -7749.5855    
     67000   302.63922      22.690791      28814.281      0.91124604    -9778.6804     -7689.3935    
     68000   306.51277     -1227.5997      28911.807      0.90817222    -9747.1143     -7631.0862    
     69000   293.46263     -143.58623      28327.626      0.92690081    -9825.873      -7799.9373    
     70000   298.65675     -675.12414      28206.229      0.93089012    -9795.3098     -7733.5162    
     71000   303.40112      202.31597      28469.816      0.92227149    -9763.7158     -7669.1692    
     72000   293.18404     -678.9091       28149.747      0.93275792    -9782.0291     -7758.0167    
     73000   302.0873      -36.928582      28386.633      0.92497409    -9784.6557     -7699.179     
     74000   297.31361     -1834.2848      28462.374      0.92251264    -9764.8653     -7712.3441    
     75000   307.20208      375.52486      28656.251      0.91627128    -9761.195      -7640.4082    
     76000   301.27393     -264.20751      28345.45       0.92631796    -9816.2968     -7736.4353    
     77000   309.98136     -1576.2598      28564.526      0.91921356    -9737.0915     -7597.1178    
     78000   303.08542      542.08223      28439.517      0.92325407    -9832.9834     -7740.6162    
     79000   303.03403      69.698709      28518.357      0.92070171    -9774.027      -7682.0146    
     80000   306.6841       680.81526      28503.044      0.92119633    -9773.4016     -7656.1907    
     81000   300.74984     -571.73917      28475.369      0.92209164    -9815.4732     -7739.2298    
     82000   313.86945     -246.88892      28718.719      0.91427822    -9739.9153     -7573.0999    
     83000   299.43829     -729.68544      28141.134      0.93304341    -9849.8172     -7782.6281    
     84000   302.90344     -568.36329      28282.69       0.9283735     -9759.5413     -7668.4304    
     85000   290.23649      814.57586      28453.238      0.92280884    -9722.8464     -7719.1825    
     86000   302.32767      892.71864      28499.043      0.92132565    -9778.3322     -7691.1962    
     87000   299.32949     -899.89629      28928.596      0.90764514    -9784.8877     -7718.4498    
     88000   304.74975      414.83077      28755.03       0.9131237     -9768.8871     -7665.0301    
     89000   299.28575      191.215        28571.212      0.91899846    -9738.9824     -7672.8464    
     90000   297.87308      307.52006      28321.296      0.92710799    -9804.4144     -7748.0309    
     91000   300.32461     -805.30012      28629.613      0.91712381    -9862.6657     -7789.3579    
     92000   297.93353      957.97013      28848.597      0.91016212    -9737.8832     -7681.0824    
     93000   305.01462      321.01723      28649.685      0.91648127    -9802.2967     -7696.6112    
     94000   303.53069      423.53683      28379.257      0.92521449    -9842.8623     -7747.4211    
     95000   298.28558     -163.13901      28193.778      0.93130121    -9777.4944     -7718.2632    
     96000   299.6376       389.12842      28211.652      0.93071117    -9849.6169     -7781.052     
     97000   307.85564     -49.070917      28398.824      0.92457701    -9870.876      -7745.5774    
     98000   302.2116       705.8767       28555.778      0.91949515    -9840.0582     -7753.7235    
     99000   298.80575      726.87443      28537.332      0.9200895     -9754.0064     -7691.1842    
    100000   304.28227      418.096        28646.67       0.91657772    -9867.8187     -7767.189     
    101000   296.33467     -191.39588      28241.068      0.92974173    -9813.7321     -7767.9691    
    102000   294.23495     -474.96761      28558.784      0.91939837    -9820.155      -7788.8876    
    103000   293.39884     -532.13985      28273.973      0.92865972    -9781.4053     -7755.91      
    104000   302.2157       128.64206      28359.835      0.92584813    -9790.9841     -7704.6211    
    105000   303.00101      63.808068      28392.047      0.92479771    -9835.6884     -7743.9039    
    106000   293.74334      49.40163       27967.266      0.938844      -9853.2458     -7825.3722    
    107000   304.23142     -1934.1519      28297.54       0.92788631    -9818.7666     -7718.4879    
    108000   296.94648     -113.98491      27808.211      0.94421391    -9850.9223     -7800.9356    
    109000   306.87546      448.82221      28492.928      0.92152341    -9782.255      -7663.723     
    110000   300.50267     -378.45535      28289.588      0.92814714    -9879.8252     -7805.2882    
    111000   294.58721      553.53031      28344.362      0.92635354    -9748.6553     -7714.956     
    112000   300.72239      1188.2505      28287.563      0.92821358    -9859.4314     -7783.3776    
    113000   299.19331      609.67778      27759.251      0.94587925    -9926.0246     -7860.5268    
    114000   301.04547     -126.29842      28436.557      0.92335017    -9845.5496     -7767.2654    
    115000   298.6885      -301.02181      28010.161      0.93740623    -9824.0147     -7762.0019    
    116000   302.27308     -403.71552      27557.023      0.95282061    -9924.127      -7837.3678    
    117000   310.88912      733.18063      27974.205      0.9386111     -9864.2196     -7717.9791    
    118000   299.91448     -798.19049      27846.362      0.94292028    -9884.5435     -7814.0671    
    119000   305.29715      259.16493      27902.635      0.94101865    -9924.7512     -7817.1153    
    120000   299.12668      58.072551      27980.91       0.93838619    -9819.6456     -7754.6078    
Loop time of 7635.87 on 2 procs for 100000 steps with 2956 atoms

Performance: 1.132 ns/day, 21.211 hours/ns, 13.096 timesteps/s, 38.712 katom-step/s
97.7% CPU use with 2 MPI tasks x 1 OpenMP threads

MPI task timing breakdown:
Section |  min time  |  avg time  |  max time  |%varavg| %total
---------------------------------------------------------------
Pair    | 3570.5     | 3804.9     | 4039.3     | 380.0 | 49.83
Bond    | 266.58     | 274.27     | 281.96     |  46.5 |  3.59
Kspace  | 1967.3     | 2216.1     | 2464.8     | 528.5 | 29.02
Neigh   | 320.49     | 321.21     | 321.94     |   4.1 |  4.21
Comm    | 268.83     | 272.11     | 275.39     |  19.9 |  3.56
Output  | 1.9774     | 2.013      | 2.0486     |   2.5 |  0.03
Modify  | 641.02     | 644.49     | 647.96     |  13.7 |  8.44
Other   |            | 100.8      |            |       |  1.32

Nlocal:           1478 ave        1478 max        1478 min
Histogram: 2 0 0 0 0 0 0 0 0 0
Nghost:        10803.5 ave       10919 max       10688 min
Histogram: 1 0 0 0 0 0 0 0 0 1
Neighs:         565464 ave      586513 max      544415 min
Histogram: 1 0 0 0 0 0 0 0 0 1

Total # of neighbors = 1130928
Ave neighs/atom = 382.58728
Ave special neighs/atom = 8.673207
Neighbor list builds = 3873
Dangerous builds = 0
unfix NPTEQ
write_data data.after_equilibration.lmp
System init for write_data ...
PPPM initialization ...
  using 12-bit tables for long-range coulomb
  G vector (1/distance) = 0.29789669
  grid = 24 24 24
  stencil order = 5
  estimated absolute RMS force accuracy = 0.0016424458
  estimated relative force accuracy = 4.9461767e-06
  using double precision FFTW3
  3d grid and FFT values/proc = 18259 6912
Generated 105 of 105 mixed pair_coeff terms from geometric mixing rule

# --- 4. NPT production - this is the trajectory you analyse ----------------
print "RENEU >>> stage 4 of 4: NPT production"
RENEU >>> stage 4 of 4: NPT production
reset_timestep 0
fix NPTPROD all npt temp ${TK} ${TK} 100 iso ${PBAR} ${PBAR} 1000
fix NPTPROD all npt temp 300 ${TK} 100 iso ${PBAR} ${PBAR} 1000
fix NPTPROD all npt temp 300 300 100 iso ${PBAR} ${PBAR} 1000
fix NPTPROD all npt temp 300 300 100 iso 1 ${PBAR} 1000
fix NPTPROD all npt temp 300 300 100 iso 1 1 1000
fix DENSAVG all ave/time 10 100 1000 v_dens v_vol file density.dat

dump TRAJ all custom 500 dump.lammpstrj id mol type element q xu yu zu
dump_modify TRAJ element N C H C H H C H C C O C H O N

run ${PRODRUN}
run 200000
PPPM initialization ...
  using 12-bit tables for long-range coulomb
  G vector (1/distance) = 0.29789669
  grid = 24 24 24
  stencil order = 5
  estimated absolute RMS force accuracy = 0.0016424458
  estimated relative force accuracy = 4.9461767e-06
  using double precision FFTW3
  3d grid and FFT values/proc = 18259 6912
Generated 105 of 105 mixed pair_coeff terms from geometric mixing rule
Per MPI rank memory allocation (min/avg/max) = 16.81 | 17 | 17.19 Mbytes
   Step          Temp          Press          Volume         v_dens         PotEng         TotEng    
         0   299.12668      183.84185      27980.91       0.93838619    -9819.6246     -7754.5867    
      1000   308.78855      1243.1841      28090.469      0.9347263     -9774.4905     -7642.7514    
      2000   299.96652     -358.31186      27897.716      0.94118457    -9903.6187     -7832.7829    
      3000   311.57737      178.35134      27673.543      0.94880876    -9886.8069     -7735.8151    
      4000   301.26526     -1409.3099      28418.992      0.92392087    -9832.2558     -7752.4543    
      5000   302.07225     -1453.2683      28004.944      0.93758086    -9813.5201     -7728.1473    
      6000   302.59966     -217.13456      28126.695      0.93352238    -9750.9309     -7661.9172    
      7000   294.07518      183.48924      27698.371      0.94795825    -9805.8501     -7775.6856    
      8000   300.72489      91.489797      27940.643      0.93973855    -9830.6965     -7754.6254    
      9000   301.18471     -851.28897      28269.681      0.9288007     -9816.9844     -7737.7388    
     10000   302.74411     -818.19524      27997.111      0.93784318    -9841.66       -7751.649     
     11000   303.39732      400.99217      28149.949      0.93275125    -9772.7317     -7678.2113    
     12000   307.07456     -533.85543      27540.929      0.95337741    -9863.4569     -7743.5504    
     13000   294.5454      -916.25602      27871.748      0.94206145    -9851.1727     -7817.7619    
     14000   297.85051     -12.394226      27832.053      0.94340505    -9778.0694     -7721.8417    
     15000   300.03146      338.90151      28053.929      0.93594377    -9865.7403     -7794.4563    
     16000   304.61503      752.95103      27908.051      0.94083603    -9800.5003     -7697.5733    
     17000   295.3788       1651.4137      27949.674      0.93943491    -9816.0921     -7776.928     
     18000   293.5132       755.15867      28159.388      0.93243859    -9807.0276     -7780.7428    
     19000   304.19664     -163.26383      27942.995      0.93965946    -9853.0752     -7753.0366    
     20000   300.51821      21.137679      27901.34       0.94106233    -9841.4961     -7766.8518    
     21000   295.40713      1334.3631      27603.39       0.9512201     -9902.6371     -7863.2774    
     22000   297.56506      1621.7002      27899.132      0.9411368     -9813.3211     -7759.0641    
     23000   297.76409     -533.64368      27548.811      0.95310465    -9823.6635     -7768.0325    
     24000   295.65239     -143.70186      28040.894      0.93637883    -9803.6073     -7762.5544    
     25000   292.57662     -1590.5435      27749.559      0.94620963    -9811.9836     -7792.1645    
     26000   308.89579      389.07971      27650.516      0.94959892    -9845.2783     -7712.799     
     27000   298.24611      2161.9323      27790.739      0.94480754    -9855.1986     -7796.2399    
     28000   312.72204     -931.64818      27653.236      0.94950548    -9904.9176     -7746.0234    
     29000   303.72514     -415.1656       28090.189      0.9347356     -9889.4482     -7792.6647    
     30000   302.05715     -177.28768      27547.332      0.95315581    -9924.5661     -7839.2976    
     31000   302.07852      836.35986      27641.436      0.94991084    -9821.3559     -7735.9399    
     32000   305.86965     -492.6114       27752.35       0.94611447    -9833.3204     -7721.7321    
     33000   293.72322     -84.99256       27595.436      0.95149427    -9885.8914     -7858.1567    
     34000   298.05164      637.23329      27340.681      0.96036012    -9888.3542     -7830.738     
     35000   308.55435      1019.78        27576.695      0.95214093    -9913.4409     -7783.3187    
     36000   290.88419     -688.1271       27449.312      0.9565595     -9888.0083     -7879.873     
     37000   300.93981      881.20352      27712.884      0.94746184    -9827.246      -7749.6911    
     38000   301.25936      465.65446      27744.051      0.94639746    -9843.1585     -7763.3976    
     39000   298.60136      99.98581       27531.9        0.95369008    -9904.2196     -7842.8084    
     40000   299.69713      611.211        27576.11       0.95216111    -9828.1293     -7759.1533    
     41000   299.74601      381.25216      27547.616      0.953146      -9861.3493     -7792.0359    
     42000   301.87534      1655.9523      27630.191      0.95029745    -9822.5115     -7738.4982    
     43000   301.69861      631.88286      27480.44       0.95547596    -9908.484      -7825.6907    
     44000   301.88166     -553.9433       27448.645      0.95658274    -9869.7608     -7785.7038    
     45000   294.88189     -776.62724      27478.965      0.95552726    -9940.4484     -7904.7148    
     46000   304.21967      496.75267      27691.548      0.94819183    -9859.7915     -7759.5939    
     47000   295.83108     -41.846183      27574.703      0.95220969    -9873.242      -7830.9556    
     48000   312.35694      613.35782      27693.461      0.94812632    -9804.6152     -7648.2415    
     49000   308.2341       971.06472      27536.13       0.95354357    -9862.4447     -7734.5334    
     50000   300.50593      818.81106      27411.996      0.95786165    -9826.7447     -7752.1852    
     51000   284.42309     -1140.2023      27803.809      0.94436342    -9859.7266     -7896.1959    
     52000   294.0667      -786.64026      27823.744      0.94368681    -9798.0738     -7767.9679    
     53000   299.64198      745.01594      27668.056      0.94899692    -9854.5567     -7785.9615    
     54000   304.09151     -479.53967      27877.081      0.94188123    -9803.6787     -7704.3659    
     55000   304.86554     -1007.2374      28157.557      0.93249922    -9908.8277     -7804.1713    
     56000   309.21966     -471.91947      28348.004      0.92623453    -9817.0881     -7682.3728    
     57000   295.86163     -795.13383      28024.741      0.93691857    -9776.9478     -7734.4504    
     58000   307.65505      1425.3431      27840.788      0.94310908    -9833.3458     -7709.4319    
     59000   297.57297     -160.22002      27943.923      0.93962827    -9908.4716     -7854.1599    
     60000   300.69579     -338.53178      27811.506      0.94410206    -9881.5082     -7805.6379    
     61000   297.77994      1002.9899      27637.417      0.95004896    -9887.6343     -7831.8938    
     62000   295.3819       1243.6804      27852.257      0.94272073    -9799.5343     -7760.3488    
     63000   294.36624      1253.6673      27622.725      0.9505543     -9859.0732     -7826.8994    
     64000   305.15519     -215.88768      27869.775      0.94212815    -9859.8834     -7753.2274    
     65000   297.31833      161.61877      27786.086      0.94496576    -9901.1572     -7848.6034    
     66000   295.84991     -806.36666      27722.991      0.94711641    -9935.5833     -7893.1668    
     67000   299.33778     -532.81073      27952.21       0.93934969    -9836.5102     -7770.0151    
     68000   300.12581      1875.0411      27810.907      0.94412238    -9876.7309     -7804.7955    
     69000   290.95401      374.37921      27688.058      0.94831136    -9904.9793     -7896.3619    
     70000   304.99757      53.149537      27449.045      0.95656879    -9885.4308     -7779.863     
     71000   296.70301      743.63887      27357.671      0.95976372    -9916.6849     -7868.3791    
     72000   301.05715     -736.6132       27409.994      0.95793162    -9915.9531     -7837.5881    
     73000   293.16387      725.5712       27513.407      0.95433108    -9875.6835     -7851.8103    
     74000   295.75517      686.36396      27542.339      0.95332862    -9896.0986     -7854.3362    
     75000   307.5208       430.57851      26991.213      0.97279434    -9956.7487     -7833.7617    
     76000   299.79045      492.48069      27390.296      0.95862053    -9904.3995     -7834.7793    
     77000   301.57807     -440.60888      27609.065      0.9510246     -9937.194      -7855.2329    
     78000   288.84472      779.81222      27164.49       0.96658909    -9913.8682     -7919.8125    
     79000   306.44616      896.55089      27289.613      0.96215728    -9934.785      -7819.2168    
     80000   297.96785      339.1579       27329.63       0.96074844    -9932.031      -7874.9932    
     81000   301.52556     -438.3943       27183.713      0.96590555    -9931.0512     -7849.4526    
     82000   307.64085      939.15045      27245.778      0.96370525    -9855.1311     -7731.3152    
     83000   296.71055      555.02921      27924.584      0.94027899    -9890.5732     -7842.2152    
     84000   302.29281     -101.71051      27128.478      0.96787221    -9911.5078     -7824.6125    
     85000   301.59926      1015.1817      27600.866      0.95130711    -9882.0949     -7799.9874    
     86000   304.59401      702.8322       27772.903      0.94541432    -9903.6284     -7800.8466    
     87000   300.2977      -177.67418      27378.897      0.95901962    -9923.6672     -7850.5451    
     88000   294.10146     -1680.5196      27368.575      0.95938132    -9901.5198     -7871.174     
     89000   298.35137     -104.34617      27486.022      0.95528191    -9923.0956     -7863.4102    
     90000   302.06843     -364.48957      27387.12       0.95873167    -9878.7772     -7793.4309    
     91000   298.66661     -42.263821      27177.809      0.9661154     -9912.4678     -7850.6061    
     92000   301.25327     -480.52628      27472.266      0.95576026    -9857.4579     -7777.7391    
     93000   297.61649      93.305853      27582.599      0.95193711    -9940.2677     -7885.6556    
     94000   298.86476     -838.5473       27391.224      0.95858804    -9904.0283     -7840.7987    
     95000   294.03612     -532.1577       27385.289      0.9587958     -9914.9608     -7885.066     
     96000   304.68894      442.59286      27180.191      0.96603071    -9894.3246     -7790.8874    
     97000   297.19258      509.66578      27369.316      0.95935535    -9885.09       -7833.4043    
     98000   300.52316     -205.22081      27259.844      0.96320798    -9935.5767     -7860.8982    
     99000   295.88546     -832.9637       27346.581      0.96015293    -9834.9658     -7792.304     
    100000   296.42523      24.945504      26983.091      0.97308717    -9870.676      -7824.2878    
    101000   295.99606     -282.13464      27354.125      0.95988814    -9889.4759     -7846.0505    
    102000   294.58411      824.59552      27082.43       0.96951785    -9929.937      -7896.2591    
    103000   313.0508       292.78947      27362.219      0.95960418    -9923.0801     -7761.9163    
    104000   300.15738      205.49426      27664.671      0.94911303    -9870.7742     -7798.6209    
    105000   299.91051      840.72218      27481.436      0.95544134    -9894.1016     -7823.6526    
    106000   296.39211     -1095.2489      27647.415      0.9497054     -9915.5083     -7869.3487    
    107000   301.31582     -1329.5062      27750.531      0.94617647    -9861.0387     -7780.888     
    108000   303.58272      920.23291      27871.362      0.94207452    -9816.4266     -7720.6263    
    109000   297.4925      -1677.5992      27658.75       0.9493162     -9902.7832     -7849.0271    
    110000   307.09727     -1840.9636      27732.511      0.94679129    -9904.1922     -7784.129     
    111000   289.63289     -1746.1996      27740.43       0.94652102    -9887.5437     -7888.0467    
    112000   297.49833      846.39413      27551.594      0.95300837    -9913.8318     -7860.0354    
    113000   305.48509     -1927.9403      27373.568      0.95920634    -9958.8188     -7849.8853    
    114000   293.81079     -2603.0036      27473.701      0.95571034    -9959.3673     -7931.028     
    115000   301.61335      1370.1633      27169.17       0.96642258    -9925.9622     -7843.7575    
    116000   302.33864      472.1097       27199.894      0.96533094    -9910.8373     -7823.6255    
    117000   301.68144     -464.18219      27399.427      0.95830104    -9889.2188     -7806.5441    
    118000   303.99113     -1440.0606      27774.738      0.94535184    -9900.7594     -7802.1396    
    119000   306.93603      258.54284      27534.418      0.95360287    -9902.4595     -7783.5095    
    120000   302.01857      816.70368      27910.363      0.94075809    -9864.5616     -7779.5595    
    121000   297.16606      772.61273      27432.441      0.95714776    -9931.3672     -7879.8647    
    122000   306.30229     -826.09741      27773.216      0.94540364    -9853.4478     -7738.8727    
    123000   294.93357      833.27285      27738.086      0.94660099    -9920.2225     -7884.1321    
    124000   303.09683      776.44828      27401.38       0.95823274    -9936.1721     -7843.7261    
    125000   312.66168      557.62562      27808.852      0.94419215    -9826.7596     -7668.2822    
    126000   302.69523     -182.21743      27688.051      0.94831158    -9933.8878     -7844.2143    
    127000   296.63258      540.93154      27808.913      0.94419009    -9943.3977     -7895.578     
    128000   297.87927     -459.42161      27830.133      0.94347014    -9889.6589     -7833.2326    
    129000   300.89664      388.1849       27567.315      0.95246489    -10008.92      -7931.6631    
    130000   302.20184     -811.02344      27499.959      0.95479777    -9938.099      -7851.8317    
    131000   304.76785      1379.7613      27707.817      0.94763509    -9877.5918     -7773.6099    
    132000   295.8394       1116.1935      27364.432      0.95952658    -9936.289      -7893.9451    
    133000   302.28438      90.05007       27457.334      0.95628001    -9925.4903     -7838.6531    
    134000   302.2681       381.81507      27472.415      0.95575505    -9939.4535     -7852.7288    
    135000   294.45587     -116.5966       27610.022      0.95099162    -10033.899     -8001.1066    
    136000   298.14088     -17.108181      27330.308      0.96072463    -9917.4558     -7859.2235    
    137000   300.31996     -164.54793      27089.078      0.96927994    -9914.8619     -7841.5862    
    138000   311.34383     -136.36041      27611.408      0.9509439     -9919.0277     -7769.6481    
    139000   308.09013      872.60959      27306.038      0.96157853    -9869.5307     -7742.6132    
    140000   301.36189     -906.36558      27586.568      0.95180015    -9934.7224     -7854.2537    
    141000   299.96099      1435.1228      27781.626      0.94511746    -9946.4965     -7875.699     
    142000   297.81239     -880.20136      27432.951      0.95712996    -9842.8131     -7786.8486    
    143000   308.41006     -1072.54        27467.001      0.95594346    -9921.324      -7792.1979    
    144000   304.00173      72.724869      27462.921      0.95608548    -9950.5791     -7851.8861    
    145000   296.02471     -380.34546      27909.014      0.94080356    -9952.8993     -7909.2761    
    146000   296.37437      263.68645      27884.254      0.94163897    -9863.8406     -7817.8035    
    147000   315.79047      542.87996      27633.256      0.95019203    -9891.7887     -7711.7115    
    148000   299.23277     -1149.4724      28286.287      0.92825544    -9857.3422     -7791.5719    
    149000   301.25785      87.362419      27608.163      0.95105568    -9884.9069     -7805.1564    
    150000   290.31045     -662.46191      27957.617      0.93916803    -9877.6535     -7873.479     
    151000   295.62517      244.50431      27673.265      0.9488183     -9839.1096     -7798.2447    
    152000   297.35873      542.29875      27739.042      0.94656838    -9877.5999     -7824.7672    
    153000   299.28818      680.23055      27430.886      0.95720204    -9919.9057     -7853.753     
    154000   292.1292      -913.63345      27373.417      0.95921162    -9934.3814     -7917.6511    
    155000   302.90479     -627.58476      27579.665      0.95203837    -9892.6382     -7801.518     
    156000   297.3527       232.18066      27383.386      0.95886241    -9904.0178     -7851.2267    
    157000   310.3024       255.55295      27425.65       0.95738479    -9914.3533     -7772.1633    
    158000   302.68364     -1397.2882      27522.161      0.95402756    -9894.7542     -7805.1608    
    159000   304.74552     -608.37255      27455.554      0.95634201    -9915.9175     -7812.0897    
    160000   293.29649     -56.810901      27315.441      0.96124751    -9946.7678     -7921.9791    
    161000   300.13016      219.00405      27096.158      0.96902668    -10036.457     -7964.4917    
    162000   304.51663      768.32989      27516.071      0.95423868    -9892.463      -7790.2153    
    163000   295.33327     -353.1454       27333.41       0.96061558    -9970.3202     -7931.4703    
    164000   303.9974      -90.3275        27332.749      0.96063883    -9966.4647     -7867.8016    
    165000   303.48346      1710.9116      27596.808      0.95144698    -9904.7174     -7809.6023    
    166000   292.55957      255.47585      27713.718      0.94743333    -9901.5749     -7881.8735    
    167000   301.696        62.000772      27599.48       0.95135486    -9892.6632     -7809.888     
    168000   291.46069     -123.31585      27272.926      0.96274597    -9985.5588     -7973.4436    
    169000   307.42564      284.47727      27320.293      0.96107679    -9929.0246     -7806.6944    
    170000   302.62391      37.235332      27296.304      0.96192142    -9883.582      -7794.4009    
    171000   299.27967      2321.9846      27283.495      0.96237304    -9943.146      -7877.052     
    172000   300.08189     -1113.5355      27514.72       0.95428555    -9898.3902     -7826.7581    
    173000   302.33705      948.26965      27514.156      0.95430512    -9927.0892     -7839.8885    
    174000   293.70634     -914.62311      27880.36       0.94177046    -9899.2536     -7871.6354    
    175000   299.7648       978.03184      27586.564      0.95180031    -9849.8041     -7780.361     
    176000   300.89927     -761.69717      27529.754      0.9537644     -9954.5706     -7877.2957    
    177000   311.00816      590.11447      27615.371      0.95080741    -10006.619     -7859.5565    
    178000   303.01536     -898.34638      27430.231      0.95722488    -9910.7534     -7818.8699    
    179000   303.57701      344.66243      27557.399      0.95280761    -9933.7827     -7838.0218    
    180000   310.44889      983.45626      27429.144      0.95726281    -9934.9964     -7791.7951    
    181000   305.66699      25.55512       27552.211      0.95298701    -9933.5123     -7823.3232    
    182000   306.79742     -1384.3944      27576.997      0.9521305     -9994.0924     -7876.0992    
    183000   291.67087     -438.38516      27708.89       0.9475984     -9942.3027     -7928.7365    
    184000   311.05225     -475.4881       27568.65       0.95241876    -9932.4403     -7785.0736    
    185000   300.62224     -1113.0295      27706.768      0.94767099    -9929.0107     -7853.6482    
    186000   302.3039      -385.76714      27532.707      0.95366211    -9932.0037     -7845.0318    
    187000   302.30325     -963.08163      27392.876      0.95853023    -9966.3219     -7879.3545    
    188000   296.57504      706.77841      27494.616      0.95498331    -9892.8372     -7845.4147    
    189000   302.23368     -1143.9546      27845.505      0.94294933    -9914.6998     -7828.2126    
    190000   300.92736      287.95978      27391.421      0.95858116    -9970.378      -7892.9091    
    191000   308.02588     -201.16029      27903.115      0.94100247    -9845.7184     -7719.2444    
    192000   298.94637     -595.84415      27696.542      0.94802087    -9884.6488     -7820.8558    
    193000   303.53229     -2109.7877      27950.886      0.93939419    -9905.7911     -7810.3388    
    194000   298.1436      -675.69885      27694.734      0.94808276    -9941.444      -7883.1929    
    195000   302.00566     -1174.3513      27703.384      0.94778673    -9933.1372     -7848.2242    
    196000   293.63079     -690.61992      27878.556      0.94183141    -9923.8757     -7896.779     
    197000   297.31252     -883.07813      27947.635      0.93950344    -9882.716      -7830.2023    
    198000   295.62515     -401.31157      27835.566      0.94328599    -9980.2666     -7939.4018    
    199000   299.42175     -682.91371      27765.009      0.94568311    -9925.3409     -7858.2661    
    200000   304.40743     -691.10536      27436.557      0.95700419    -9945.4559     -7843.9621    
Loop time of 14085.6 on 2 procs for 200000 steps with 2956 atoms

Performance: 1.227 ns/day, 19.563 hours/ns, 14.199 timesteps/s, 41.972 katom-step/s
98.2% CPU use with 2 MPI tasks x 1 OpenMP threads

MPI task timing breakdown:
Section |  min time  |  avg time  |  max time  |%varavg| %total
---------------------------------------------------------------
Pair    | 7746.3     | 7967.2     | 8188.1     | 247.5 | 56.56
Bond    | 513.66     | 517.56     | 521.47     |  17.2 |  3.67
Kspace  | 3166.5     | 3388.7     | 3611       | 381.8 | 24.06
Neigh   | 596.07     | 596.4      | 596.74     |   1.4 |  4.23
Comm    | 359.79     | 361.25     | 362.72     |   7.7 |  2.56
Output  | 24.698     | 30.095     | 35.492     |  98.4 |  0.21
Modify  | 1079.1     | 1079.6     | 1080       |   1.4 |  7.66
Other   |            | 144.8      |            |       |  1.03

Nlocal:           1478 ave        1479 max        1477 min
Histogram: 1 0 0 0 0 0 0 0 0 1
Nghost:          10983 ave       11055 max       10911 min
Histogram: 1 0 0 0 0 0 0 0 0 1
Neighs:         575989 ave      597428 max      554550 min
Histogram: 1 0 0 0 0 0 0 0 0 1

Total # of neighbors = 1151978
Ave neighs/atom = 389.70839
Ave special neighs/atom = 8.673207
Neighbor list builds = 7523
Dangerous builds = 0

write_data data.final.lmp
System init for write_data ...
PPPM initialization ...
  using 12-bit tables for long-range coulomb
  G vector (1/distance) = 0.28427825
  grid = 20 20 20
  stencil order = 5
  estimated absolute RMS force accuracy = 0.0036656751
  estimated relative force accuracy = 1.1039072e-05
  using double precision FFTW3
  3d grid and FFT values/proc = 12393 4000
Generated 105 of 105 mixed pair_coeff terms from geometric mixing rule
print "RENEU >>> finished. trajectory = dump.lammpstrj, density log = density.dat"
RENEU >>> finished. trajectory = dump.lammpstrj, density log = density.dat
Total wall time: 6:18:44
