LAMMPS data file via write_data, version 10 Dec 2025, timestep = 200000, units = real

2880 atoms
14 atom types
2592 bonds
7 bond types
4368 angles
12 angle types
5520 dihedrals
12 dihedral types

2.5355515124868013 32.27444848751082 xlo xhi
2.5355515124868013 32.27444848751082 ylo yhi
2.5355515124868013 32.27444848751082 zlo zhi

Masses

1 14.007
2 12.011
3 1.008
4 12.011
5 1.008
6 1.008
7 12.011
8 1.008
9 12.011
10 12.011
11 15.999
12 12.011
13 1.008
14 15.999

Bond Coeffs # harmonic

1 382.003 1.448
2 434.034 1.01
3 267.925 1.529
4 339.986 1.09
5 317.041 1.522
6 655.951 1.25
7 517.63 1

Angle Coeffs # harmonic

1 35.0024 109.5
2 35.0024 109.5
3 56.2022 109.5
4 35.0024 109.5
5 37.5 110.7
6 32.9947 107.8
7 58.3533 112.7
8 70.0048 117
9 79.9952 126
10 63.0019 111.1
11 35.0024 109.5
12 37.9505 109.47

Dihedral Coeffs # opls

1 -0.19001 -0.416993 0.417997 0
2 0 0 0.4 0
3 2.39199 -0.673996 0.55 0
4 0 0 0.3 0
5 -1.013 -0.709011 0.472992 0
6 0 0 0.3 0
7 1.3 -0.05 0.2 0
8 0 0.820005 0 0
9 0 0 0 0
10 -3.18499 -0.825 0.492997 0
11 0 0 -0.225 0
12 0 21 0 0

Atoms # full

616 27 7 -0.32 6.733474995304868 8.092784816359135 4.763211145168388 0 0 1
1153 50 6 0.06 6.60891676977878 5.779119829083257 7.08830104302074 0 1 0
2378 121 14 -0.8476 2.898291986894367 8.401142528428316 4.536530893208319 1 1 1
2379 121 13 0.4238 2.9097105076828753 7.8689967878854175 5.3831029907106505 1 1 1
1647 70 6 0.06 5.065967955570187 4.7145763288263804 5.055716088077241 0 0 0
1149 50 12 -0.18 7.0088748343538025 5.982688924305402 8.08162136404976 0 1 0
1154 50 6 0.06 6.622437841354675 6.974491738657976 8.316324707124146 0 1 0
619 27 8 0.13 5.958723586935378 8.492215037131455 5.417663411092598 0 0 1
1150 50 6 0.06 5.412185881785842 5.156630277365208 9.178522915379418 0 1 0
613 27 4 -0.12 8.108748986740284 7.926372404619707 5.387085371691885 0 0 1
618 27 6 0.06 8.06267115360439 7.536833478209589 6.404055499418783 0 0 1
621 27 8 0.13 6.364595022541996 7.098423254633694 4.51168621766947 0 0 1
1640 70 4 -0.12 6.51337219860533 3.329825890617755 4.272850761693838 0 0 0
1646 70 4 -0.12 4.059542353111083 3.365904117004547 3.6735282738391533 0 0 0
1645 70 6 0.06 6.958817622322989 4.170977933664844 3.7416882228793407 0 0 0
1146 50 4 -0.12 6.4871958520914035 4.985204286092024 9.123217185919312 0 1 0
1151 50 6 0.06 6.743230505310497 3.9908832301096213 8.757342898080552 0 1 0
1649 70 12 -0.18 2.6041793389408405 3.9191776593592573 3.741987979281011 0 0 0
617 27 6 0.06 8.58889860566449 8.873845178156984 5.63171508480033 0 0 1
620 27 8 0.13 6.645000934280039 8.630156085809551 3.8190202136079243 0 0 1
1654 70 6 0.06 2.6883822131647506 5.002013719134501 3.834009728386851 0 0 0
1152 50 6 0.06 8.09866961703177 6.002930492817974 8.087063963918148 0 1 0
614 27 6 0.06 8.566482741592793 6.257047750429972 4.275293233009108 0 0 1
1639 70 6 0.06 9.392926634556364 3.402067511760529 4.547489755059986 0 0 0
610 27 4 -0.12 9.0606926338182 7.198812456455578 4.513888773866357 0 0 1
615 27 6 0.06 8.981676232059888 7.743795455583757 3.5732283641554727 0 0 1
1651 70 6 0.06 4.472671270582166 3.7622727824966518 2.7460001579157365 0 0 0
2547 177 13 0.4238 3.7205581024835697 9.716273577137773 3.9242772379131328 1 0 1
1643 70 4 -0.12 5.07436073982443 3.671184826296135 4.740508604343905 0 0 0
1637 70 4 -0.12 7.457855769911136 3.133286630854637 5.49284321362534 0 0 0
1641 70 6 0.06 7.447160281811184 4.035428424201889 6.104494914044693 0 0 0
655 29 6 0.06 4.649838706752401 2.8619334066154516 9.271493287155145 1 0 0
1648 70 6 0.06 4.716783270065895 3.108709184579176 5.602976873106462 0 0 0
1634 70 4 -0.12 8.91423180966057 2.6120983864173057 5.126188347253526 0 0 0
1635 70 6 0.06 9.550452190186732 3.2798521222769033 7.128353039756518 0 0 0
612 27 6 0.06 10.4531225388781 6.634844768604056 6.1570975689035645 0 0 1
603 27 3 0.35 13.516375598432967 4.372988392454811 3.4829744754019747 0 0 1
604 27 4 -0.12 11.432356050549698 6.066415651771663 4.305647912584254 0 0 1
602 27 3 0.35 12.920141092336797 3.653407099632252 4.830730302414031 0 0 1
608 27 6 0.06 10.890922095916267 5.125796133694009 4.406525364301865 0 0 1
607 27 4 -0.12 10.520298908452926 6.925249339370482 5.108648937894891 0 0 1
609 27 6 0.06 11.519758152183591 6.35866943306646 3.2592059978056733 0 0 1
599 27 1 -0.48 13.427199036321431 4.455827423450268 4.485610342108175 0 0 1
600 27 2 0.2 12.877304223326227 5.752731837956464 4.869260570761036 0 0 1
606 27 5 0.08 12.909452273398092 5.826620241197589 5.956274383251115 0 0 1
611 27 6 0.06 10.986406892839346 7.896467929722665 5.2746906746092215 0 0 1
463 21 3 0.35 12.525250226657407 3.5763499474313436 8.598301566092108 0 0 0
468 21 5 0.08 11.106204691249753 5.5470790348423105 8.496579812958212 0 0 0
605 27 5 0.08 13.501726796703815 6.545505868187756 4.4573166407940175 0 0 1
461 21 1 -0.48 12.667404840238012 4.351071803767457 9.230513453482072 0 0 0
464 21 3 0.35 13.366749778317953 5.00742207413953 8.913947213208278 0 0 0
462 21 2 0.2 11.430688617997415 5.151372955137181 9.458982493582855 0 0 0
1860 79 6 0.06 12.486995258617684 8.480176469581732 8.054552655351795 0 0 0
601 27 3 0.35 14.297099333456167 4.229322355108048 4.946113122282389 0 0 1
467 21 5 0.08 10.704767056509414 4.413567849490325 9.800703951906343 0 0 0
2653 213 13 0.4238 15.309211134698105 5.724397012699933 7.423714986043658 0 0 0
2655 213 13 0.4238 14.696387628945303 7.009103520009565 8.010963400494859 0 0 0
2654 213 14 -0.8476 14.476337514372709 6.042957125484931 7.876303877625058 0 0 0
1708 73 11 -0.8 15.672681383119079 3.62164245503412 5.4587971117477085 0 0 0
2318 101 14 -0.8476 15.553639318135868 7.685237529740782 5.37185429542473 0 0 1
2319 101 13 0.4238 15.877206241865332 6.770539777379842 5.613984455872293 0 0 1
2424 136 13 0.4238 16.0039011528375 3.3382763973864242 8.489271768976856 0 1 0
1705 73 9 0.7 16.634089330644365 4.364898364093702 5.765079719924956 0 0 0
1707 73 11 -0.8 16.531314897600367 5.417511517327851 6.383441492862747 0 0 0
2781 255 13 0.4238 16.75650523590844 8.675393617302495 9.628238188359772 0 0 0
1857 79 11 -0.8 14.898397514661282 8.667891864929858 7.846785489727088 0 0 0
2413 133 13 0.4238 15.001511346745543 2.9747473114703293 6.842164390636937 0 0 0
1866 79 6 0.06 10.196524756270168 9.258583017169258 9.030037686561796 0 0 0
1856 79 10 -0.22 12.616662947390138 9.496642810473592 7.682968877147909 0 0 0
1855 79 9 0.7 14.115802457419992 9.607131244810864 7.566585263745974 0 0 0
1861 79 6 0.06 12.24331480315876 9.592665694284268 6.663418592102766 0 0 0
2740 242 13 0.4238 16.922419459998643 8.570887464780142 4.48492172771326 0 1 0
1632 70 11 -0.8 11.858715254164535 2.545910266728388 7.4546341801250335 0 0 0
1633 70 11 -0.8 11.753260380456052 2.545929677670973 5.244801507079025 0 0 0
2610 198 13 0.4238 11.201160234325009 2.6140044639893354 3.8129471896083107 0 1 0
2423 136 14 -0.8476 16.727465933455868 3.663893281217491 9.097894966312392 0 1 0
2780 255 14 -0.8476 16.459236508517975 7.722824941595217 9.563140846138758 0 0 0
2317 101 13 0.4238 15.38844681518132 8.196176915063404 6.215445858075553 0 0 1
2779 255 13 0.4238 15.701307454501812 7.990557572587491 8.968280594120799 0 0 0
2422 136 13 0.4238 16.64757629693718 2.92135551990009 9.762912828032958 0 1 0
2863 283 13 0.4238 17.8831706044489 6.361731092776957 6.703768774815075 0 0 0
2865 283 13 0.4238 17.998358348096723 7.51946396006095 7.714202004863252 0 0 0
2864 283 14 -0.8476 18.511470879688915 7.092963832223353 6.969348647013269 0 0 0
1711 73 6 0.06 17.967309431958935 4.741777712092233 4.378929311640016 0 0 0
1706 73 10 -0.22 18.017520657566415 4.073840186242415 5.238830651249635 0 0 0
1710 73 6 0.06 18.821495541688854 4.418035173446663 5.889404423398622 0 0 0
2686 224 13 0.4238 19.98733391943384 7.345263618149212 6.152394037397153 0 0 0
146 7 5 0.08 19.76797255664866 6.307169988762508 9.044763175879392 0 0 0
1709 73 4 -0.12 18.364165435154458 2.649644850010676 4.870117651717274 0 0 0
2687 224 14 -0.8476 20.863532726351146 7.319885301741168 5.6711187073202804 0 0 0
147 7 4 -0.12 21.626788945025996 4.574043861355085 9.310159784546487 0 0 0
153 7 4 -0.12 23.72100136941288 3.104100886040331 8.892852272734089 0 0 0
2808 264 13 0.4238 23.151362928583666 7.3532282640010855 7.901692196891706 0 0 1
2807 264 14 -0.8476 22.73944582143413 8.069838846949324 7.338853963912022 0 0 1
2688 224 13 0.4238 21.455259717936674 7.433748426405496 6.469171954050645 0 0 0
99 5 5 0.08 24.151862752367496 5.691493784738691 4.218490253310019 0 0 0
100 5 5 0.08 24.421732685647935 5.369890343918561 5.978858931224073 0 0 0
2806 264 13 0.4238 23.487752468329457 8.415881999029462 6.7729168534733315 0 0 1
105 5 6 0.06 22.599026783086885 4.085074997932985 4.055899670611696 0 0 0
98 5 4 -0.12 24.58337915600916 3.672319545463275 4.729288130272348 0 0 0
152 7 6 0.06 21.4492749085551 5.02191999331942 8.332413524049572 0 0 0
158 7 6 0.06 23.858120292973958 3.3735949453241885 7.845635308920024 0 0 0
101 5 4 -0.12 23.088381377186185 3.372290808812199 4.719648711807482 0 0 0
150 7 4 -0.12 22.203842795642046 3.1148175355345975 9.188841928780604 0 0 0
94 5 2 0.2 24.755324232193026 5.169068399465443 4.96078267289103 0 0 0
106 5 6 0.06 22.559597122542833 3.5091067732767676 5.662919942119881 0 0 0
154 7 6 0.06 21.72312314333415 2.5990413372447287 8.357592542976356 0 0 0
2696 227 14 -0.8476 24.213349314259172 6.284238999765398 8.459158290189412 0 0 0
157 7 6 0.06 24.25826862397352 3.799686287050224 9.537520332732143 0 0 0
2695 227 13 0.4238 24.178815375280948 5.451971097733749 9.012449198853 0 0 0
2741 242 14 -0.8476 17.905250930530293 8.754672696238574 4.468822034983088 0 1 0
2742 242 13 0.4238 18.248870529391716 7.9265794044674 4.911744608734137 0 1 0
2584 190 13 0.4238 19.019202861701526 9.341359609700913 8.494827523677525 0 0 0
2585 190 14 -0.8476 19.768734318451973 9.118180353480327 9.118035137640476 0 0 0
125 6 6 0.06 24.31157685487202 8.032802020904688 2.7712616932426237 0 0 0
2721 235 13 0.4238 21.53631641204078 8.58695906726038 4.690105353364084 0 0 0
1183 52 11 -0.8 24.463155999416934 8.791639930332927 5.615666052049376 -1 0 0
2719 235 13 0.4238 22.98964212732949 9.012136881603446 4.881580190576869 0 0 0
2720 235 14 -0.8476 22.184641872208765 9.265736586766911 4.34524353153795 0 0 0
1713 73 6 0.06 19.315010670789977 2.5899273695181058 4.34057145690844 0 0 0
148 7 6 0.06 19.55724470185826 3.768714073530767 9.439097231848782 0 0 0
142 7 3 0.35 17.659290623518533 4.96518227226543 9.63096235354677 0 0 0
141 7 3 0.35 17.48896006746959 6.4731171313021125 9.904757791561718 0 0 0
144 7 4 -0.12 20.21061615206912 4.466648587530804 9.96262872143945 0 0 0
151 7 6 0.06 22.278559354221393 5.265151409816136 9.844629358674116 0 0 0
131 6 6 0.06 21.946947212182646 7.327441077443419 2.604052781998999 0 0 0
137 6 8 0.13 19.599113836818432 7.553977939239312 2.6368405788394527 0 0 0
1653 70 6 0.06 31.93776334157983 3.6720987596155594 4.7231941062302685 -1 0 0
652 29 5 0.08 31.97084935355038 3.3742267998037594 9.902969236209056 0 0 0
103 5 6 0.06 25.232129280833913 3.370257220773904 3.90711194279477 0 0 0
2697 227 13 0.4238 25.20320949944051 6.42618707683456 8.463915581868713 0 0 0
93 5 1 -0.48 26.142720737050407 5.4988133001804265 4.86655272387285 0 0 0
97 5 3 0.35 26.22295559808514 6.505418745414419 4.846517193241333 0 0 0
102 5 6 0.06 24.90057484704855 3.056561574765819 5.5709063191747745 0 0 0
1182 52 11 -0.8 26.36270691628834 8.158626429242045 4.871930637687222 -1 0 0
96 5 3 0.35 26.52997903548265 5.179339502743027 3.990161708300028 0 0 0
95 5 3 0.35 26.68430271280613 5.10671760255513 5.623548851983566 0 0 0
2792 259 14 -0.8476 31.67123499645652 6.5529355424084965 6.448567257809904 -1 0 1
2793 259 13 0.4238 31.484123795422075 6.076682275919251 7.307733466129245 -1 0 1
2377 121 13 0.4238 31.655237791301992 8.347276429954203 4.35524658414628 0 1 1
2791 259 13 0.4238 31.335290070029465 5.989607673796883 5.6937188359564965 -1 0 1
2342 109 14 -0.8476 26.963868993125775 4.2542821993401105 7.360090213265326 0 0 0
2341 109 13 0.4238 26.91999127599066 4.9784400813622565 8.048322354922835 0 0 0
2343 109 13 0.4238 27.888619727629646 3.875236220010037 7.394054337670563 0 0 0
1583 68 11 -0.8 26.870332881425945 6.281671407065483 8.826530865314965 0 0 0
2526 170 13 0.4238 27.79071390837879 6.787084093579344 7.1281727910486605 0 0 0
2525 170 14 -0.8476 28.145573056337806 6.914500163292292 6.201979719551381 0 0 0
2824 270 13 0.4238 29.20459434110105 5.356236267205183 5.953600241892859 0 0 1
2825 270 14 -0.8476 29.70849065604925 4.6278188496729475 5.489389854669501 0 0 1
2452 146 13 0.4238 30.36545009947569 4.312434948968511 8.413644878232809 0 0 0
2453 146 14 -0.8476 30.810418865239185 5.1712660770952 8.667432447707629 0 0 0
2338 108 13 0.4238 29.493746389511777 5.685547673929625 4.064668553871782 -1 0 1
2449 145 13 0.4238 29.650267994550934 7.885394925205107 3.3711272670225148 0 1 1
2454 146 13 0.4238 30.0735768787118 5.841823219048777 8.753517500602847 0 0 0
2524 170 13 0.4238 27.575926076658032 7.613876703420327 5.77027326839266 0 0 0
118 6 3 0.35 26.829983788326295 8.000525497741208 2.947217610771922 0 0 0
1358 59 11 -0.8 29.408451618295 3.252357935975426 7.708784178627354 0 0 0
2826 270 13 0.4238 29.858890705575458 4.0090140855608745 6.260399123508167 0 0 1
2339 108 14 -0.8476 29.311269628141368 6.2438887811584305 3.255378255379203 -1 0 1
1257 55 11 -0.8 27.16137845233763 5.075516058294097 2.5693563666948935 0 0 0
1580 68 9 0.7 27.707555954396764 7.028760852848564 9.441027761841479 0 0 0
2340 108 13 0.4238 28.590528020976514 5.643986559579002 2.908042232132171 -1 0 1
1180 52 9 0.7 25.625380773372864 9.08287383913672 5.26887964647104 -1 0 0
1588 68 6 0.06 25.314001552212915 8.815035714570959 9.093435578252768 0 0 0
2450 145 14 -0.8476 30.098500664097802 8.77750987037646 3.3144364615490662 0 1 1
1585 68 6 0.06 27.8093600484882 9.050185119441018 8.614353286033161 0 0 0
1011 44 8 0.13 30.595105219924584 9.410102607008888 9.008570110213666 0 0 0
1581 68 10 -0.22 27.43537921083221 8.560304788280938 9.51337925841291 0 0 0
2451 145 13 0.4238 29.618964825025035 9.276176309438119 2.5923761120640454 0 1 1
1584 68 4 -0.12 25.982816749367633 8.980196227642239 9.938125016642093 0 0 0
1652 70 6 0.06 31.680781315611394 3.579618958718417 2.945648062320154 -1 0 0
1873 79 6 0.06 7.746783110907315 10.111858361408661 9.502422423942104 0 0 0
1879 79 6 0.06 5.616172905943577 10.876021737622606 6.565735315790434 0 0 0
1875 79 6 0.06 7.990086558961283 10.950242347106766 6.916096827976519 0 0 0
1877 79 6 0.06 5.651164562446445 10.215343576725735 8.147783570600453 0 0 0
2546 177 14 -0.8476 4.320222458790125 10.429033351609743 3.560448300608743 1 0 1
1878 79 6 0.06 5.321975112570865 11.881026318236168 8.042867963065845 0 0 0
1874 79 12 -0.18 5.933103754023525 11.104187509492943 7.583373383903446 0 0 0
1871 79 4 -0.12 7.464251583974758 11.33652879635863 7.789236203643082 0 0 0
1204 52 6 0.06 4.262934976566299 12.882037149418563 5.800107552235987 0 0 0
1872 79 6 0.06 7.460040122164 11.710602428485485 9.768451008296186 0 0 0
1876 79 6 0.06 7.611047743300966 12.395101116052787 7.574835770654945 0 0 0
1868 79 4 -0.12 8.05872478149459 11.080153753248844 9.111029400772516 0 0 0
598 26 8 0.13 5.925205024185553 14.200869583967318 5.46128840839858 0 0 0
597 26 8 0.13 5.695040592831335 14.852863997249154 3.892018936974406 0 0 0
593 26 7 -0.32 6.293467650565507 14.98019287443823 4.794107879760949 0 0 0
1202 52 6 0.06 3.1296425089656017 13.440038406079994 7.053256966067824 0 0 0
596 26 8 0.13 5.972085449809962 15.93110340142607 5.219048656620298 0 0 0
1467 63 6 0.06 7.0861551661174325 12.499809452368211 3.118200476200724 0 0 1
1753 74 6 0.06 4.291085581272377 10.199537817358213 9.812862726263784 0 0 0
2545 177 13 0.4238 3.682599057055686 11.105342669228342 3.1916179046810926 1 0 1
1473 63 6 0.06 8.733838574322728 11.576589802495397 4.316672964835192 0 0 1
592 26 6 0.06 9.029111211034408 14.190429146332452 6.10515758378995 0 0 0
1865 79 4 -0.12 9.5593157274154 11.359813728353712 9.166783985897606 0 0 0
1869 79 6 0.06 9.808326664759452 12.218591467824256 8.54341702069432 0 0 0
1468 63 4 -0.12 9.277959123531165 11.277347957808454 3.420860946518376 0 0 1
1867 79 6 0.06 9.962656734258285 10.22820303488127 7.544700495255644 0 0 0
1199 52 12 -0.18 3.2194214369902032 12.892865059234612 6.114836435646789 0 0 0
1203 52 6 0.06 2.972523149635772 11.883917636658438 6.445227681590215 0 0 0
1689 72 6 0.06 3.652158004040614 14.139394131958495 9.859430652093263 0 0 0
594 26 6 0.06 8.248095867154085 14.329925859453628 3.9957800106691885 0 0 0
1691 72 6 0.06 4.066376286353582 15.505618112343683 8.109539939669832 0 0 0
1687 72 4 -0.12 4.865898562142302 15.534961751102685 8.84980685107903 0 0 0
1692 72 6 0.06 5.629527278935994 14.84677006786513 8.487377000122155 0 0 0
591 26 6 0.06 7.788223134944663 14.94569470727549 6.844689839132579 0 0 0
590 26 4 -0.12 7.877098411665132 15.1395647318266 4.624220813118778 0 0 0
595 26 6 0.06 8.163331971748384 16.054835328015443 4.106106825224175 0 0 0
587 26 4 -0.12 8.46601972941069 15.118724058041911 6.00878037294479 0 0 0
1694 72 6 0.06 6.189391559199585 17.043594564575322 9.815060911561883 0 0 0
589 26 6 0.06 8.828008598825042 17.219027447801764 6.170675191767945 0 0 0
1690 72 4 -0.12 5.439695633934476 16.960862864703557 9.02816604479301 0 0 0
1698 72 6 0.06 6.747909712294447 16.9510025057305 7.373545361142454 0 0 0
408 18 6 0.06 3.6046400529353395 16.03309110408327 3.216930301121336 1 0 1
585 26 6 0.06 9.064402740314282 15.946920307288208 8.447544743260986 0 0 0
584 26 4 -0.12 9.378527238230767 16.283017955523075 6.2650550359806445 0 0 0
581 26 4 -0.12 9.858818525043848 16.136718666887127 7.725760732774603 0 0 0
1850 78 6 0.06 2.566441855422564 17.113296295226736 8.407709183650171 1 0 1
1472 63 6 0.06 8.7935934772168 10.360444269676574 3.0850491482438804 0 0 1
1469 63 6 0.06 9.533307402111918 13.162551042014252 2.6094723887472426 0 0 1
1864 79 6 0.06 12.305601475853296 10.410534727484649 9.526920933766919 0 0 0
1862 79 4 -0.12 10.359603914641465 10.228335090937115 8.559848246636253 0 0 0
1476 63 6 0.06 10.977427778372858 10.24858299507935 4.278547507019666 0 0 1
1859 79 4 -0.12 11.868898724531496 10.450536895788346 8.529031890419947 0 0 0
1479 63 6 0.06 10.896891696605515 12.344039063638515 5.694387880572766 0 0 1
1477 63 6 0.06 12.409725105502444 12.105140689050994 4.836624434383009 0 0 1
1863 79 6 0.06 12.006603790150042 11.44701126859134 8.109307970286647 0 0 0
1474 63 12 -0.18 11.353092200526065 12.337851819922205 4.704471303327775 0 0 1
1478 63 6 0.06 11.10293337787758 13.255190626862985 4.171552812634754 0 0 1
2705 230 14 -0.8476 14.271123047705911 13.05053733759337 8.29513329080466 0 0 1
2704 230 13 0.4238 14.383774064253078 12.141909216328358 7.893012992259701 0 0 1
1471 63 4 -0.12 10.753383319561818 11.223820431022911 3.8463345328441685 0 0 1
1622 69 6 0.06 15.036668868251203 12.821518400312998 3.2140511198935116 0 0 1
2706 230 13 0.4238 14.857640206586161 12.912576830542374 9.093229732041058 0 0 1
1858 79 11 -0.8 14.53644147595072 10.668901731379322 7.074011076894545 0 0 0
2638 208 13 0.4238 16.471930372578793 10.20874641804206 8.020402006296528 0 0 1
2371 119 13 0.4238 16.257089691164094 11.206788127736232 4.563781452658896 0 0 0
2373 119 13 0.4238 15.75639778230676 11.26791724297137 6.012050896720953 0 0 0
235 11 3 0.35 16.695578285933397 14.238513979848934 6.637979991962706 0 0 0
2372 119 14 -0.8476 16.35971312825002 11.764106972452113 5.3877095067944545 0 0 0
233 11 3 0.35 17.297042877665397 12.919711304368768 6.096845267015377 0 0 0
2764 250 13 0.4238 16.9556530645306 13.113889855854213 9.94323757909875 0 0 0
1475 63 6 0.06 11.320376154830225 11.190425859441593 2.9160141870716427 0 0 1
588 26 6 0.06 10.256736619339348 16.14231792552065 5.634940906536965 0 0 0
586 26 6 0.06 10.584809927481698 15.325951375890712 7.786464040652195 0 0 0
1614 69 6 0.06 11.523655865854106 15.83855976063126 3.493452974415382 0 0 1
578 26 3 0.35 11.688074366209623 16.302135774839144 9.519073960852094 0 0 0
2348 111 14 -0.8476 13.872551877475688 15.986308647327013 9.346064996922685 0 0 0
2349 111 13 0.4238 13.802849572247133 15.395530644976436 8.54225137946148 0 0 0
2648 211 14 -0.8476 13.366773422942046 16.82750293522093 5.810610986223459 0 0 0
2647 211 13 0.4238 13.222611731966337 17.05831337399715 4.848353826625556 0 0 0
576 26 1 -0.48 11.157489448099206 17.161493793008923 9.510321513046463 0 0 0
577 26 2 0.2 10.654050636251707 17.367898341457483 8.141883327198208 0 0 0
1612 69 4 -0.12 13.34097877597204 14.757982260536886 2.882508189704911 0 0 1
1616 69 6 0.06 13.200952160736987 14.308554556065149 3.8656151677330457 0 0 1
2347 111 13 0.4238 14.799631770885947 15.881728965245426 9.706037942912733 0 0 0
2500 162 13 0.4238 14.818514311376225 14.42157948923809 7.057112522350059 0 0 0
2502 162 13 0.4238 14.823604251829103 15.657466518608757 6.0167136932887955 0 0 0
2501 162 14 -0.8476 15.364347116884197 15.18557994323757 6.713071639914296 0 0 0
2367 117 13 0.4238 16.89480204015176 16.52974426079706 9.072271093197195 0 0 1
2365 117 13 0.4238 16.376339586818588 16.34120270475803 7.674990801379089 0 0 1
2366 117 14 -0.8476 16.838181183362572 17.043771127643716 8.216371656871054 0 0 1
240 11 6 0.06 17.031790449330703 15.406080499239657 4.421946223463797 0 0 0
1617 69 6 0.06 14.190646981707353 15.43288870007238 2.98574232434904 0 0 1
1609 69 4 -0.12 12.02524459898818 15.465504993316674 2.600519098267235 0 0 1
1627 69 6 0.06 16.48362375146324 10.555272049142083 2.5435265104598592 0 0 1
2586 190 13 0.4238 19.884467854197965 9.973095465948742 9.623721984641483 0 0 0
2536 174 13 0.4238 20.47426357410429 10.405395521569819 4.270904657557156 0 0 0
2639 208 14 -0.8476 17.41668409327652 10.097232727798696 8.328620853196796 0 0 1
241 11 6 0.06 17.649635884715085 13.890472043190188 3.84722343428554 0 0 0
231 11 1 -0.48 17.587566279213647 13.772293227272725 6.5537847167825705 0 0 0
2538 174 13 0.4238 18.890593489056375 10.12578120381798 4.5550865254746356 0 0 0
2640 208 13 0.4238 17.676603333146602 11.001560535774665 8.667190067686978 0 0 1
234 11 3 0.35 17.914084723328536 13.43771752317096 7.449071332094339 0 0 0
1657 71 11 -0.8 18.245797224065686 12.51775449988453 8.9457339517868 0 0 0
1655 71 9 0.7 19.42219005535242 12.918711441802373 9.121625161319944 0 0 0
2537 174 14 -0.8476 19.678615434086208 10.687556663980464 4.806929487148751 0 0 0
237 11 5 0.08 19.38152055810314 13.877018937762875 5.578426105734799 0 0 0
1658 71 11 -0.8 20.162300276559712 13.123750862065616 8.181243719086268 0 0 0
232 11 2 0.2 18.48355678697864 14.48120037969057 5.707723679316284 0 0 0
236 11 4 -0.12 17.940873245997146 14.808065875206346 4.358393097790026 0 0 0
2026 85 6 0.06 22.052497231560455 12.020972276538654 3.4516925892835513 0 0 1
1062 47 3 0.35 20.949352936309168 11.794381692977941 7.44329147058716 0 0 0
1066 47 5 0.08 23.461026361602283 11.049803725267731 6.3033724528803265 0 0 0
1063 47 3 0.35 21.056501588851646 10.938503866154262 5.98989273330042 0 0 0
1061 47 3 0.35 21.39953380005003 10.126240894616792 7.366595312000527 0 0 0
1059 47 1 -0.48 21.391525477087992 11.040398643606313 6.937241485824586 0 0 0
1060 47 2 0.2 22.7621636352574 11.542090183006687 6.9796393779175405 0 0 0
1068 47 6 0.06 23.276246496523193 10.535819477271627 8.821736930221931 0 0 0
1064 47 4 -0.12 23.23409922695923 11.554933668241462 8.437390845782545 0 0 0
1069 47 6 0.06 22.48297997156672 12.09604333213295 9.012814346587714 0 0 0
1065 47 5 0.08 22.854059193996946 12.577435274441546 6.65145070334209 0 0 0
1067 47 4 -0.12 24.698156995763984 12.109866363724763 8.526190504518095 0 0 0
2575 187 13 0.4238 23.4163383827384 14.814236440341666 4.980735500483019 0 0 0
2022 85 6 0.06 24.21194008239918 11.76806311770458 2.6447126634887357 0 0 1
243 11 6 0.06 19.838368681377187 14.810781518011796 3.3953391213254536 0 0 0
244 11 6 0.06 19.501185219221576 16.3758823498854 3.9605567334755896 0 0 0
238 11 5 0.08 18.81466633694275 15.438098036358292 6.111215126650795 0 0 0
239 11 4 -0.12 19.014647526848748 15.517225846301288 3.497866675256591 0 0 0
2734 240 13 0.4238 20.114829692961067 17.08100878377381 7.8502494541829035 0 0 1
2352 112 13 0.4238 20.720102852218606 14.81780328489353 8.038581886200594 0 0 0
2351 112 14 -0.8476 21.05362845626455 15.696294600121917 7.69651748196001 0 0 0
2350 112 13 0.4238 21.497848637543946 15.493730074166294 6.823803098045783 0 0 0
2550 178 13 0.4238 23.5698176666193 16.723318100536265 8.03880802369822 0 0 0
2576 187 14 -0.8476 22.969776082306417 15.402905756634897 5.654563242236593 0 0 0
2577 187 13 0.4238 23.38819972603678 16.31023209586872 5.695487668261933 0 0 0
2548 178 13 0.4238 24.745900164121235 17.232661485867574 6.999806536242325 0 0 0
1833 78 11 -0.8 24.728749719352358 17.345779036882348 4.927588009146568 0 0 1
252 11 8 0.13 20.970442098710013 17.2789586309431 2.5918419075604744 0 0 0
1071 47 6 0.06 24.979725585205266 12.810257592124525 7.7398933109346695 0 0 0
1072 47 6 0.06 25.27644039894206 11.211519999027656 8.310194738832099 0 0 0
1181 52 10 -0.22 26.111567338415963 10.500345370426588 5.1635190518129495 -1 0 0
1185 52 6 0.06 25.637504235507393 11.102415166005237 5.938675938908286 -1 0 0
1186 52 6 0.06 25.69830062202118 10.826120005409958 4.208964946505537 -1 0 0
1070 47 4 -0.12 25.169870371654508 12.588557992149846 9.94401288790837 0 0 0
1189 52 6 0.06 28.00801634994893 10.278159197549968 6.270854385299447 -1 0 0
1010 44 8 0.13 31.724457168460386 10.451734839384422 7.916025582852321 0 0 0
1012 44 8 0.13 30.0359256321465 10.021898485705574 7.6374040404016466 0 0 0
1008 44 6 0.06 30.247523964195256 12.402307428776203 8.355976459747822 0 0 0
1007 44 7 -0.32 30.760710809106488 10.30066655966835 8.402300659479433 0 0 0
1004 44 4 -0.12 30.21529350435249 11.54174419534046 9.024171173741241 0 0 0
1009 44 6 0.06 29.18174433854983 11.31416951456495 9.28508861500936 0 0 0
1201 52 6 0.06 32.075090452088816 12.901232114410917 4.0772581883929 -1 0 0
1196 52 4 -0.12 31.88199813004835 13.42736174875372 5.012135182291873 -1 0 0
1188 52 6 0.06 28.16107367316629 10.102936257628418 4.503308887080573 -1 0 0
1184 52 4 -0.12 27.632047377929474 10.617292367801646 5.305593781423983 -1 0 0
1197 52 6 0.06 30.238527941949993 13.76737325239297 6.274859367753841 -1 0 0
1192 52 6 0.06 27.777875854289956 12.492764999640453 4.300603759644052 -1 0 0
1194 52 6 0.06 30.00675590479988 11.634875224885981 4.183404607166718 -1 0 0
1187 52 4 -0.12 28.12118935641917 12.040684134652654 5.2311147762514185 -1 0 0
1193 52 4 -0.12 30.373133279857573 13.494200418296794 5.228269635514184 -1 0 0
1190 52 4 -0.12 29.678446127929348 12.091370381412425 5.117169511497753 -1 0 0
1195 52 6 0.06 29.993200840107388 11.41553682658345 5.912323912998746 -1 0 0
1191 52 6 0.06 27.631437340843846 12.578986632728148 6.042573596911037 -1 0 0
1080 47 8 0.13 28.276748881706034 14.101003889221703 9.24904588377889 0 0 0
1076 47 7 -0.32 27.25792350983351 13.816705127654027 8.985870865486877 0 0 0
1079 47 8 0.13 26.644411895840776 14.684404402458432 8.743397186151617 0 0 0
1081 47 8 0.13 27.308723076819582 13.23929877893499 8.062771004501364 0 0 0
1200 52 6 0.06 32.24699851841447 14.444159291152937 4.867257643909074 -1 0 0
1198 52 6 0.06 29.834201294598756 14.333011063644376 4.787768731805184 -1 0 0
1830 78 9 0.7 25.973521882975593 17.34720791563834 4.6838105550482245 0 0 1
1836 78 6 0.06 26.099779389262192 15.19630575192108 4.808542503136257 0 0 1
1838 78 6 0.06 27.78685641550334 14.927070319889692 6.092505756812724 0 0 1
1831 78 10 -0.22 26.749969278974838 16.069870455940304 4.761320998981883 0 0 1
1835 78 6 0.06 27.374954125704434 15.908441165450002 3.8830120865549613 0 0 1
1834 78 4 -0.12 27.56600501227983 15.991859279874356 6.018066884548535 0 0 1
1844 78 6 0.06 30.394601275286846 15.979616921438083 7.168335420598057 0 0 1
1839 78 6 0.06 26.78905434327868 16.137470138393176 6.7685582034766565 0 0 1
1837 78 4 -0.12 28.71970962218143 16.982861716027543 6.244224106135237 0 0 1
1840 78 4 -0.12 29.5707462338051 16.64225289104315 7.433417398012724 0 0 1
1845 78 6 0.06 29.09813495373537 16.142491374402624 8.27897580646685 0 0 1
1842 78 6 0.06 29.310205406871578 16.913115580428997 5.330691283312818 0 0 1
2404 130 13 0.4238 31.392090280297882 10.213615621836103 2.955627470558288 0 0 0
1846 78 4 -0.12 31.372794591681927 17.23681813769575 8.958341193173082 0 0 1
1851 78 6 0.06 31.088594147672186 16.24589232464529 9.312443106024688 0 0 1
2463 149 13 0.4238 29.17740363578071 13.777035698687714 3.0372081276230216 0 0 1
318 14 6 0.06 7.233412404275174 18.830212069841433 2.786833474229055 0 0 1
406 18 4 -0.12 2.6346245239671817 17.852005035076516 2.6676629358839152 1 0 1
1695 72 6 0.06 4.694905941616591 17.61155630771907 9.486400105169526 0 0 0
1697 72 6 0.06 5.192503098500846 17.631301018087473 7.035838558349433 0 0 0
1693 72 4 -0.12 5.968786961864696 17.583168318966365 7.799486824470137 0 0 0
1696 72 4 -0.12 6.553969598307764 18.99421535456599 8.120734986120386 0 0 0
1700 72 6 0.06 7.431681330320222 18.972277902237764 8.766670647955584 0 0 0
1704 72 6 0.06 7.876107357878448 19.095790165611277 6.398601362957129 0 0 0
409 18 7 -0.32 3.021260246406896 18.680563989583586 3.9602023536634343 1 0 1
414 18 8 0.13 3.2138086825130956 18.118009133835514 4.873738992472299 1 0 1
412 18 8 0.13 3.859819076310454 19.32483273607816 3.695950767052526 1 0 1
1701 72 6 0.06 5.837370703999999 19.614768596943012 8.658779452094945 0 0 0
1702 72 6 0.06 6.268217375882412 19.524748626041447 6.008560301756979 0 0 0
1699 72 12 -0.18 7.009078132597185 19.618445241513978 6.802561756240382 0 0 0
1703 72 6 0.06 7.283532891204532 20.654419845782453 7.001366288188316 0 0 0
2072 87 6 0.06 2.7118481403385717 22.971103220071974 7.453334308829953 1 0 1
2071 87 4 -0.12 4.5724590705079615 21.965022473069098 7.332227414833046 1 0 1
2076 87 6 0.06 4.151214082199711 20.979726760762844 7.53181959047 1 0 1
2069 87 6 0.06 3.867995370413122 22.129560539907228 4.7937236752818855 1 0 1
2068 87 4 -0.12 3.5001821623872758 22.866376385659038 6.707912427156651 1 0 1
2074 87 12 -0.18 5.086317728118978 22.657746592286482 8.601861739032442 1 0 1
2079 87 6 0.06 5.226424264158254 23.723975076806155 8.424044239297105 1 0 1
2077 87 6 0.06 4.577366974201253 22.58539737989341 9.563020806740493 1 0 1
2065 87 4 -0.12 2.9869701499821883 22.209994909508698 5.430447339454014 1 0 1
2078 87 6 0.06 6.105080115315422 22.32013784666064 8.792218121512914 1 0 1
2075 87 6 0.06 5.451849335000762 21.82716630198389 6.703132469455253 1 0 1
2073 87 6 0.06 3.874455813455652 23.859133299377422 6.458022539400371 1 0 1
364 16 6 0.06 5.873712824942183 23.987881673365386 4.148815994614456 0 0 0
2353 113 13 0.4238 9.910424907099138 21.642053261941506 4.118396762090602 0 0 1
91 4 8 0.13 8.917644237770173 23.740530031342345 9.629327367443654 0 0 0
827 36 8 0.13 9.338237260279946 24.7891498109441 5.251444674177938 0 -1 1
2417 134 14 -0.8476 9.353750347362979 20.620836820750903 9.656548175470093 0 0 0
2354 113 14 -0.8476 9.7528799548665 21.068176400461656 4.922037548227356 0 0 1
2416 134 13 0.4238 9.698984454600296 20.67074159450685 8.719362708129633 0 0 0
826 36 8 0.13 9.516262724190877 24.715153725784642 6.919225006582079 0 -1 1
362 16 6 0.06 8.002076814861486 24.732436549523847 3.4691770445232915 0 0 0
2070 87 6 0.06 2.6990774652789096 21.171367376310048 5.593120892549175 1 0 1
2063 87 6 0.06 2.6419931974321784 22.824120157311768 2.8068424640878877 1 0 1
322 14 8 0.13 9.07908810588627 20.16763721082643 2.7893390524650385 0 0 1
2425 137 13 0.4238 11.932528596761133 22.35513095123515 2.7976603218091562 0 0 1
2427 137 13 0.4238 11.158606639182862 23.85429686721856 2.8816742839654554 0 0 1
582 26 5 0.08 11.46443925763182 17.56958092521866 7.441393132866123 0 0 0
583 26 5 0.08 9.980640443586939 18.22496826361721 8.148354405573238 0 0 0
2649 211 13 0.4238 13.4303113942223 17.777793411779328 6.115413691319676 0 0 0
2827 271 13 0.4238 11.406706728647762 18.42157423351407 4.065721246981389 0 0 0
2828 271 14 -0.8476 10.582659993289266 18.561543704855342 4.614675467219744 0 0 0
2786 257 14 -0.8476 13.137417761174747 19.347158938978865 6.9561654327544336 0 0 0
2785 257 13 0.4238 12.337114138665541 19.8975316219625 7.194069542661338 0 0 0
1607 69 11 -0.8 12.864638031229509 18.022797057340536 3.4675473692780487 0 0 1
2787 257 13 0.4238 13.510505287432265 19.796775506209336 6.144595617575698 0 0 0
2620 202 13 0.4238 13.633434083369629 19.254844981036886 4.3990440660632455 0 0 0
579 26 3 0.35 11.607287271840454 18.022445271054302 9.786977413472098 0 0 0
534 24 3 0.35 13.951704706656955 18.765133818475533 8.905374113671048 0 0 0
2875 287 13 0.4238 10.221554544855215 21.22086352037282 6.637642883465152 0 0 0
865 38 6 0.06 16.330905443588136 19.101500982259388 3.990763934847693 0 0 1
530 24 1 -0.48 14.747902108292134 18.727100561057163 9.525629158578159 0 0 0
531 24 2 0.2 15.558551440628888 19.895162461414735 9.249204582387499 0 0 0
536 24 5 0.08 16.086938271151762 19.641800046324565 8.330125227627255 0 0 0
860 38 4 -0.12 17.14406599182241 19.657160299389858 3.5237471408724113 0 0 1
871 38 6 0.06 17.076567639192067 19.814140162155862 6.3293223706873185 0 0 1
532 24 3 0.35 15.377297027935219 17.94921799520018 9.388319661146536 0 0 0
2355 113 13 0.4238 10.10034188450104 20.136758134413324 4.813752894319842 0 0 1
2829 271 13 0.4238 10.677742763364721 17.745421288095745 5.184672615037622 0 0 0
2621 202 14 -0.8476 13.955280434411732 20.1714202018204 4.636319823086932 0 0 0
2876 287 14 -0.8476 10.905266276265756 21.035028425685823 7.343332749602309 0 0 0
2728 238 13 0.4238 13.203641792164602 21.683230438400933 5.672868458827306 0 0 0
2877 287 13 0.4238 11.575801923772303 21.705084317287533 7.024895901818518 0 0 0
2730 238 13 0.4238 12.38498045692567 22.98320413874565 5.165205729119279 0 0 0
2729 238 14 -0.8476 12.650387938551583 22.459605494296056 5.974771458762076 0 0 0
2622 202 13 0.4238 13.746551741152057 20.686060846900585 3.8047116067520124 0 0 0
540 24 6 0.06 13.972241359346262 21.153795781685677 8.479376364348582 0 0 0
546 24 6 0.06 13.783728305741764 23.335054624471788 8.160577656209362 0 0 0
2426 137 14 -0.8476 11.146405729264032 22.88298866364319 3.1191740990381884 0 0 1
541 24 4 -0.12 14.741585672817374 23.579483943219365 8.61976783960964 0 0 0
545 24 6 0.06 14.370137129366878 23.923377898833124 9.585094209996281 0 0 0
502 22 6 0.06 13.838728896197079 24.605971667155167 4.69783563251503 0 0 1
500 22 6 0.06 15.517192819588729 23.27247041757173 3.5717229348972968 0 0 1
535 24 4 -0.12 14.735854117332822 21.233478858278648 9.253093498502581 0 0 0
538 24 4 -0.12 15.667788092414536 22.459879497858108 8.81355973810227 0 0 0
499 22 6 0.06 16.19315063683979 24.100027620970543 4.945769308237512 0 0 1
495 22 4 -0.12 15.797601018606125 24.258366968707875 3.9424940820155 0 0 1
542 24 6 0.06 16.138957979097242 22.14373272954388 7.8828921483283425 0 0 0
867 38 6 0.06 17.028870462016382 21.527655324260344 4.564869089447248 0 0 1
549 24 6 0.06 15.748218180494764 24.440694120795676 6.9053140028937054 0 0 0
544 24 4 -0.12 15.39202662430892 24.72224428968206 7.896247468730302 0 0 0
537 24 5 0.08 16.439981265841716 20.002155458137764 9.881443507427766 0 0 0
543 24 6 0.06 16.37622855944307 22.790335775960372 9.573166730409838 0 0 0
2736 240 13 0.4238 18.658188383854014 17.630820442126655 8.142573645700347 0 0 1
2735 240 14 -0.8476 19.60199722245644 17.927028974950186 7.996016058059705 0 0 1
866 38 4 -0.12 17.968904474245996 20.239794925892692 5.870361541524505 0 0 1
870 38 6 0.06 18.656483198287816 19.403165412296858 5.994372205158895 0 0 1
872 38 8 0.13 18.594623172896288 21.082423821866044 7.85616554252939 0 0 1
864 38 6 0.06 17.912179962032617 18.92925741093057 3.2624995126601832 0 0 1
2748 244 13 0.4238 19.49174718372265 18.665006029212606 9.930849896106226 0 0 0
2549 178 14 -0.8476 24.22833301395918 17.44588391799659 7.828452331543795 0 0 0
2496 160 13 0.4238 22.44273375510658 19.56110454752803 8.987875750853764 0 0 0
2805 263 13 0.4238 20.93786670417994 18.964934226940553 7.264869169289763 0 0 0
2803 263 13 0.4238 21.879635596712017 19.516428689096532 6.129779349366152 0 0 0
2804 263 14 -0.8476 21.644865010456314 19.650816031307432 7.092492480548016 0 0 0
2773 253 13 0.4238 23.670998993296 18.431825363054447 4.664879554063482 0 0 1
2774 253 14 -0.8476 22.98829447498831 19.09729864898362 4.363129272735508 0 0 1
2775 253 13 0.4238 23.509518950122715 19.95058013679263 4.378262976528108 0 0 1
2494 160 13 0.4238 23.817875761444682 18.862516069671965 8.994251318726203 0 0 0
2495 160 14 -0.8476 23.30496895892256 19.560223104947855 9.494376962335181 0 0 0
489 22 4 -0.12 18.286809811216607 24.1115988331856 3.0902257801633732 0 0 1
487 22 3 0.35 20.8531800047435 24.02372090118022 3.02846967505709 0 0 1
863 38 4 -0.12 17.74737778309713 20.71324149216231 4.472298204902224 0 0 1
874 38 8 0.13 17.875074252988536 22.245191690144463 6.72527467620751 0 0 1
868 38 6 0.06 18.66925989156738 21.111515904057562 4.048502386889741 0 0 1
873 38 8 0.13 19.427655842978893 21.843564841726327 6.466698166613922 0 0 1
869 38 7 -0.32 18.51013652502526 21.363022216519507 6.806299569589684 0 0 1
493 22 6 0.06 18.566782215626255 23.83967712458607 4.107951725476247 0 0 1
2491 159 13 0.4238 20.095171502437385 23.46645321095716 8.406930408258928 0 0 1
2492 159 14 -0.8476 20.561265668673244 24.090913763264233 7.780192932282849 0 0 1
2878 288 13 0.4238 20.68555931708835 24.08302490325993 5.877449797280871 0 0 0
2879 288 14 -0.8476 21.18050615821944 23.699864384935275 5.09757190488547 0 0 0
1756 75 10 -0.22 24.66998796561134 23.802188294635044 3.3474797931151117 0 0 0
1755 75 9 0.7 24.441467574739104 22.28470932577632 3.3306400075730784 0 0 0
2493 159 13 0.4238 21.478978600160616 24.250524241900298 8.143952207061062 0 0 1
2554 180 13 0.4238 23.687999599395614 21.922732579006617 5.706534885551701 0 0 0
2556 180 13 0.4238 22.566006859703982 21.14910634728048 6.598572329939955 0 0 0
2555 180 14 -0.8476 22.933270573245203 22.045651347782375 6.350948173129556 0 0 0
2816 267 14 -0.8476 24.49913491138704 22.09586513220983 8.578859343140152 0 -1 0
2815 267 13 0.4238 23.747715434107686 22.412130065704446 7.99977466919196 0 -1 0
1758 75 11 -0.8 24.554903888033056 21.62485901061578 4.403670503537911 0 0 0
2817 267 13 0.4238 24.280405753976602 21.166051102330975 8.874827210793368 0 -1 0
1760 75 6 0.06 23.658333025601266 24.207714267137632 3.3335160621733038 0 0 0
2880 288 13 0.4238 21.97400236804444 23.19140359663773 5.431975346837135 0 0 0
2581 189 13 0.4238 22.30317143140397 19.673459790608145 2.696863947075598 0 0 0
2708 231 14 -0.8476 19.710405252927544 22.699705491339934 9.898793569009367 0 0 0
2856 280 13 0.4238 23.608834720383687 23.60007697106249 9.426339326520482 0 0 0
2855 280 14 -0.8476 22.841198584281095 24.02351103343334 9.907412918490014 0 0 0
494 22 6 0.06 18.178129453752376 23.167381463479487 2.5566208966772668 0 0 1
413 18 8 0.13 31.9329318878844 19.36906333399627 4.132710056461372 0 0 1
718 32 3 0.35 26.372324030409438 19.181835513161143 2.825783306334679 0 0 1
1832 78 11 -0.8 26.603504226252433 18.389013596654145 4.291132100133817 0 0 1
1852 78 6 0.06 32.26447695947721 19.057823419189635 9.648391834109416 0 0 1
1848 78 6 0.06 30.822187089852896 18.397591995580484 7.308536645194643 0 0 1
1843 78 4 -0.12 30.301418962596653 17.803718498825063 8.05967373677149 0 0 1
1847 78 6 0.06 29.65611592840706 18.470773524762407 8.63126240183228 0 0 1
1841 78 6 0.06 28.35636419395662 18.00933382420169 6.293490112389481 0 0 1
2691 225 13 0.4238 28.146647988493715 18.52691034111011 3.935284265231785 0 0 1
2690 225 14 -0.8476 28.96466420529899 18.92337522147702 3.5185590305652004 0 0 1
371 17 3 0.35 26.906588444059995 19.91334204887567 5.1850839198481316 0 0 0
375 17 5 0.08 26.81240947917509 20.00446373324749 7.293983202645269 0 0 0
2689 225 13 0.4238 28.911314130960942 19.901173617378 3.7211893913770293 0 0 1
410 18 6 0.06 31.323659652882608 17.58281869404702 2.78351128637394 0 0 1
2067 87 6 0.06 31.82751561871845 23.976646677121575 4.833004523934145 0 0 1
1763 75 6 0.06 25.141344420091144 23.821347662740372 5.553397673917889 0 0 0
1759 75 4 -0.12 25.376473985044317 24.322614927022236 4.614495515640424 0 0 0
372 17 3 0.35 26.024323684894203 21.212718687323918 5.248520849033921 0 0 0
1762 75 4 -0.12 26.930705850052654 24.29900964205859 4.607582642354394 0 0 0
376 17 5 0.08 26.602155558116053 21.790321084211627 7.323687620388043 0 0 0
1766 75 6 0.06 27.25483273606176 24.429401174698548 3.5750944266168805 0 0 0
2059 87 4 -0.12 31.482154111289628 22.448238445235656 3.2957989982535434 0 0 1
379 17 6 0.06 29.204536068243435 20.28051609809229 6.969160460457697 0 0 0
385 17 6 0.06 30.877153456332753 20.821150584231127 8.709466493204971 0 0 0
369 17 1 -0.48 26.96312403633742 20.890288168924915 5.4350303199863035 0 0 0
370 17 2 0.2 27.12781331079141 20.954330259282028 6.862281860172996 0 0 0
382 17 6 0.06 28.20580541964603 22.29372267804551 9.030643759724766 0 0 0
381 17 6 0.06 28.4722133426257 20.526484576262874 9.274457419634263 0 0 0
2062 87 4 -0.12 31.571363768736173 22.91842601296924 4.7815532883436 0 0 1
373 17 3 0.35 27.697528417229908 21.368958593894018 4.9334130400643925 0 0 0
2057 87 11 -0.8 28.855740260789972 21.5851993484633 3.9736574725304274 0 0 1
378 17 6 0.06 28.938370103668618 22.010295058051916 6.6645630437784 0 0 0
374 17 4 -0.12 28.625037629179815 21.15541814349795 7.263812801998432 0 0 0
377 17 4 -0.12 28.81516796093113 21.428875391834538 8.768329951623507 0 0 0
380 17 4 -0.12 30.30899438346613 21.700520595307303 9.012774356976738 0 0 0
384 17 6 0.06 30.45876568902444 22.483891693122384 8.269813856113174 0 0 0
2066 87 6 0.06 30.66002192003746 22.82671362218554 5.372431355826142 0 0 1
1767 75 6 0.06 27.300665680335587 23.31157766149754 4.883625893470844 0 0 0
1773 75 6 0.06 29.35657808780113 24.53273375351384 6.1349148242401785 0 0 0
2055 87 9 0.7 28.986388434604148 22.083443818112453 2.791797838033091 0 0 1
2064 87 6 0.06 31.498762204753056 21.358724486167926 3.3236474438938757 0 0 1
1650 70 6 0.06 3.9818303359518024 32.0193251915158 3.6119251953827005 0 -1 0
365 16 6 0.06 5.029936738858364 25.039754670726033 3.030125416694733 0 0 0
357 16 4 -0.12 7.178505791535596 25.117519526693982 2.8678999860607464 0 0 0
360 16 4 -0.12 5.9035309269451925 24.970649025441755 3.678314906415003 0 0 0
366 16 8 0.13 6.609846993533739 25.45346901394574 5.54663172379264 0 0 0
368 16 8 0.13 5.002954494067614 25.96585922163582 5.479342307509121 0 0 0
363 16 7 -0.32 5.900793890065828 25.920325854332695 4.8629794763939245 0 0 0
823 36 7 -0.32 9.791421528936509 25.344306651571397 6.072734460489512 0 -1 1
1644 70 6 0.06 6.397603284204365 32.12721002886069 3.735967944013297 0 -1 0
1642 70 6 0.06 7.085475857351552 32.03641842712709 6.08522973805557 0 -1 0
659 29 4 -0.12 3.5841664982682397 30.101437607457456 6.032618174837042 1 -1 0
663 29 6 0.06 3.3682368516949452 31.016973023524145 5.481926518822801 1 -1 0
657 29 6 0.06 2.80501089173071 32.00852329806081 7.8194675709480865 1 -1 0
367 16 8 0.13 6.1874774173015865 26.90580081794159 4.49590492017991 0 0 0
660 29 6 0.06 4.513786707284981 29.47672596930762 7.925550907740511 1 -1 0
653 29 4 -0.12 3.2331939126605618 31.198958149022303 8.410530922421422 1 -1 0
667 29 8 0.13 5.403264460862642 29.995581620019024 4.934078088796387 1 -1 0
666 29 8 0.13 4.271397182071108 28.827108696747505 4.326060669164459 1 -1 0
662 29 7 -0.32 4.609949537753229 29.313867108334687 5.240686596909843 1 -1 0
665 29 8 0.13 5.11671666785336 28.558402811548298 5.841147087123801 1 -1 0
656 29 4 -0.12 4.150285804047335 30.404347692585024 7.483423039455334 1 -1 0
661 29 6 0.06 5.034902274982215 31.030558240786643 7.367638454809177 1 -1 0
2279 95 6 0.06 7.962352531094983 29.465271604210308 8.267513462505164 0 -1 0
2278 95 6 0.06 6.379719683417365 29.02685837848051 9.149787249752794 0 -1 0
2274 95 12 -0.18 7.43739038614367 29.284390134462726 9.205483976173111 0 -1 0
2275 95 6 0.06 7.557060161581352 31.538722820049347 9.34879555176896 0 -1 0
650 29 4 -0.12 3.9163493340041153 31.864886222239704 9.600843484121093 1 -1 0
1902 80 6 0.06 2.6005021608288725 27.500186864718152 8.23092627136678 1 0 0
1638 70 6 0.06 8.925445876776593 31.447197520164774 4.516995662281088 0 -1 0
821 36 6 0.06 8.963254481707073 27.02794828255823 4.179828787176557 0 -1 1
1636 70 6 0.06 9.253674395515674 31.208952288744168 6.920876209509457 0 -1 0
1631 70 10 -0.22 9.654060987842499 32.13238499879482 6.502480907523826 0 -1 0
824 36 6 0.06 8.20085579975136 26.626459741275745 6.464059542495422 0 -1 1
822 36 6 0.06 8.843681607413437 28.538190747832925 5.111861304400172 0 -1 1
817 36 4 -0.12 9.413458542997926 27.61872811235178 4.97756780529208 0 -1 1
825 36 6 0.06 9.79794001230448 27.26449957958697 7.039384156358867 0 -1 1
820 36 4 -0.12 9.263185072880518 26.739558172376437 6.247825136266748 0 -1 1
1904 80 6 0.06 2.68300689960986 25.830276637559766 8.12919784081386 1 0 0
1903 80 6 0.06 4.18479183301039 26.66866749423863 8.256458996167886 1 0 0
664 29 6 0.06 2.6506664942969094 29.556046981294923 6.171250188179796 1 -1 0
1899 80 12 -0.18 3.165041152137866 26.662982478355694 8.64138527560248 1 0 0
361 16 6 0.06 7.530362480030516 26.12857393174154 2.6628197944488887 0 0 0
2271 95 4 -0.12 7.728052698678658 30.6385386004206 9.939153027419884 0 -1 0
2277 95 6 0.06 7.892347840895542 28.510320011596097 9.823481724450897 0 -1 0
2273 95 6 0.06 9.945142095116651 30.747669640545702 9.713752319744295 0 -1 0
2532 172 13 0.4238 15.307784154812284 31.895833375660914 4.700911066542048 0 -1 1
807 36 2 0.2 12.382108275600407 28.885355893598366 2.598233120155156 0 -1 1
2530 172 13 0.4238 15.763917084478988 31.051883261028642 3.4542818835261153 0 -1 1
828 36 8 0.13 10.879535503907631 25.40342065848478 6.048126387643716 0 -1 1
548 24 6 0.06 14.703011309792222 25.526435448886165 7.638126369025698 0 0 0
86 4 6 0.06 11.17530644613774 25.42388690186625 9.598926373619555 0 0 0
503 22 6 0.06 13.967653943069887 25.04720332406889 3.016242063094405 0 0 1
492 22 4 -0.12 16.926868702174374 24.930377060015132 3.1970662651610637 0 0 1
498 22 4 -0.12 14.48837159060351 25.09592320812675 3.972574390602567 0 0 1
547 24 7 -0.32 16.409425617383004 25.532931381139267 8.710698584570157 0 0 0
551 24 8 0.13 17.116881260048984 24.917052314924373 9.265938669517467 0 0 0
550 24 8 0.13 15.827470110452754 26.028121143102062 9.488006116394738 0 0 0
2415 133 13 0.4238 13.79770941186523 31.968533893705246 7.578372983595983 0 -1 0
1630 70 9 0.7 11.188658930775464 32.15678253783254 6.3862335573797155 0 -1 0
819 36 6 0.06 11.254587729830524 26.901689637358267 4.233802926601301 0 -1 1
811 36 4 -0.12 11.01712227572964 28.795514555963546 3.269292182761693 0 -1 1
818 36 6 0.06 11.523166539330553 28.248179834413822 5.301366274269098 0 -1 1
814 36 4 -0.12 10.88353659052538 27.89318651329846 4.493315972436028 0 -1 1
2516 167 14 -0.8476 13.765481873501395 29.584148545367835 6.021757835715035 0 -1 1
2517 167 13 0.4238 13.067111602204333 30.225783837816635 6.338895739720333 0 -1 1
812 36 5 0.08 13.145385674169594 29.265330937254 3.2772902709369243 0 -1 1
816 36 6 0.06 10.74765064747981 29.780891951335725 3.64943485634607 0 -1 1
80 4 6 0.06 13.11702838377368 26.962167122988685 9.460698315467628 0 0 0
82 4 6 0.06 10.878342921452523 27.921448853888457 9.798495972370315 0 0 0
76 4 5 0.08 12.621631611453171 29.348829244667424 9.338000514191547 0 0 0
504 22 8 0.13 15.383245659342155 26.66592964826633 5.301427656277878 0 0 1
2414 133 14 -0.8476 14.758296944646219 32.22681503483609 7.681115553263245 0 -1 0
2515 167 13 0.4238 14.165186494413408 30.09230715349739 5.258864470502778 0 -1 1
2598 194 13 0.4238 14.917270496015322 29.00182241053455 6.951886643399557 0 -1 0
2596 194 13 0.4238 16.402014062200845 28.54762654799681 7.01768629852247 0 -1 0
2597 194 14 -0.8476 15.554601698835233 28.512869232435836 7.547476340342817 0 -1 0
501 22 7 -0.32 14.707730969362041 26.619258904179155 4.447265052282748 0 0 1
505 22 8 0.13 15.022987604116228 27.216077580334204 3.5913954703900552 0 0 1
2531 172 14 -0.8476 15.118551942739066 31.04081732060539 4.218071555614178 0 -1 1
506 22 8 0.13 13.801842412409096 27.166261352541415 4.708504901214246 0 0 1
552 24 8 0.13 16.923736320188844 26.256972030567592 8.078763740790675 0 0 0
73 4 3 0.35 14.86763710772039 28.998616644880393 9.120095527870056 0 0 0
497 22 6 0.06 17.097553254087366 25.780025055647997 3.8581692210877647 0 0 1
2609 198 14 -0.8476 11.09853301425796 32.26847060865486 2.821820323710619 0 0 0
815 36 6 0.06 10.168724631441417 28.518981446545656 2.643318618084578 0 -1 1
491 22 5 0.08 19.568395501335953 25.852096154980902 3.1415224701135696 0 0 1
1714 73 6 0.06 17.556719530621805 31.969904258470066 4.269396636862695 0 -1 0
2443 143 13 0.4238 20.777027612718207 25.634231181707655 9.959139376466743 0 0 0
1727 73 6 0.06 19.815139080659815 26.49098089472319 7.120462309621258 0 -1 0
1379 59 6 0.06 24.152542368932973 25.15738259310634 7.869326934146715 0 -1 0
1716 73 6 0.06 17.929945007763905 32.05597943622348 6.88130812892107 0 -1 0
1717 73 6 0.06 19.59878140216786 32.003194135435194 6.562499621872936 0 -1 0
1719 73 6 0.06 17.460642016981453 30.064607563721122 5.713997695204991 0 -1 0
1724 73 12 -0.18 19.942847815077087 27.566775049839283 7.000256506415358 0 -1 0
1720 73 6 0.06 18.20501141968729 29.78754030489033 7.124209894153427 0 -1 0
1712 73 4 -0.12 18.64531270927713 31.66157356990395 6.159653669834339 0 -1 0
1715 73 4 -0.12 18.44742864184918 30.21575145122173 6.151604550312999 0 -1 0
1718 73 4 -0.12 19.59454138385101 29.433557860481383 5.398898847324766 0 -1 0
1729 73 6 0.06 19.3550235028438 28.034700381641656 7.789940335024571 0 -1 0
1728 73 6 0.06 20.989064232838697 27.851869489310882 7.1109110656628 0 -1 0
1726 73 6 0.06 18.453943368188177 27.499861116856803 5.557013665963005 0 -1 0
1721 73 4 -0.12 19.444617033699984 27.941482349197706 5.664848660181219 0 -1 0
1723 73 6 0.06 19.493987919155007 29.733888956869034 4.35593085143935 0 -1 0
1722 73 6 0.06 20.48632866717019 29.880576552273393 5.838195731465284 0 -1 0
1725 73 6 0.06 20.012107275311923 27.402568486478494 4.9061532799559195 0 -1 0
180 8 6 0.06 19.925318577484717 30.45629779936895 9.173726013539913 0 0 0
156 7 7 -0.32 24.374280711592206 31.44294497221716 8.978780322671359 0 -1 0
159 7 8 0.13 23.84486381460979 30.74894923215865 8.325955936941131 0 -1 0
104 5 4 -0.12 22.866485526300103 31.62619207491909 4.22505729609971 0 -1 0
111 5 6 0.06 22.500340380627637 30.63379014234315 6.1381758248332545 0 -1 0
109 5 6 0.06 21.91496310143563 31.43195849754702 3.7301123431591385 0 -1 0
113 5 8 0.13 22.809618480242847 28.509780995451937 5.4562322689534675 0 -1 0
107 5 4 -0.12 23.170721845168792 30.491725493594764 5.290532980800367 0 -1 0
110 5 7 -0.32 22.880752228592158 29.173679890082884 4.594681167783406 0 -1 0
1377 59 6 0.06 22.665572546187015 25.70421835116496 7.28960194613199 0 -1 0
1374 59 12 -0.18 23.686424916371795 26.049981997585036 7.452082549744789 0 -1 0
108 5 6 0.06 23.465604268302467 31.485130786663408 3.3254737590085686 0 -1 0
1378 59 6 0.06 24.186734558652862 26.215979785666182 6.498024357253879 0 -1 0
1371 59 4 -0.12 23.73609491297654 27.20866802164085 8.367771672450148 0 -1 0
1376 59 6 0.06 23.29068810070727 26.77773964284915 9.264435331985542 0 -1 0
1375 59 6 0.06 23.025786307437983 27.993505869819273 8.107803801074827 0 -1 0
115 5 8 0.13 23.702745985447276 28.878732711817126 3.942435443391742 0 -1 0
112 5 6 0.06 24.132729165789208 30.587612809394756 5.79396083759372 0 -1 0
114 5 8 0.13 21.9247305811562 29.03076042735587 4.091005974119173 0 -1 0
1764 75 6 0.06 25.056230153206698 25.349659878684477 4.789751307192102 0 0 0
1769 75 6 0.06 27.119008375649027 25.29992372655805 6.503385000509288 0 0 0
1768 75 4 -0.12 29.105934652384533 25.371096117988372 5.484977528736532 0 0 0
1765 75 4 -0.12 27.564602798227476 25.427549637523228 5.516851019560269 0 0 0
1772 75 6 0.06 29.42293191515254 25.093433616180402 4.479737105251431 0 0 0
1777 75 6 0.06 31.210065645961006 26.784302743965092 3.9123271772986508 0 0 0
1770 75 6 0.06 27.148679098206454 26.40940359085469 5.290881229112736 0 0 0
160 7 8 0.13 25.424600266392403 31.4756614689512 8.689210822908418 0 -1 0
1373 59 6 0.06 25.674788367185002 27.1064660668404 9.378481468848364 0 -1 0
1368 59 4 -0.12 25.108846315374773 27.778108960990867 8.732960408301896 0 -1 0
1365 59 4 -0.12 25.93412623286659 28.488817059842805 7.680413944342402 0 -1 0
1370 59 6 0.06 25.291134696425704 29.215810990700852 7.184295283992444 0 -1 0
1369 59 6 0.06 26.169534202680886 27.714032673164375 6.950767240141865 0 -1 0
1372 59 6 0.06 24.881567140172546 28.581736020914306 9.43340295509224 0 -1 0
1355 59 9 0.7 29.345638467502486 31.851744895192404 8.264119897629755 0 -1 0
1779 75 6 0.06 31.85200707717459 25.90623064571153 5.374650639524502 0 0 0
1775 75 6 0.06 29.88943684227765 26.96979684415933 6.71200079113943 0 0 0
658 29 6 0.06 32.23074339921184 30.45693130545894 8.706996944527948 0 -1 0
1364 59 6 0.06 27.209939888586298 30.813580467554686 6.877111956172111 0 -1 0
1774 75 12 -0.18 31.23659603054403 26.724313071714086 5.00034803432813 0 0 0
1778 75 6 0.06 31.727361469820885 27.695029067582503 5.070716746314506 0 0 0
1366 59 6 0.06 27.01199407622357 29.890311261350618 9.01944979629109 0 -1 0
1362 59 4 -0.12 27.234110149033395 29.27330782875017 8.148781534656267 0 -1 0
1367 59 6 0.06 27.98734945194224 28.581221182246733 8.52526345851136 0 -1 0
1363 59 6 0.06 27.954703174164717 29.309533278934826 6.162573104957777 0 -1 0
1771 75 4 -0.12 29.88558439409426 26.725139999347792 5.64982366682775 0 0 0
1776 75 6 0.06 29.30742200907333 27.543406562173654 5.2205683022384415 0 0 0
1361 59 6 0.06 29.696123154656828 30.864873614387612 6.434846734579361 0 -1 0
1359 59 4 -0.12 27.89768753332166 29.980106120309955 7.019995588576118 0 -1 0
1356 59 10 -0.22 29.23620739700846 30.623009193803334 7.393007015309833 0 -1 0
1360 59 6 0.06 29.895021144883803 29.892238311680607 7.862081004024859 0 -1 0
1357 59 11 -0.8 29.493488003339046 31.69080599519138 9.493108565443453 0 -1 0
1276 55 6 0.06 31.626085315335615 30.82180578164471 2.89405883751883 0 -1 0
1895 80 6 0.06 30.31309840015922 28.173556219439682 9.806332776583552 0 0 0
1897 80 6 0.06 30.612716055194788 25.958044744360837 9.642765528350996 0 0 0
1275 55 6 0.06 31.27125735755528 29.097802707720515 2.556414969279732 0 -1 0
1750 74 6 0.06 5.968719244391012 8.266552102734124 10.531351171704763 0 0 0
474 21 6 0.06 9.903336022486384 7.384177921322649 10.139632296848951 0 0 0
2595 193 13 0.4238 8.556438021051981 2.630923945206663 17.364738771576423 1 1 0
1496 64 4 -0.12 4.8658068078423415 6.308265393897981 16.874839014922248 0 0 0
1501 64 6 0.06 4.06956557995619 5.5736490887409005 16.99496727519611 0 0 0
1500 64 6 0.06 5.654886180928946 5.937366673979026 16.22071372569841 0 0 0
1747 74 6 0.06 3.2887138282626935 7.964355393777013 10.206888611195572 0 0 0
1148 50 6 0.06 7.231464380366742 6.0425600734426705 10.905259445914732 0 1 0
1143 50 4 -0.12 7.113940228021491 5.033027455472542 10.511401636436842 0 1 0
1141 50 6 0.06 7.981060581901545 3.8808743913543826 12.95132941207385 0 1 0
1131 50 10 -0.22 6.966499547392224 3.4728609140947944 15.360163485068131 0 1 0
1140 50 4 -0.12 6.306387787682774 4.290252025610779 11.570078516461322 0 1 0
1145 50 6 0.06 6.151135702576726 3.28183842279397 11.186554283953107 0 1 0
1137 50 4 -0.12 6.95365987883938 4.241894440989205 12.998279697519198 0 1 0
1142 50 6 0.06 7.2129935956668305 5.236956457492077 13.359789990852985 0 1 0
1136 50 6 0.06 7.46725265861013 4.410360430654411 15.601892675448765 0 1 0
1147 50 6 0.06 8.130660858364738 4.640185717413077 10.504577246408719 0 1 0
1134 50 4 -0.12 6.136669258920664 3.465943380412779 14.102314245697183 0 1 0
1742 74 6 0.06 3.3530140452262276 5.172772054883712 12.692536358741629 0 0 0
1743 74 4 -0.12 3.875753527910449 7.596593160232676 11.048451097657656 0 0 0
1748 74 6 0.06 4.289889487649912 6.635343403203951 10.744177650757555 0 0 0
1144 50 6 0.06 5.422634672041884 4.885973140055507 11.798527233524622 0 1 0
1138 50 6 0.06 5.2341010563016255 4.070864698790576 14.189106263737393 0 1 0
1740 74 4 -0.12 3.1015985902304903 7.260245051131619 12.34119618506056 0 0 0
1744 74 6 0.06 3.5604087601808123 7.357153209773097 13.32516470421838 0 0 0
1497 64 6 0.06 3.718182038270399 7.222795071575089 15.446302644584337 0 0 0
1493 64 4 -0.12 4.302330697106903 7.576678162878719 16.295790296095515 0 0 0
1751 74 6 0.06 5.412896413818816 8.696725265192992 12.102607451872531 0 0 0
1746 74 4 -0.12 5.087458731511263 8.622522762476695 11.064977287294859 0 0 0
651 29 5 0.08 3.3372432610352427 3.3038548499610707 11.242363927843131 1 0 0
646 29 2 0.2 2.8500018527543434 2.6902647890597295 10.48460729746941 1 0 0
479 21 6 0.06 8.665904310682798 8.178892580816523 12.635958033017202 0 0 0
473 21 6 0.06 9.810306157830233 6.266366880981353 11.504245657968998 0 0 0
2253 94 6 0.06 8.676773832195053 6.713061653882981 15.580723444137414 0 0 0
2252 94 6 0.06 9.37573065554326 5.180410553516625 15.821161133874945 0 0 0
475 21 4 -0.12 9.478391316983199 8.860464459521518 12.384131393534899 0 0 0
1498 64 6 0.06 3.503587981936824 7.989966064423189 16.91165978388991 0 0 0
2249 94 12 -0.18 9.58798506243491 6.151664992072691 15.37427759369465 0 0 0
2254 94 6 0.06 9.720540487260054 6.134350128742225 14.292509935596831 0 0 0
1495 64 6 0.06 5.835883856824784 8.426271779995114 15.063553250985459 0 0 0
1490 64 4 -0.12 5.182655451850578 8.72777008617772 15.882383779588228 0 0 0
1494 64 6 0.06 5.767942105531278 9.060222328667173 16.739709302971683 0 0 0
1491 64 6 0.06 3.661201285493183 9.669886727005768 14.543994383016592 0 0 0
1487 64 4 -0.12 4.294833937749484 9.933549775274704 15.390802193038342 0 0 0
480 21 6 0.06 9.090931910956519 9.39744675869872 11.51832699917296 0 0 0
478 21 7 -0.32 9.577044323659662 9.778442213046027 13.572219197728302 0 0 0
1135 50 6 0.06 7.8330549946348915 2.841375892031324 15.164203449015204 0 1 0
1130 50 9 0.7 6.244029248600038 3.0246033166033905 16.590344030773046 0 1 0
1133 50 11 -0.8 5.030770719913337 2.7944257668117727 16.50773392754884 0 1 0
2269 95 6 0.06 9.15298114844769 2.8785060104285174 11.260774399118857 0 0 0
2243 94 4 -0.12 10.849714545816973 7.199572006599469 17.353640587539406 0 0 0
2251 94 6 0.06 11.084658926731063 7.703202069833762 15.229508885577292 0 0 0
465 21 3 0.35 13.047425451298526 4.049758893456979 10.116453164053816 0 0 0
2246 94 4 -0.12 10.83712649450401 6.8465579777071675 15.856390551442946 0 0 0
835 37 5 0.08 14.233736859491074 5.569070324226985 15.624663293063595 0 0 0
466 21 4 -0.12 11.704022858700437 6.301914274034634 10.4435780462457 0 0 0
469 21 4 -0.12 10.461615087986214 6.962116243452785 10.97526405691764 0 0 0
471 21 6 0.06 12.268154854778347 5.8989447368772305 11.28468604459349 0 0 0
2263 95 6 0.06 11.041948060213274 4.0853293960298664 12.225463756527718 0 0 0
470 21 6 0.06 12.431714659678414 6.970952362884444 9.984290870279395 0 0 0
2258 95 11 -0.8 13.548241592277716 3.4989554337536637 11.506519151773086 0 0 0
2255 95 9 0.7 13.733646088077531 3.4534914893368085 12.753167423940218 0 0 0
477 21 6 0.06 11.267038765242201 7.598272090173771 12.795377689519308 0 0 0
472 21 4 -0.12 10.778951265243855 8.108087707251961 11.964744998425877 0 0 0
2260 95 6 0.06 12.432199086644491 4.176310302359309 14.186871709704242 0 0 0
2250 94 6 0.06 11.620289730058657 6.099812685729289 15.725551517999357 0 0 0
1427 61 6 0.06 13.691609080774148 9.440633153169692 11.792705078629387 0 0 0
476 21 6 0.06 11.591065736870524 8.776987449548013 11.679902524804234 0 0 0
1424 61 12 -0.18 14.373870189498122 9.38143425596672 12.640707017698213 0 0 0
1426 61 6 0.06 12.959842508052212 9.276546406441451 14.274601761760945 0 0 0
2264 95 6 0.06 10.386214676938547 3.2198463102486503 13.674517708522323 0 0 0
2259 95 4 -0.12 11.153082147777276 3.2364393229249644 12.900094679260015 0 0 0
2256 95 10 -0.22 12.463488378386955 3.269464313110227 13.582931840528277 0 0 0
830 37 2 0.2 15.069961094966061 5.160605451829165 16.19209391119106 0 0 0
829 37 1 -0.48 15.056121246316719 3.7187174328618013 15.971603296921185 0 0 0
2257 95 11 -0.8 14.87779190440408 3.3690050619322363 13.253396836434407 0 0 0
836 37 5 0.08 16.027524169237203 5.595069057728692 15.905028854508423 0 0 0
2822 269 14 -0.8476 17.14780135402743 4.057322280270802 12.531755209376461 0 0 0
2823 269 13 0.4238 16.177697765169377 3.825119835252703 12.602284929508889 0 0 0
1429 61 6 0.06 14.771632025756356 8.381104723753673 12.811640835894831 0 0 0
831 37 3 0.35 15.097523615279455 3.5702952035804847 14.973429900039077 0 0 0
832 37 3 0.35 15.85660424968402 3.2973039548533176 16.420748015036217 0 0 0
1421 61 4 -0.12 13.746256620533616 9.957960462512627 13.950071703533872 0 0 0
1418 61 4 -0.12 14.742768732667631 9.909325029433731 15.131917743650362 0 0 0
482 21 8 0.13 9.97552738543475 9.297309175191835 14.465423685051128 0 0 0
1422 61 6 0.06 14.912453764696782 8.852434424756927 15.33754187675083 0 0 0
2511 165 13 0.4238 11.660628874323343 3.070167060203109 16.23016883827467 0 0 0
2510 165 14 -0.8476 12.55834164000498 3.1728185855583613 16.658617002259383 0 0 0
833 37 3 0.35 14.124914525727165 3.4182913632010696 16.221986705718443 0 0 0
140 7 2 0.2 19.535077324820524 5.802635122651774 9.982471250906382 0 0 0
1160 51 6 0.06 19.94935146087493 3.6859539562170682 16.09768420322385 0 1 0
1164 51 6 0.06 18.281870055949614 5.520592072877929 16.877160608529458 0 1 0
139 7 1 -0.48 18.065571831526825 5.6968580549903995 10.19636453695216 0 0 0
143 7 3 0.35 17.799049877666675 5.3137816583412105 11.092083097746507 0 0 0
2821 269 13 0.4238 17.676560312465455 3.4560857001182907 13.130856079474466 0 0 0
145 7 5 0.08 20.03851379317097 6.471071157454476 10.680924562130167 0 0 0
149 7 6 0.06 20.195144381346278 4.064871463814045 10.975756444409019 0 0 0
1679 71 6 0.06 19.139346134878355 5.949014276345231 13.848410833316182 0 0 0
1677 71 6 0.06 18.52647324989094 6.850152087998295 12.45154497556072 0 0 0
1678 71 6 0.06 20.227046404710514 7.202528743918104 13.163524611980145 0 0 0
1674 71 12 -0.18 19.191453531346813 6.897524013599265 13.313895931034784 0 0 0
964 42 8 0.13 23.164015421558542 6.28869761703209 15.446928225603113 0 0 0
961 42 7 -0.32 22.788822260246867 5.27884962533771 15.281009122744134 0 0 0
963 42 6 0.06 22.792843148620804 5.057998566152653 13.090065026751507 0 0 0
966 42 8 0.13 23.151397756068466 4.6564301584000205 16.09907090989735 0 0 0
958 42 4 -0.12 23.402340741963656 4.773346735673826 13.947723486474077 0 0 0
965 42 8 0.13 21.701378783066776 5.205963378234768 15.265315263802568 0 0 0
962 42 6 0.06 23.2527528397755 3.6966782170533663 13.867098475583692 0 0 0
955 42 4 -0.12 24.822671668477945 5.012643775068346 13.78832968637486 0 0 0
957 42 6 0.06 24.787376841416876 4.347536743976293 11.627633811495825 0 0 0
1672 71 6 0.06 17.550963864741096 9.099117681220662 12.61839783367399 0 0 0
1675 71 6 0.06 17.724398584972292 7.654997820717164 14.773418817825426 0 0 0
1676 71 6 0.06 19.34974884400274 8.312682304030147 14.93141974298018 0 0 0
1670 71 6 0.06 20.18163061391573 9.367978544831498 12.594605002605862 0 0 0
1671 71 4 -0.12 18.58341715542809 8.023060463709513 14.212429516164084 0 0 0
1673 71 6 0.06 17.620726021365947 9.91864141363181 14.181235996485528 0 0 0
1668 71 4 -0.12 18.192145375895784 9.320225542350872 13.47167950845429 0 0 0
1603 68 6 0.06 23.040278256442708 8.697883408316699 16.056454156355436 0 0 0
1599 68 12 -0.18 22.34850467959631 8.92511695397657 15.24533993161956 0 0 0
1604 68 6 0.06 21.697972048601354 9.616533888086668 15.780916270099535 0 0 0
1602 68 6 0.06 21.81579542110167 7.981186658084618 15.129977648368587 0 0 0
1598 68 6 0.06 23.02694901621821 7.647318559713712 12.838350399838678 0 0 0
1593 68 4 -0.12 23.68684700753105 8.47753561098161 13.090077092416516 0 0 0
1594 68 6 0.06 23.70163638008451 9.514219308041916 11.154299383757937 0 0 0
1596 68 4 -0.12 22.86726605579591 9.469276500150158 13.918304753940296 0 0 0
1597 68 6 0.06 24.427996504019866 8.002215627992609 13.732619199970584 0 0 0
1590 68 4 -0.12 24.39052907936804 9.17467701792902 11.927752611226904 0 0 0
1156 51 10 -0.22 19.425603093656928 3.550633902520846 17.043976008021424 0 1 0
423 19 4 -0.12 27.910573964477024 6.350354816978985 16.61509369089181 0 0 0
427 19 6 0.06 27.078073659754377 5.918953880022626 16.059280334837304 0 0 0
426 19 4 -0.12 28.63856418644459 5.1209827146426194 17.23923164100981 0 0 0
1741 74 6 0.06 31.913133158571405 5.595241904007134 11.448138452861299 -1 0 0
1737 74 4 -0.12 32.25972137966967 5.834864180100936 12.453399513828076 -1 0 0
1735 74 6 0.06 32.22782196445291 4.454721641060186 14.83206725069966 -1 0 0
1745 74 6 0.06 32.00890595642478 7.958851688358231 12.433389016922245 -1 0 0
959 42 6 0.06 25.001874216478353 6.083446445287279 13.691582019743109 0 0 0
960 42 6 0.06 25.33856845821481 4.697067939756305 14.695167278257506 0 0 0
956 42 6 0.06 25.210981261720693 3.3216630914244547 12.855503427037197 0 0 0
952 42 4 -0.12 25.36488227374966 4.357183827796373 12.552018181212535 0 0 0
420 19 4 -0.12 28.58581917169555 7.377304337860802 15.688987710531212 0 0 0
1592 68 6 0.06 25.1973645892067 7.346396976926287 11.126687082281082 0 0 0
1739 74 6 0.06 30.18612326204419 5.776747347252768 12.977442436120137 -1 0 0
953 42 6 0.06 26.727082239781492 5.668845540714985 11.842668275263936 0 0 0
949 42 4 -0.12 26.77413211783805 4.636302960976451 12.188694507755258 0 0 0
951 42 5 0.08 26.768776065067957 3.922435315472305 10.206151863299176 0 0 0
1582 68 11 -0.8 28.710847774219157 6.5434802818464695 9.983542401739022 0 0 0
1734 74 4 -0.12 31.154108334173955 5.791267700746486 13.478327722806606 -1 0 0
1731 74 10 -0.22 31.232348691667752 4.529122107429556 14.394357784988646 -1 0 0
946 42 3 0.35 29.091016750188555 3.4029094761255587 10.168134403293362 0 0 0
1736 74 6 0.06 30.704792156608807 4.73364912121921 15.325993342319402 -1 0 0
954 42 6 0.06 27.309724895475167 4.666238505960754 13.137555041862596 0 0 0
947 42 3 0.35 28.688627512411788 5.0197088420012275 10.460526434482244 0 0 0
1738 74 6 0.06 31.1004820764121 6.649865559672943 14.147675217493125 -1 0 0
945 42 2 0.2 27.332359519307285 3.7460526484267858 11.122314985258575 0 0 0
1730 74 9 0.7 30.770609785893686 3.283817544268639 13.861783977670285 -1 0 0
944 42 1 -0.48 28.694346358719546 4.0727229972449095 10.81163728886103 0 0 0
948 42 3 0.35 29.326982005254074 4.037228840701188 11.598152205997886 0 0 0
2561 182 14 -0.8476 29.475396810762426 8.322243380267139 12.24526237357386 0 0 0
1733 74 11 -0.8 30.34079473403964 3.1847534285104135 12.713111826472474 -1 0 0
2562 182 13 0.4238 29.15010197586726 7.758326677378437 11.486200182441234 0 0 0
425 19 6 0.06 28.9941490792995 6.8006645741694935 14.859020638112066 0 0 0
421 19 5 0.08 26.764567445333167 8.07074258808414 14.715497268475557 0 0 0
950 42 5 0.08 27.128922698943978 2.7371617343619854 11.481264297039457 0 0 0
295 13 6 0.06 25.164518825691836 7.347154113399372 17.232949448319815 0 1 0
1587 68 4 -0.12 25.49280483299561 8.390949489025388 11.225262557079477 0 0 0
1591 68 6 0.06 26.29110466695339 8.49073483933314 11.960689147159353 0 0 0
2560 182 13 0.4238 30.46180996938406 8.226445335607355 12.378698118356416 0 0 0
422 19 5 0.08 27.26505378337956 9.193661782501628 15.927102747835146 0 0 0
419 19 3 0.35 28.384211790370895 8.995013587467326 13.300409710875165 0 0 0
416 19 2 0.2 27.650771201191237 8.471285220838116 15.20773761947885 0 0 0
1586 68 6 0.06 28.159059535461214 8.936824023150285 10.236298395505207 0 0 0
415 19 1 -0.48 28.18719897348607 9.395788569312028 14.20631189705317 0 0 0
424 19 6 0.06 29.4889114599414 7.851735641719518 16.072955528296376 0 0 0
418 19 3 0.35 28.98207300962181 9.934360513027766 14.51969469018618 0 0 0
430 19 6 0.06 28.798345030189683 4.296786965362711 16.544060102362913 0 0 0
433 19 6 0.06 30.625782221398804 6.078761296002205 17.39144050578298 0 0 0
2718 234 13 0.4238 9.029366358780074 13.232482636771808 10.09816073689218 0 0 0
1870 79 6 0.06 9.935908475926887 11.409233871376603 10.188462784470971 0 0 0
1686 72 6 0.06 6.014225555471758 13.696399169875773 10.522476715273186 0 0 0
1684 72 4 -0.12 4.297954612999633 14.97348476855923 10.13389661831162 0 0 0
457 20 6 0.06 9.790522416363629 10.334157632885764 17.19606801018361 0 0 0
1754 74 6 0.06 3.8410764193481644 10.45173939181364 11.499610131976969 0 0 0
1749 74 12 -0.18 4.655339911921869 10.153607910444926 10.839167395139967 0 0 0
1752 74 6 0.06 5.523102451786948 10.784782425049691 11.030737057118671 0 0 0
1489 64 6 0.06 5.5641126996327435 10.567116850715715 13.831408421017493 0 0 0
481 21 8 0.13 8.677167834829318 10.342658448497769 13.81711584485819 0 0 0
1492 64 6 0.06 3.690883393429809 10.349147021424258 16.197409111563992 0 0 0
1488 64 6 0.06 6.05822925367747 11.270109103570801 15.335811641042069 0 0 0
1480 64 9 0.7 4.209832662530111 13.268928711216876 15.389188577545672 0 0 0
1486 64 6 0.06 3.4841890951617027 12.075434643291164 13.784098617649477 0 0 0
1481 64 10 -0.22 4.434563728499059 12.331493121093102 14.252408504829472 0 0 0
1485 64 6 0.06 5.174202700067594 12.723311748701825 13.554193299741664 0 0 0
1483 64 11 -0.8 3.445546327943875 14.176838759088177 15.15000958163443 0 0 0
1484 64 4 -0.12 5.178359153725484 11.03665442419226 14.736295543489645 0 0 0
1482 64 11 -0.8 4.774616878381563 13.172388261600679 16.461436623282005 0 0 0
445 20 5 0.08 7.620865500356643 13.650362997234595 14.331409038534808 0 0 0
2716 234 13 0.4238 8.436151230654028 14.70430947415627 10.618996516903078 0 0 0
447 20 6 0.06 8.713439655154257 13.998944711944 16.307814336939103 0 0 0
2717 234 14 -0.8476 9.209865986981296 14.20777184568105 10.225534893639317 0 0 0
451 20 6 0.06 9.431069342256183 11.81129887884904 15.298921487823224 0 0 0
443 20 4 -0.12 9.417107641535406 14.040702116646393 15.476430132557983 0 0 0
1681 72 10 -0.22 5.346320751346973 14.332344689770704 11.10348316616919 0 0 0
1685 72 6 0.06 4.877760691991352 13.663280460757361 11.82521484685813 0 0 0
2592 192 13 0.4238 3.2077596834712017 14.785712285341097 16.69800409373198 1 0 0
2344 110 13 0.4238 5.616651488038279 14.775557576554919 16.620404614003974 1 0 0
1688 72 6 0.06 3.6186518725596826 15.695759855425973 10.586620152872515 0 0 0
2345 110 14 -0.8476 6.398862149086685 15.39856211256768 16.62297031942946 1 0 0
2677 221 13 0.4238 3.317788158756703 15.632323444346543 14.499368586853407 0 0 0
1680 72 9 0.7 6.175570474293147 15.368401585197603 11.757513112061725 0 0 0
1682 72 11 -0.8 5.636356416457257 16.091905923330188 12.590547018913888 0 0 0
2679 221 13 0.4238 4.284678317217596 16.26989240221848 13.514271819693802 0 0 0
2678 221 14 -0.8476 3.3493220987912977 16.389640136627904 13.847085603084578 0 0 0
1683 72 11 -0.8 7.415225647910549 15.42573835635102 11.629511994871693 0 0 0
441 20 3 0.35 7.43483260971405 15.677988459331942 14.892760759830727 0 0 0
440 20 3 0.35 7.8456199962130695 15.802944511408084 13.24827346427013 0 0 0
438 20 1 -0.48 8.154053353200528 15.598784626191131 14.188103778947655 0 0 0
2658 214 13 0.4238 8.526868027309751 16.775904074457152 11.438953520729626 0 0 0
442 20 3 0.35 8.96075710371659 16.15833386449057 14.425226349605914 0 0 0
2442 142 13 0.4238 5.669759709969322 16.988394566926686 16.731937291164204 0 0 0
439 20 2 0.2 8.56014644460214 14.189745173707173 14.209301612579525 0 0 0
444 20 5 0.08 9.023752503432366 13.827638379169272 13.291674179504753 0 0 0
2591 192 14 -0.8476 2.7091665300420926 15.382327401767865 17.326852241762154 1 0 0
803 35 8 0.13 15.76255929209896 14.997643071911888 17.366895314422806 0 0 0
2765 250 14 -0.8476 16.301598298187262 13.44705942020249 10.62235737525191 0 0 0
2766 250 13 0.4238 16.30442840761839 14.439721776173847 10.743215851594595 0 0 0
456 20 6 0.06 11.40589751951182 10.541956062494396 16.545261625842127 0 0 0
1428 61 6 0.06 15.217477955969775 9.988576943339261 12.312384456198092 0 0 0
1425 61 6 0.06 13.350911917279122 10.956956986776786 13.766222367039408 0 0 0
483 21 8 0.13 10.365893509385721 10.510624934711744 13.399831694133843 0 0 0
2482 156 13 0.4238 14.488579149893281 12.740736881638528 13.133056313624387 0 0 0
2483 156 14 -0.8476 14.063161897603537 13.442365983440364 12.561453238153678 0 0 0
2484 156 13 0.4238 14.607595639332306 13.571400301841278 11.732637405106683 0 0 0
446 20 4 -0.12 10.092633044472587 12.650500538942033 15.513784417621741 0 0 0
450 20 6 0.06 10.895929783884636 12.462750397508373 14.801354582481641 0 0 0
2838 274 13 0.4238 12.375680450576102 14.098027019904997 12.092233954051217 0 0 0
2836 274 13 0.4238 11.082997058240709 14.37177219477088 11.158164968898113 0 0 0
1415 61 4 -0.12 14.35107277905003 10.815918759927118 16.265071149642388 0 0 0
1419 61 6 0.06 13.848342898367946 11.738810386736695 15.975889980949397 0 0 0
1423 61 6 0.06 15.710557548873222 10.244222625223376 14.758661208356868 0 0 0
1417 61 6 0.06 16.14638029923093 11.877638601914885 16.803392954755132 0 0 0
580 26 3 0.35 10.39804462069959 17.055779240051955 10.16771141843875 0 0 0
448 20 6 0.06 10.17513659736002 14.81124653355077 15.616948618124685 0 0 0
2837 274 14 -0.8476 11.654507879087408 14.75814054020719 11.882104565341422 0 0 0
785 35 3 0.35 11.726324861413222 16.29998327025803 12.533666335093997 0 0 0
796 35 6 0.06 14.263347834068004 15.904258902948749 16.111190598020794 0 0 0
784 35 2 0.2 13.247459834110392 16.605639961751812 13.685318199939573 0 0 0
790 35 5 0.08 13.036567620177076 15.604499540310524 14.061262820725522 0 0 0
783 35 1 -0.48 12.035786971546745 17.1364923398793 13.00756414528545 0 0 0
789 35 5 0.08 14.08644119432178 16.437587517444314 13.010069603833655 0 0 0
786 35 3 0.35 11.228856295565489 17.30730973314256 13.59046887202047 0 0 0
791 35 4 -0.12 14.698086207788286 16.828637733440445 15.730903374950566 0 0 0
1982 84 11 -0.8 16.393464778193856 15.972146802273546 10.514081293063843 0 0 0
1986 84 6 0.06 16.519062499919592 15.742977795544817 13.223248506652302 0 0 0
1980 84 9 0.7 16.914426691772775 16.65826234571168 11.390842184267807 0 0 0
802 35 6 0.06 17.34424219344107 16.85081897319799 16.66723536938864 0 0 0
795 35 6 0.06 15.554200391774481 16.520206991921718 15.13087752017739 0 0 0
1420 61 6 0.06 13.515383933843806 10.302875072034574 16.740993777044068 0 0 0
1412 61 4 -0.12 15.490446290102474 11.119146543487785 17.230631037915565 0 0 0
454 20 6 0.06 11.22722851097544 13.100878030685285 17.337427768604037 0 0 0
449 20 4 -0.12 10.505282531543159 12.355969459253414 17.002767868241566 0 0 0
452 20 4 -0.12 10.725727073632244 10.878346865103607 17.327758530910984 0 0 0
1075 47 6 0.06 24.5249710851188 13.45714664651897 10.07724474234157 0 0 0
1304 56 6 0.06 19.748339612294043 13.439306901514849 17.301931718932092 0 0 0
1923 81 6 0.06 23.845516908491224 16.479208467911874 17.098151988127064 0 0 0
1656 71 10 -0.22 19.913684146251843 13.20051969404126 10.494432241202851 0 0 0
1669 71 6 0.06 19.845705623666273 10.639237806411373 13.77235887058459 0 0 0
1665 71 4 -0.12 19.4312841393476 10.083283613716521 12.931370287260973 0 0 0
1659 71 4 -0.12 20.298044087022035 11.8779665750355 11.29821792371055 0 0 0
1662 71 4 -0.12 19.097986406001823 11.101710388211378 11.870771394555451 0 0 0
1667 71 6 0.06 18.43702223977889 11.885843682770606 12.240031958837307 0 0 0
1666 71 6 0.06 18.64357033916184 10.53874021186373 11.055502931714862 0 0 0
1600 68 6 0.06 22.102757168861316 10.028700048354533 13.379172609991056 0 0 0
1601 68 6 0.06 23.57268933009879 10.20365059658936 14.307103847342526 0 0 0
1661 71 6 0.06 20.722870370468105 13.915626285534985 10.346336840258008 0 0 0
1300 56 6 0.06 19.820737055044727 12.718695863411341 14.42882562428075 0 0 0
1664 71 6 0.06 20.814285153390504 11.188012817128552 10.63072187117914 0 0 0
1296 56 4 -0.12 20.21489513965523 13.322510250022317 15.246223700490361 0 0 0
1663 71 6 0.06 20.857031758342007 12.189879619312322 12.180450942472397 0 0 0
1294 56 6 0.06 22.37701235490431 13.468923553244164 13.296505321425624 0 0 0
1290 56 4 -0.12 22.592537950391115 13.807353102349234 14.309967793522272 0 0 0
1293 56 4 -0.12 21.741836124108026 13.22295350982533 15.433516578827694 0 0 0
1298 56 6 0.06 21.994064536223647 12.168226089195933 15.5431656210858 0 0 0
1292 56 6 0.06 24.228807014501047 12.418177678944575 14.868872631596048 0 0 0
1287 56 4 -0.12 24.1349651934295 13.50060621133279 14.781498272853087 0 0 0
1295 56 6 0.06 22.38013940498365 14.87434314882187 14.242802984627055 0 0 0
1301 56 6 0.06 19.988592792671085 14.33850687159401 14.922757850696787 0 0 0
1595 68 6 0.06 24.804041262368703 10.110655317116423 12.3033113075023 0 0 0
1302 56 6 0.06 18.391865557667195 13.184635703317834 16.24894164321755 0 0 0
1660 71 6 0.06 19.13290557428948 13.717831013422943 11.051985683476266 0 0 0
1299 56 12 -0.18 19.433709866386742 12.905066399829725 16.405445613472054 0 0 0
1981 84 10 -0.22 17.421516696307435 15.857020385339123 12.622696493382106 0 0 0
1985 84 6 0.06 17.803914291037433 14.868456968093067 12.368518460602104 0 0 0
1988 84 6 0.06 18.517461910508395 16.092978970570197 14.31365276385927 0 0 0
1992 84 6 0.06 20.154356732025153 15.503261865660917 12.323602953262448 0 0 0
1987 84 4 -0.12 19.852395701518812 16.512709916328784 12.602755563576942 0 0 0
1991 84 6 0.06 19.73467080297596 16.86555651592029 11.57819118108363 0 0 0
1984 84 4 -0.12 18.525184157523924 16.583195992901366 13.340143815442266 0 0 0
1994 84 6 0.06 21.141752024877224 16.924737619860373 14.45457931049821 0 0 0
1990 84 4 -0.12 21.031544819340485 17.19078982343367 13.403312130862819 0 0 0
1297 56 6 0.06 22.101554218919322 13.537794995408362 16.41309288589308 0 0 0
1291 56 6 0.06 24.22108492670897 14.005974324789713 15.743412253926088 0 0 0
1998 84 6 0.06 22.403803395271822 16.019427307222955 12.223640605291031 0 0 0
2001 84 6 0.06 23.814898068583215 16.739256605281362 14.08390723925748 0 0 0
1993 84 4 -0.12 22.316759094548047 17.040238591268817 12.595742266244203 0 0 0
2000 84 6 0.06 24.448280430835133 17.32158330774324 12.70046665814081 0 0 0
1303 56 6 0.06 19.480967739178244 11.850618588236046 16.67747244813198 0 0 0
1001 44 4 -0.12 30.9879519446698 11.853139279458015 10.27079597113951 0 0 0
1002 44 6 0.06 30.6707709511732 14.051880620489422 10.47722262154275 0 0 0
1006 44 6 0.06 32.04232210566274 11.956285072941897 10.014365635311634 0 0 0
1589 68 6 0.06 26.102904705860812 10.049044029678539 10.114860083752802 0 0 0
1554 66 6 0.06 27.178091560386857 16.65899356289208 10.495995349595635 0 0 0
1000 44 6 0.06 32.17438495823342 13.29308369560152 12.316250795077723 0 0 0
1073 47 4 -0.12 26.5922747129864 12.860489721437105 10.090125967654284 0 0 0
2369 118 14 -0.8476 25.405333776758276 10.608330386738832 16.256336062783816 0 0 0
1074 47 6 0.06 24.955982197677994 11.869656945464858 10.734914371787326 0 0 0
2368 118 13 0.4238 25.6416474280516 11.405256205941084 16.81226626788677 0 0 0
2370 118 13 0.4238 25.752371143192843 10.922359744439293 15.372624361701307 0 0 0
1288 56 6 0.06 25.18676980360553 13.525791308322038 12.874983918866002 0 0 0
1284 56 4 -0.12 25.201452556701703 14.068866466289323 13.819942041415786 0 0 0
1005 44 6 0.06 30.898904614273604 11.062230817219627 11.015528404626888 0 0 0
1077 47 6 0.06 27.23110101275423 11.982039562491728 10.181330614929971 0 0 0
1078 47 6 0.06 26.58566571081892 13.427870477218034 11.020785634488943 0 0 0
1003 44 6 0.06 29.440995285770075 12.956939519220246 10.971321091762977 0 0 0
417 19 3 0.35 27.516160666276498 10.149949752410162 14.17403213635848 0 0 0
998 44 4 -0.12 30.52215820072668 13.095260674433453 10.978106431906943 0 0 0
994 44 3 0.35 31.592956201487052 13.914223813144506 14.934899174721588 0 0 0
2633 206 14 -0.8476 29.908483077685176 10.681993357844865 15.765829389808621 0 0 0
995 44 4 -0.12 31.097517783060397 13.1542967614057 12.412101208939683 0 0 0
1283 56 11 -0.8 26.551613639186723 11.623966396642102 14.091833360137253 0 0 0
999 44 6 0.06 30.935206576541308 12.195515564510847 12.904529647830069 0 0 0
2634 206 13 0.4238 30.299804608069042 11.216662608946127 16.51482175557237 0 0 0
1281 56 10 -0.22 26.617972806102145 14.069846730086049 14.441407389620654 0 0 0
1280 56 9 0.7 27.24923628449724 12.645501599609643 14.342325879068278 0 0 0
2632 206 13 0.4238 29.292639277571663 11.299002676813828 15.27590159836391 0 0 0
1282 56 11 -0.8 28.45764483909937 12.445417260590581 14.61589201880855 0 0 0
993 44 3 0.35 30.014894631115762 13.203301665581876 14.691992486096055 0 0 0
990 44 1 -0.48 30.63485210492418 13.997942648544708 14.626481993858125 0 0 0
1285 56 6 0.06 27.288284356433625 14.702086651684635 13.859129823959979 0 0 0
997 44 5 0.08 29.443423546189276 14.267411900303127 13.10333015779515 0 0 0
1111 49 6 0.06 28.223946629601855 12.585562791565115 16.91265722027878 0 0 0
1289 56 6 0.06 25.00799609990745 15.093349718496066 13.50197870255815 0 0 0
1552 66 6 0.06 28.10800980551567 16.04520529529055 11.844631563294145 0 0 0
1553 66 6 0.06 26.36361812763651 16.519414638436288 11.970900596517577 0 0 0
1549 66 12 -0.18 27.34421758201802 16.771720806823915 11.567343465101462 0 0 0
996 44 5 0.08 31.042999330374133 15.149091358892274 13.069127885837153 0 0 0
991 44 2 0.2 30.517406881627164 14.218426115685848 13.282919448813786 0 0 0
1286 56 6 0.06 26.60873376067482 14.262793251622469 15.514150822549343 0 0 0
992 44 3 0.35 30.141684085765203 14.767714441546083 15.05581898279348 0 0 0
1917 81 6 0.06 25.899193244784872 16.99609874407297 15.566186926928328 0 0 0
2820 268 13 0.4238 29.494982661208034 16.691862851244117 16.387612073928146 -1 0 0
2819 268 14 -0.8476 29.340334803256006 15.744607319379165 16.106924727269785 -1 0 0
2818 268 13 0.4238 29.29863683641052 15.27086091494244 16.986595186015904 -1 0 0
1916 81 6 0.06 26.86299677804305 16.882720202621282 17.07710779370847 0 0 0
391 17 8 0.13 2.773653986125048 23.070615515278625 10.752136007484165 1 0 0
225 10 7 -0.32 8.504115858745429 23.551562810480196 16.07622455830498 0 0 0
693 31 3 0.35 5.740291603538068 17.55429341431102 13.179818296517842 0 0 0
2440 142 13 0.4238 4.453151425157483 17.887251281776354 16.382127577635277 0 0 0
2441 142 14 -0.8476 5.45301650741475 17.90219997838382 16.388460316897156 0 0 0
695 31 3 0.35 5.590169587276508 18.174731818502586 14.723516889609929 0 0 0
691 31 1 -0.48 5.9100067362332185 18.347747247314118 13.781251929506132 0 0 0
694 31 3 0.35 6.915083092853367 18.408692532775 13.70250753817049 0 0 0
692 31 2 0.2 5.239509619985049 19.49238203057729 13.150453535132703 0 0 0
697 31 5 0.08 4.180010800669484 19.260461830533256 13.041976434933419 0 0 0
698 31 5 0.08 5.69955763819323 19.461519581937626 12.162781858911256 0 0 0
2457 147 13 0.4238 8.78436468317949 20.210941224977745 12.53162936109443 0 0 0
2183 92 11 -0.8 8.687292593399693 18.611737457932918 13.673833567676143 0 0 0
2185 92 6 0.06 8.484831676838038 19.989895503121225 15.935350185145197 0 0 0
2656 214 13 0.4238 9.01109201361745 18.080320924153135 12.153182325307363 0 0 0
2657 214 14 -0.8476 9.287412944945903 17.42508924589893 11.450108060204874 0 0 0
2180 92 9 0.7 9.413594489117322 18.50196229217069 14.618058507675057 0 0 0
2181 92 10 -0.22 9.452924514264335 19.664147960441348 15.554854509286791 0 0 0
1854 78 6 0.06 2.7868918132734883 17.672672538229214 10.693945919881974 1 0 1
229 10 8 0.13 8.566523221377157 22.725085408781265 16.784131652777063 0 0 0
230 10 8 0.13 7.800706567519401 23.230966636010784 15.30776799662466 0 0 0
701 31 6 0.06 5.090078452037077 20.93169418845282 14.858434210555915 0 0 0
696 31 4 -0.12 5.56962702035384 20.782331570828134 13.891058333728457 0 0 0
700 31 6 0.06 6.641510826547278 20.67658428559972 14.058314514065156 0 0 0
704 31 6 0.06 5.849069926720645 21.694621890652357 11.948172451175523 0 0 0
703 31 6 0.06 4.368158159828614 22.00372764654869 12.685965388862062 0 0 0
699 31 4 -0.12 5.4319385702606215 21.96015416459839 12.919556041613845 0 0 0
707 31 6 0.06 5.668257519157015 23.360780429670093 14.56596982756998 0 0 0
702 31 4 -0.12 5.852780030245906 23.335423048972107 13.492004992768104 0 0 0
706 31 6 0.06 6.929996573159829 23.408178406363934 13.342328054311356 0 0 0
705 31 4 -0.12 5.241952643952061 24.625734761128495 12.9106479379935 0 0 0
709 31 6 0.06 4.153452166189043 24.661642502612935 12.955025325438903 0 0 0
710 31 6 0.06 5.509224688776984 24.520923516241325 11.859138416815131 0 0 0
90 4 8 0.13 7.831321057852715 24.125851038942248 10.947878440924104 0 0 0
2456 147 14 -0.8476 8.628308155661703 21.141249112289493 12.199715105097606 0 0 0
2186 92 6 0.06 9.742084657124213 20.471622900366512 14.882201074635011 0 0 0
228 10 8 0.13 9.497739790450023 23.44593327128034 15.640740995359387 0 0 0
2455 147 13 0.4238 9.01144093463575 21.187551673955607 11.27718635001914 0 0 0
87 4 7 -0.32 8.88034242949784 24.11582576379935 10.65199725844117 0 0 0
92 4 8 0.13 9.49142122539745 23.48413617060017 11.296701064980201 0 0 0
390 17 8 0.13 2.824019855118441 21.325633744019033 10.262192765664516 1 0 0
1798 76 6 0.06 13.196461576700393 21.989412034379956 17.082423701872433 0 0 0
2418 134 13 0.4238 10.232514119352114 20.343747069487133 10.045121791003039 0 0 0
788 35 4 -0.12 13.597115483977051 17.495555171598916 14.872217306911526 0 0 0
792 35 6 0.06 12.7222996225122 17.712418200905965 15.485209694400888 0 0 0
787 35 3 0.35 12.369322163411779 17.893075213400014 12.427538356222904 0 0 0
2182 92 11 -0.8 10.08712032430034 17.528277998602576 14.848796290543163 0 0 0
793 35 6 0.06 13.884466236648285 18.460400949698595 14.454372571265823 0 0 0
2184 92 4 -0.12 10.485563963785642 19.63958057520007 16.71703236259436 0 0 0
2189 92 6 0.06 11.416661281736598 19.31970316165164 16.249241560561334 0 0 0
1782 76 11 -0.8 11.907434171431214 19.547710270595662 10.185125030988095 0 0 0
1783 76 11 -0.8 13.429292270798454 19.11293343431286 11.796535539429701 0 0 0
1780 76 9 0.7 12.516027670767226 19.795519349038436 11.301705304959434 0 0 0
1797 76 6 0.06 13.574483241930949 20.355179718232502 16.90921675962664 0 0 0
1791 76 6 0.06 12.685550457405538 20.210677444123775 14.54136898421815 0 0 0
2188 92 6 0.06 10.505152975027812 20.60810390842034 17.21670322918945 0 0 0
533 24 3 0.35 14.427521413061433 18.82178077626361 10.478774104164263 0 0 0
794 35 4 -0.12 15.312717034909122 17.624522889704636 16.91105949974358 0 0 0
2481 155 13 0.4238 16.458146903050995 18.775335099070148 12.451921913032706 0 0 0
2479 155 13 0.4238 15.115828785571251 19.579694183562655 12.62571244347666 0 0 0
2480 155 14 -0.8476 15.97385815631378 19.3693559569419 13.094260288942303 0 0 0
799 35 6 0.06 15.37077202325394 18.693140992505327 16.70423348921107 0 0 0
1983 84 11 -0.8 17.176006509161994 17.854940228447933 11.213338680035772 0 0 0
1786 76 6 0.06 11.740421280986963 21.648932216740082 11.270370607158329 0 0 0
1788 76 6 0.06 13.090894205401707 22.73632636784803 12.926986080336691 0 0 0
1785 76 6 0.06 11.269408583221148 20.69582774577943 12.813685322743076 0 0 0
1787 76 4 -0.12 13.024869539815409 21.235319158430066 14.389500871526833 0 0 0
1784 76 4 -0.12 13.146798960373966 21.648022685256468 12.950688717616435 0 0 0
1781 76 10 -0.22 12.023191083560377 20.971653829286396 12.076241132624677 0 0 0
1792 76 6 0.06 12.164766966902524 21.798402589907326 14.751788912106445 0 0 0
269 12 6 0.06 13.771551140028144 24.535221277149287 14.02115583033903 0 0 0
539 24 6 0.06 14.196757870374554 21.486532365484454 10.166018011121967 0 0 0
1789 76 6 0.06 14.16156967146268 21.48192785133665 12.58910202017578 0 0 0
1793 76 4 -0.12 14.009180964644345 21.342367555452565 16.752404532902275 0 0 0
1801 76 6 0.06 16.125778834402958 20.90809164067892 17.295222983787227 0 0 0
1790 76 4 -0.12 14.19006250765539 21.567227917888466 15.239374381885165 0 0 0
1794 76 6 0.06 14.313738144569081 22.649271729302715 15.283843972223695 0 0 0
1795 76 6 0.06 15.04735520983221 21.0384280544748 14.822826718437465 0 0 0
2407 131 13 0.4238 17.385676379720568 20.366669784279157 13.409006787034972 0 0 0
263 12 6 0.06 16.437199233559795 24.218559316234412 14.526023189946224 0 0 0
742 33 4 -0.12 22.307789449296617 22.18549420532545 17.088251050272195 0 0 0
1989 84 6 0.06 18.222837186259213 17.615476866793678 13.516423525986289 0 0 0
2746 244 13 0.4238 18.48311967563374 18.761902337444777 11.000885485777758 0 0 0
2747 244 14 -0.8476 19.270733507957992 19.28842932226162 10.68084302587341 0 0 0
759 33 8 0.13 17.795783879648475 19.35188083271921 15.791655048591021 0 0 0
758 33 8 0.13 19.308063370692167 19.83747438293556 15.248074596316734 0 0 0
754 33 7 -0.32 18.590643329890263 20.055449986846128 16.039204884928417 0 0 0
1995 84 6 0.06 20.824582631603075 18.25972375971139 13.45468275498056 0 0 0
757 33 8 0.13 18.095417460700098 21.018632306204157 15.916228380013367 0 0 0
1997 84 6 0.06 22.16182509263699 17.779498006593375 11.809877781082974 0 0 0
1919 81 6 0.06 24.538042595461842 18.76770967222721 16.649414726601528 0 0 0
1996 84 4 -0.12 23.555252590593078 17.461197184471626 13.309647491486746 0 0 0
1999 84 12 -0.18 23.458728163615127 18.875757396744813 13.89018819355663 0 0 0
2004 84 6 0.06 22.735046270305023 18.97920654569019 14.698689795412191 0 0 0
2002 84 6 0.06 24.349305222612305 19.137146501980034 14.461712728705166 0 0 0
2003 84 6 0.06 23.427798428271384 19.65047038619419 13.12405821562534 0 0 0
2409 131 13 0.4238 18.388265818813238 20.36137842857389 12.307352338539168 0 0 0
2408 131 14 -0.8476 18.12271683878581 20.951285542768026 13.06990509412126 0 0 0
2707 231 13 0.4238 19.337463985114958 21.824275370611605 10.206251286416407 0 0 0
2709 231 13 0.4238 20.50638597205298 22.69789597242969 10.504107450117061 0 0 0
2447 144 14 -0.8476 19.41204890172519 23.260060270916423 13.920721057255221 0 0 0
2446 144 13 0.4238 18.97104504703503 22.40381015879118 13.651749158841712 0 0 0
2448 144 13 0.4238 20.243102936094267 23.119356551645605 13.382624773581117 0 0 0
258 12 3 0.35 18.838826900999706 24.72654790881873 14.402785625808086 0 0 0
2445 143 13 0.4238 20.82580785677513 24.537409120149 11.0642924749571 0 0 0
2853 279 13 0.4238 20.6501483505595 20.20113706238872 11.115761870576025 0 0 0
2852 279 14 -0.8476 21.409896161320688 20.83846508459483 11.244569147147123 0 0 0
2851 279 13 0.4238 22.232630165290686 20.525430307094542 10.770109622883357 0 0 0
750 33 6 0.06 20.798549164557194 21.472237991054232 15.625860403825598 0 0 0
2854 280 13 0.4238 23.25447013736191 24.306197664632897 10.77302814185782 0 0 0
745 33 4 -0.12 21.204504744699108 21.18359843801217 16.595385715858264 0 0 0
743 33 5 0.08 24.102023810966994 21.552130252636488 16.13185891218862 0 0 0
744 33 5 0.08 23.050793469315416 22.15372124546583 14.999531945525419 0 0 0
738 33 2 0.2 23.371935636648253 22.353960788878695 16.02171776319055 0 0 0
737 33 1 -0.48 24.071729065478948 23.5701166925062 16.202447044638927 0 0 0
2727 237 13 0.4238 22.4430803234212 23.663569734495788 12.479511685621237 0 0 0
2726 237 14 -0.8476 21.531476887521205 23.25335290974551 12.453099621243812 0 0 0
2725 237 13 0.4238 21.701828220970544 22.32572149645153 12.12072203405188 0 0 0
1532 66 11 -0.8 23.728834741053742 24.648933476766388 12.367241529192505 0 0 0
739 33 3 0.35 24.632482235993013 23.763407973138836 15.384957418613451 0 0 0
741 33 3 0.35 24.738371617083285 23.399948094513636 16.94185469083266 0 0 0
740 33 3 0.35 23.481311330877304 24.37045545879997 16.378396076545812 0 0 0
749 33 6 0.06 21.68978557040201 20.21314183730418 16.491421478957754 0 0 0
746 33 6 0.06 21.800022665910976 23.135407934114383 17.255370417454454 0 0 0
1547 66 6 0.06 25.992158872081554 19.468776548343527 11.092908801044354 0 0 0
1915 81 4 -0.12 25.170646548612442 18.124184630064597 17.26079003534812 0 0 0
1548 66 6 0.06 26.02758538114191 19.171297267039773 12.757258114653903 0 0 0
1543 66 4 -0.12 26.695799612984683 19.371162622323688 11.91962111690854 0 0 0
1849 78 12 -0.18 31.786714880936426 18.172392555343137 10.067733708849609 0 0 1
2683 223 13 0.4238 31.31251184225662 18.36732125192432 16.174257935953786 0 0 0
2685 223 13 0.4238 32.20870205934623 17.49455857288798 15.14505715605354 0 0 0
2684 223 14 -0.8476 32.22544221014764 18.2682876492604 15.778347615389134 0 0 0
1853 78 6 0.06 30.988711944823102 18.436515128950738 10.76165200921966 0 0 1
1912 81 4 -0.12 26.350013663475675 17.553105375626487 16.38752523259783 0 0 0
1913 81 6 0.06 28.15204833916039 18.00317619310601 15.303868197913204 0 0 0
1550 66 6 0.06 28.350618849731887 18.324262950009874 12.855274077196936 0 0 0
1914 81 6 0.06 26.76231219509173 19.006113328122122 14.821731006376181 0 0 0
1909 81 4 -0.12 27.283855396310326 18.554176833593264 15.665436070376904 0 0 0
1551 66 6 0.06 28.582552627831994 18.39356854984309 11.23295976510366 0 0 0
1546 66 4 -0.12 27.76815880355578 18.23019784408725 11.938767624867225 0 0 0
1906 81 10 -0.22 27.877660913529926 19.621343545739208 16.56548616617936 0 0 0
1910 81 6 0.06 28.3302133606332 20.366546460457833 15.91129890031676 0 0 0
1530 66 9 0.7 24.872085593558136 24.344675563691627 12.741781087313827 0 0 0
1542 66 6 0.06 25.925671113564484 21.762684659671073 13.133985970404407 0 0 0
1541 66 6 0.06 25.462203222205915 21.527924944911497 11.371722765855454 0 0 0
1537 66 4 -0.12 26.243828417124266 21.771008866421344 12.091489598167499 0 0 0
1544 66 6 0.06 27.862426956927976 20.850148768852737 13.050308752750642 0 0 0
1540 66 4 -0.12 27.320763133041176 20.70703673949484 12.115316066520503 0 0 0
1534 66 4 -0.12 26.976280228700226 23.141965931135307 11.97814131204641 0 0 0
1533 66 11 -0.8 25.042084516682483 23.96472383856645 13.917716044692893 0 0 0
1536 66 6 0.06 25.684479156859663 24.443246958956927 10.847485930453814 0 0 0
1531 66 10 -0.22 26.081007410687768 24.418996544425866 11.862507749707119 0 0 0
2364 116 13 0.4238 26.68451606194737 24.669348933556854 14.260247874398056 -1 0 0
386 17 7 -0.32 32.04099552843286 22.091479808611627 10.835926220569283 0 0 0
2671 219 13 0.4238 27.68533431569391 24.691584127933943 16.581762094953433 0 0 0
383 17 4 -0.12 30.532906318419705 22.207047404983385 10.437336931986328 0 0 0
388 17 6 0.06 30.101653108206907 23.195212720254496 10.597468192234794 0 0 0
940 41 6 0.06 31.94635704751872 23.471528217861504 13.716393819916041 -1 0 0
939 41 6 0.06 31.905315996073067 23.06115023414687 15.522270152005682 -1 0 0
389 17 8 0.13 32.094007381523426 21.85713875158331 11.899112978355523 0 0 0
942 41 8 0.13 31.377866637148156 21.245022041835238 14.115844772771784 -1 0 0
932 41 4 -0.12 30.41311820722696 24.520398365010134 14.852162554561302 -1 0 0
937 41 6 0.06 29.811569990545614 24.271091976448744 15.726278159261366 -1 0 0
387 17 6 0.06 30.08759911019511 21.521506424034232 11.158327290738933 0 0 0
1545 66 6 0.06 28.14621509066945 20.844531929363367 11.41687772766054 0 0 0
935 41 4 -0.12 31.3514501417196 23.2825802597545 14.60996892160007 -1 0 0
941 41 8 0.13 29.92323465237888 22.030819182819773 13.539047784274466 -1 0 0
938 41 7 -0.32 30.633703995858347 22.00143184030851 14.36516021564654 -1 0 0
1538 66 6 0.06 27.846348807749692 23.260948077560702 12.623831593003562 0 0 0
1539 66 6 0.06 27.475543363554962 23.085764551067978 11.010841077247274 0 0 0
943 41 8 0.13 30.161645140395912 21.626361996217835 15.273221384535988 -1 0 0
936 41 6 0.06 29.74837214068504 24.6147660113851 13.993501136974785 -1 0 0
1911 81 6 0.06 27.084777751393457 20.167311605115767 17.07670742378982 0 0 0
1907 81 11 -0.8 29.765622356105567 18.256916211148546 17.24108923159963 0 0 0
2335 107 13 0.4238 6.770426671417473 29.79377562540454 16.86596213996353 1 0 0
2594 193 14 -0.8476 9.482777692026442 32.05622508740899 17.156059690061355 1 0 0
222 10 4 -0.12 8.312236310737301 25.02123202258775 16.645687960551236 0 0 0
226 10 6 0.06 8.268754290736123 25.661916852598846 15.764935824872522 0 0 0
89 4 6 0.06 8.851233599228436 26.01549297868539 11.747084504780682 0 0 0
88 4 6 0.06 8.642152781681975 26.22854210364904 10.100755176350411 0 0 0
84 4 4 -0.12 9.244131942397697 25.64741513112104 10.799328406821974 0 0 0
1896 80 4 -0.12 3.0013468859665977 26.477131988435552 10.056502600261728 1 0 0
654 29 6 0.06 4.471826649100498 31.094489861296395 10.135657902265084 1 -1 0
1901 80 6 0.06 3.473122205870081 27.298009924137755 10.59657618921532 1 0 0
708 31 7 -0.32 5.939242435834121 25.84826466600538 13.49050985123586 0 0 0
712 31 8 0.13 5.596402314215861 25.811195889587818 14.524520772346666 0 0 0
713 31 8 0.13 7.026895294143012 25.791636194726728 13.446961187593432 0 0 0
1139 50 6 0.06 5.823123487150256 32.257432484726785 13.663908724662866 0 0 0
711 31 8 0.13 5.561648225358075 26.75679711690582 13.021379306338664 0 0 0
2477 154 14 -0.8476 3.382665798595862 31.020643792774997 14.825302924518882 1 -1 0
2798 261 14 -0.8476 3.8204524956348322 29.590048634316922 12.450014270361603 0 -1 0
2799 261 13 0.4238 3.758684112095839 30.095539168831795 13.310630021300536 0 -1 0
2797 261 13 0.4238 4.810792803514529 29.459058716453942 12.495416784591859 0 -1 0
2476 154 13 0.4238 3.8652198203843673 31.678356939153073 15.40370626587152 1 -1 0
2471 152 14 -0.8476 6.945100886354625 29.379265532818945 13.044350561634612 1 0 0
2472 152 13 0.4238 6.577343747516431 29.284135961437762 13.969390298203134 1 0 0
2470 152 13 0.4238 7.821091265543454 29.76052193879172 13.33977866175997 1 0 0
2337 107 13 0.4238 7.7913072061938555 29.355404839349898 15.669469272848069 1 0 0
2336 107 14 -0.8476 6.862630909524671 29.25725668457294 16.027129911369897 1 0 0
2276 95 6 0.06 7.093574308340633 30.8243680944521 10.805753655562155 0 -1 0
1900 80 6 0.06 3.530030300545787 25.556837049378633 10.304782883599271 1 0 0
220 10 6 0.06 9.867607229494995 27.494941070156102 16.636464156910087 0 0 0
2270 95 6 0.06 8.784229899697447 31.414359582877527 12.567542558277081 0 -1 0
2268 95 4 -0.12 9.183685170363304 30.653368387864926 10.487950404991746 0 -1 0
2272 95 6 0.06 9.35210504659231 29.6652834006411 10.916219972213023 0 -1 0
2265 95 4 -0.12 9.345354091588186 31.61995408096986 11.655971045111507 0 -1 0
2743 243 13 0.4238 9.105530011281147 30.83881254987906 15.65283624419199 0 0 0
2744 243 14 -0.8476 9.247651645840097 30.15123195827666 14.940776937565612 0 0 0
227 10 6 0.06 7.344243185096251 25.18183884412335 17.120331823953435 0 0 0
2313 99 13 0.4238 5.927192696876274 27.74286321801142 17.19370924851876 0 0 0
2751 245 13 0.4238 13.64624491251123 29.3226351280869 17.02509886921898 0 0 0
224 10 6 0.06 10.396286972882967 25.277052389148025 17.158408506371536 0 0 0
75 4 4 -0.12 12.754095714740274 27.482078923020424 10.347300601323584 0 0 0
79 4 6 0.06 13.294138006332162 26.983857331737095 11.15242272930041 0 0 0
2488 158 13 0.4238 16.182254017121483 29.65049929619608 16.44101954583126 0 0 0
275 12 8 0.13 11.09258566083277 24.91465760491886 13.493712776462312 0 0 0
273 12 6 0.06 12.146756169107933 24.99445221481112 15.890131472676245 0 0 0
85 4 6 0.06 11.327216075944264 25.186860886583702 11.261286254785631 0 0 0
268 12 4 -0.12 12.40163443345012 25.787676024565414 15.187333437109718 0 0 0
265 12 4 -0.12 13.779833909754538 25.46082635560792 14.596723935713339 0 0 0
81 4 4 -0.12 10.769683596602821 25.787843182079477 10.5429062425223 0 0 0
267 12 6 0.06 14.829979774679588 24.99234353080934 16.42050986464701 0 0 0
259 12 4 -0.12 16.27388358435544 25.260752076901984 14.800348290142704 0 0 0
262 12 4 -0.12 14.956372098824959 25.570470520981758 15.505148632124207 0 0 0
266 12 6 0.06 14.843623327448462 26.639658554523283 15.68463869227921 0 0 0
260 12 5 0.08 17.383754414757853 26.689956089461006 16.025094518163222 0 0 0
2489 158 14 -0.8476 17.04093467159438 29.39898999725749 16.887566259203872 0 0 0
2749 245 13 0.4238 13.74678431075045 30.768645266805873 16.614538653705683 0 0 0
276 12 8 0.13 10.490965859385298 26.232456916888392 14.475509249961348 0 0 0
274 12 8 0.13 11.717604120439747 26.50400669695409 13.325514921574465 0 0 0
271 12 7 -0.32 11.400352603408159 25.78191677727834 14.077864335346524 0 0 0
272 12 6 0.06 12.392642130344019 26.76906107499541 15.661563901820543 0 0 0
270 12 6 0.06 13.81786245995834 26.265554702768185 13.86251814509341 0 0 0
2745 243 13 0.4238 10.21066522005895 29.925854363759704 14.793118071862123 0 0 0
2750 245 14 -0.8476 13.686310986167715 29.866676287987225 16.187000977124832 0 0 0
2267 95 6 0.06 11.44150421715458 31.597316206047182 11.230555264488222 0 -1 0
2262 95 4 -0.12 10.820891238400243 31.63553870993463 12.125804168668802 0 -1 0
2261 95 6 0.06 12.603628185697081 32.10502269348274 14.176591908340688 0 -1 0
83 4 6 0.06 10.96371941925944 27.779760888931126 11.483436780796257 0 0 0
2266 95 6 0.06 10.908908629700955 30.689838389790083 12.660590009897211 0 -1 0
78 4 4 -0.12 11.249205029890973 27.251186133356203 10.573932123743068 0 0 0
77 4 5 0.08 12.845453214097786 29.516917738624134 11.115034922510153 0 0 0
71 4 2 0.2 13.125718977245473 28.958301086698032 10.222011656916859 0 0 0
2668 218 13 0.4238 16.97956883437321 30.981880145720538 14.994973612349623 0 0 0
2434 140 13 0.4238 13.984317446596467 29.34954213575061 14.502004651105008 0 0 0
2400 128 13 0.4238 14.900771648424286 31.996639303309596 10.746796770809722 0 0 0
2670 218 13 0.4238 17.38762947844952 30.90094449727104 13.510358470285732 0 0 0
2669 218 14 -0.8476 16.67892507704196 30.571330185081994 14.134126185869599 0 0 0
2398 128 13 0.4238 15.906331157967339 31.62819909670729 11.844165485716687 0 0 0
70 4 1 -0.48 14.572276804866148 29.068395754670004 10.08341601139408 0 0 0
2436 140 13 0.4238 15.156656273578928 29.76883277736683 13.665008619695824 0 0 0
72 4 3 0.35 15.054472165705805 28.380170570869634 10.643708670844182 0 0 0
74 4 3 0.35 14.911452848346556 29.9807404751251 10.353009342513754 0 0 0
2435 140 14 -0.8476 14.42953366829487 29.082557278604874 13.64731415757779 0 0 0
264 12 6 0.06 16.270168879389228 25.77785341174253 13.840825229441064 0 0 0
2399 128 14 -0.8476 15.610385137511642 31.31915577404556 10.940339378972286 0 0 0
2393 126 14 -0.8476 16.015575931632807 27.91904251673148 11.790174716185426 0 0 0
2392 126 13 0.4238 15.525533702729579 28.189823564258116 12.618746055453467 0 0 0
2394 126 13 0.4238 16.8238905065957 27.454103196166304 12.151357960720075 0 0 0
184 8 8 0.13 17.81331718911784 30.081770474317274 10.106229190412321 0 0 0
182 8 8 0.13 18.441842665265607 28.56956113224391 10.60153831261206 0 0 0
179 8 7 -0.32 18.58208640819303 29.64143676917745 10.741203338988175 0 0 0
176 8 4 -0.12 19.967250124084835 30.20470883966229 10.233460326323112 0 0 0
177 8 6 0.06 21.118331971741956 28.31742535167943 10.018403259194566 0 0 0
2840 275 14 -0.8476 19.04151770764327 31.976719984979418 13.699018074078566 0 0 0
2841 275 13 0.4238 18.59601624629341 32.14077896221652 14.579136797424013 0 0 0
1158 51 11 -0.8 17.837384903940695 31.93186525701222 15.943864645150867 0 0 0
155 7 6 0.06 21.994324682659496 32.17974355678569 10.0194786256993 0 -1 0
2676 220 13 0.4238 18.811810417476334 29.126084164664096 16.36169800326762 0 0 0
1955 83 9 0.7 21.8504181553866 26.523435480558263 16.951460960817688 0 0 0
2444 143 14 -0.8476 20.421620120872156 25.431556222576937 10.871609486391414 0 0 0
261 12 5 0.08 17.667417228639145 25.050648254818952 16.528322707687867 0 0 0
255 12 2 0.2 17.49703629607943 25.672906514382067 15.649768765762904 0 0 0
2307 97 13 0.4238 17.418702742904138 25.074103799018367 11.86936772643925 0 0 0
2306 97 14 -0.8476 17.932018348933507 25.93228060565923 11.863628419777216 0 0 0
2305 97 13 0.4238 18.82141939204115 25.714625932012645 11.461649045748251 0 0 0
254 12 1 -0.48 18.665818336680736 25.61885722929916 14.843178566535016 0 0 0
257 12 3 0.35 19.495649040321748 25.79197706215762 15.39227224758921 0 0 0
1957 83 11 -0.8 22.89177529133972 25.94030088688339 16.55928853008325 0 0 0
1155 51 9 0.7 18.44488461093607 32.173261694679645 16.98530109249799 0 0 0
2839 275 13 0.4238 19.957867642824443 31.878850111367765 14.087243440333307 0 0 0
2674 220 13 0.4238 20.092865091748664 28.226910193369218 16.279358988837487 0 0 0
183 8 8 0.13 18.421646753926066 29.815271997213856 11.80522048712616 0 0 0
181 8 6 0.06 20.06231948773441 31.12267194183282 10.81345826573087 0 0 0
2661 215 13 0.4238 19.076517490595712 28.669269305392344 14.013393218733466 0 -1 0
256 12 3 0.35 18.6884943614344 26.362454141992078 14.16006611393023 0 0 0
2660 215 14 -0.8476 18.18131180255039 28.2757994547229 13.804152758774883 0 -1 0
2659 215 13 0.4238 17.555856105406228 28.95726109539803 14.184164682527529 0 -1 0
175 8 6 0.06 20.45346207951778 28.20240123607425 12.272921250526506 0 0 0
2675 220 14 -0.8476 19.792702743309924 29.174891267456594 16.17338351755852 0 0 0
161 7 8 0.13 24.403931611549115 31.050146619173944 9.995108172355216 0 -1 0
1958 83 11 -0.8 20.902513359081457 26.629790368898473 16.11125354253766 0 0 0
165 8 3 0.35 23.82220582409423 25.937459676561712 13.435863337899164 0 0 0
164 8 3 0.35 23.436266482309104 26.307405421006475 14.972771860200407 0 0 0
178 8 6 0.06 22.16750275823393 29.617493420041964 10.283104586943487 0 0 0
173 8 4 -0.12 21.16925890366446 29.26886761678982 10.547795482370738 0 0 0
166 8 3 0.35 24.380541350887068 27.30357469093858 14.08226909816362 0 0 0
2800 262 13 0.4238 24.664725457479104 31.227859445351275 14.820346331233536 0 0 0
2439 141 13 0.4238 22.34256538288748 30.91269084852983 14.813218823857433 0 0 0
2438 141 14 -0.8476 21.45124901415488 31.316863192310063 15.018629850277927 0 0 0
172 8 6 0.06 23.39942333828449 28.73199574115844 12.354712706743115 0 0 0
171 8 6 0.06 22.768826883302143 27.39461932596684 11.605571465557158 0 0 0
2801 262 14 -0.8476 24.17062882741024 30.519967289584443 14.315617284128955 0 0 0
170 8 4 -0.12 21.22651140661842 28.937221589579217 12.048141814036402 0 0 0
169 8 5 0.08 21.513083893039557 26.749482963607292 13.713201828234615 0 0 0
2437 141 13 0.4238 20.916264034407554 30.621402301302176 15.498337095257726 0 0 0
174 8 6 0.06 21.144068384696705 29.811977209308065 12.693198221495969 0 0 0
167 8 4 -0.12 22.491213581418574 28.129332620254836 12.3613619394863 0 0 0
168 8 5 0.08 22.18563652914096 28.270308815318543 14.420840872699651 0 0 0
162 8 1 -0.48 23.57262754462153 26.698246131683707 14.05149962371413 0 0 0
163 8 2 0.2 22.35168372594777 27.445638147821004 13.727704055086573 0 0 0
2490 158 13 0.4238 17.470219765428055 30.25400249119 17.17853635242153 0 0 0
1898 80 6 0.06 31.037362824184385 25.609866693022663 11.232359643856103 0 0 0
927 41 5 0.08 31.87646591460291 28.53307042959931 15.139350369527499 -1 0 0
649 29 3 0.35 30.853223853219507 31.09700875971703 10.584682674206933 0 -1 0
645 29 1 -0.48 31.680730350306217 31.38377744185003 11.087763257258656 0 -1 0
934 41 6 0.06 31.624275066475043 26.130097726916837 13.979591548339567 -1 0 0
1894 80 6 0.06 31.096180153323843 28.313846761425275 11.437110448001324 0 0 0
1893 80 4 -0.12 31.234387423612244 26.3436524492335 10.450802313539485 0 0 0
647 29 3 0.35 32.12070118742713 30.610154363564625 11.565284132974831 0 -1 0
2723 236 14 -0.8476 26.917145803061253 28.538342431515407 16.836714329508368 0 0 0
2362 116 13 0.4238 27.088535840938658 26.212169961351893 14.852264956597951 -1 0 0
2624 203 14 -0.8476 26.07327182708165 31.773165699207688 15.83672300898557 0 0 0
1890 80 4 -0.12 30.543382851200104 27.675330245005128 10.748050352401663 0 0 0
2623 203 13 0.4238 26.71512468976669 31.94949235589767 15.090447113455404 0 0 0
2410 132 13 0.4238 30.886895429914027 32.16912253037677 16.338173470404634 0 0 0
926 41 4 -0.12 30.18763708745727 26.998740972190785 15.198475841276995 -1 0 0
1883 80 11 -0.8 27.832694508053308 28.77778095225661 14.229387118776291 0 0 0
1889 80 6 0.06 28.291866743556263 29.423843942518044 10.601691560487142 0 0 0
2625 203 13 0.4238 26.625431661398395 31.893272747065605 16.661761102641357 0 0 0
923 41 3 0.35 30.215035692575757 30.34876553368522 15.075881764125974 -1 0 0
2411 132 14 -0.8476 30.97333055414535 32.08333992560772 17.330728039630525 0 0 0
930 41 6 0.06 29.373082658627876 26.847986704098375 14.490050630679587 -1 0 0
2724 236 13 0.4238 27.820994698456182 28.78985360604646 17.182828260892556 0 0 0
2580 188 13 0.4238 28.997816876493133 31.860072437491127 13.632422281770149 0 0 0
1732 74 11 -0.8 30.712700572786048 32.012190221495786 14.607689665198448 -1 -1 0
2578 188 13 0.4238 27.86711574882427 30.62624283145453 13.92415452285522 0 0 0
928 41 5 0.08 30.84148380979291 28.461021975441394 13.793273919948938 -1 0 0
931 41 6 0.06 29.819120138452657 26.85964147925173 16.21481174348652 -1 0 0
648 29 3 0.35 31.258186706341153 31.892672423267307 11.851030200534808 0 -1 0
2478 154 13 0.4238 32.19267317867194 31.38656083979076 14.76817640938607 0 -1 0
924 41 3 0.35 29.17091715109801 29.195207409110576 14.984465730665807 -1 0 0
925 41 3 0.35 29.934894327564567 29.31775568125321 16.405751647636777 -1 0 0
921 41 1 -0.48 30.063046388411987 29.40709128046752 15.407909079316616 -1 0 0
1535 66 6 0.06 26.60930567682991 25.341819148429142 12.102072786022092 0 0 0
1891 80 6 0.06 28.661221384312274 26.822605492602296 10.659230849830056 0 0 0
1892 80 6 0.06 29.225352171610936 26.99882146294618 12.313132823222016 0 0 0
2363 116 14 -0.8476 27.17682268143441 25.219499802451537 14.93475662144751 -1 0 0
929 41 4 -0.12 31.11737963863829 25.929555732257707 14.923483471190838 -1 0 0
933 41 6 0.06 31.902760531395003 25.89007295158143 15.678274866755666 -1 0 0
1884 80 4 -0.12 28.434374210002265 28.858056621860378 11.522380663444801 0 0 0
1886 80 6 0.06 26.587488922000922 27.801928646480427 11.478624026720631 0 0 0
2722 236 13 0.4238 26.90022917954497 28.701066103026157 15.85019036157198 0 0 0
1880 80 9 0.7 26.895472824754236 28.316195666714727 13.481984093537454 0 0 0
1882 80 11 -0.8 25.885663853213625 27.793175107916124 13.975556314403589 0 0 0
1885 80 6 0.06 26.59872169923519 29.621086727919113 11.766555499084971 0 0 0
2802 262 13 0.4238 24.94777481561378 29.91733528564625 14.134310462012797 0 0 0
1881 80 10 -0.22 27.01282871679682 28.645703587619813 12.02196733022529 0 0 0
922 41 2 0.2 30.83160564201414 28.36415818231844 14.878912835305721 -1 0 0
2579 188 14 -0.8476 28.0481831751269 31.603297141010867 13.81202280374453 0 0 0
1887 80 4 -0.12 29.184305357831473 27.49213329108977 11.3420248863394 0 0 0
1888 80 6 0.06 29.08830084168937 29.499946909633742 12.11267621217504 0 0 0
1502 64 6 0.06 4.727004240813641 6.704259459907709 19.049918188213905 0 0 0
343 15 8 0.13 6.752974692589854 9.040209843273642 23.025851158281696 0 0 0
344 15 8 0.13 8.10787773360357 7.8886129755880035 22.66395137471237 0 0 0
340 15 7 -0.32 7.813875112368155 8.929132069345311 22.80169931167239 0 0 0
2630 205 14 -0.8476 6.69941400532539 3.8613710151172693 20.309226661439034 1 1 0
199 9 4 -0.12 6.522933621210017 4.91328312143966 24.664245340728566 0 0 0
42 2 6 0.06 3.3159925072126764 7.534647011465318 23.947808842529 1 0 0
37 2 6 0.06 3.2507453109206628 8.4365123854355 20.666046125169746 1 0 0
204 9 6 0.06 7.445854689326201 5.375303869141162 24.31375200341506 0 0 0
2629 205 13 0.4238 6.8056044126460185 3.8180592815783765 19.315827645501283 1 1 0
628 28 5 0.08 3.8145235677897444 3.747522368815762 19.521864751693744 1 0 0
634 28 6 0.06 2.6385366355021285 4.148883362661042 21.865695034547755 1 0 0
205 9 8 0.13 5.566625075332702 4.562058466520692 22.7822607160536 0 0 0
2631 205 13 0.4238 7.507465191841041 3.413625836653736 20.692072703875446 1 1 0
206 9 8 0.13 6.678162964459993 3.2976525888436083 23.08439794619392 0 0 0
345 15 8 0.13 8.295567197637528 9.435395224974727 23.638217332092985 0 0 0
200 9 6 0.06 5.338569708684906 6.424739731479556 23.78868647766406 0 0 0
623 28 2 0.2 3.708207747999868 2.696172738771577 19.78917161679745 1 0 0
202 9 7 -0.32 5.965890911808803 3.949302422212118 23.59047409536037 0 0 0
207 9 8 0.13 5.084621453839482 3.4506618405130385 23.99397597060944 0 0 0
2242 94 6 0.06 9.63713297612891 7.029685407484204 19.843138347788916 0 0 0
2239 94 6 0.06 9.56542482366665 4.610016786057558 20.12806506198477 0 0 0
2238 94 6 0.06 9.861740966784655 5.488299872657533 21.52617741385105 0 0 0
2248 94 6 0.06 9.948509092045974 7.720574442179392 17.676870047677532 0 0 0
1132 50 11 -0.8 6.835884436505747 2.971293680115064 17.65302626287863 0 1 0
32 2 4 -0.12 3.1601094832927026 9.233212558435657 21.40438616186867 1 0 0
337 15 4 -0.12 8.233809954048308 9.730947661014493 21.574332178725346 0 0 0
36 2 6 0.06 4.142979578327805 9.380371944046363 21.85204959834293 1 0 0
342 15 6 0.06 8.040574033138558 9.111298432076634 20.69866858199368 0 0 0
31 2 5 0.08 3.799515092390738 9.96696714939877 18.629629071036668 1 0 0
341 15 6 0.06 9.307034594940912 9.92119584147299 21.565028783740285 0 0 0
1499 64 12 -0.18 5.449792951260433 6.4234085311357685 18.283895181929395 0 0 0
635 28 6 0.06 3.1949500329127773 2.5450083064650637 22.460865454206797 1 0 0
629 28 5 0.08 4.574080738676006 2.563436592683754 20.43781414245711 1 0 0
196 9 4 -0.12 5.476488998303688 6.031937870027878 24.796047891550277 0 0 0
642 28 8 0.13 2.8833390030783796 2.566406576225095 24.708985310711995 1 0 0
2760 248 13 0.4238 9.021418569127935 2.701411337948494 24.38603078528831 0 1 0
1503 64 6 0.06 5.9261759390564634 5.503754492259455 18.623582842319816 0 0 0
1504 64 6 0.06 6.277268457079698 7.132472887223554 18.308472946885047 0 0 0
2244 94 6 0.06 10.031450614607168 5.366364412018685 18.002615087995363 0 0 0
2237 94 4 -0.12 10.566461872391457 6.467842270379757 19.749478633270108 0 0 0
2234 94 4 -0.12 10.346034202116382 5.215583124194307 20.588532678099778 0 0 0
894 39 6 0.06 10.373780567582193 7.736082876640146 23.23495920038083 0 0 0
2241 94 6 0.06 11.365010036112851 7.120373918805169 20.102487571536162 0 0 0
2240 94 4 -0.12 10.864955266151588 5.999747517493067 18.30623965254565 0 0 0
2245 94 6 0.06 11.758415796636307 5.392192785660584 18.16237303400687 0 0 0
893 39 6 0.06 11.681601122808797 6.779980120283871 23.720143504522923 0 0 0
889 39 4 -0.12 11.057916389913022 7.601422842248968 24.072764002353495 0 0 0
2236 94 6 0.06 11.576091164218504 3.9542998274110643 21.90814593394836 0 0 0
2231 94 10 -0.22 11.618459659546781 4.432140335585607 20.929388866834195 0 0 0
2235 94 6 0.06 12.520708279510666 5.043078753094876 20.901216068560498 0 0 0
2230 94 9 0.7 11.81177131965513 3.1884832868215947 19.960460091407676 0 0 0
839 37 6 0.06 13.971453125764652 5.06689278702689 17.924446845824523 0 0 0
69 3 8 0.13 13.437791014068031 5.122539129895069 23.167045268827092 0 0 0
65 3 6 0.06 15.651473553751766 4.347213475809506 24.125850399606982 0 0 0
847 37 6 0.06 15.228339734755192 9.123346092919547 20.072811925474106 0 0 0
841 37 6 0.06 14.627093335627164 7.571489654919525 17.884035111923485 0 0 0
64 3 7 -0.32 14.375176639969443 5.664327003938309 23.041084549144948 0 0 0
67 3 8 0.13 14.178751115249689 6.736228562059052 23.06423794012942 0 0 0
844 37 6 0.06 15.842087985341488 6.098091234450726 20.093524451007323 0 0 0
840 37 4 -0.12 15.327769914993638 6.983319420162218 19.71943888393911 0 0 0
845 37 6 0.06 14.31000130353794 6.900520369238391 20.10073060686094 0 0 0
974 43 5 0.08 16.972398552116374 3.045633480245435 20.854430229672335 0 1 0
849 37 8 0.13 16.42107800488693 7.311022765604517 22.023780593162044 0 0 0
66 3 6 0.06 16.04928738479139 6.152609710640064 24.247382105894133 0 0 0
68 3 8 0.13 14.888792782959635 5.3257157181138055 22.141288536186153 0 0 0
61 3 4 -0.12 15.289382595234068 5.372535445509965 24.2013291768837 0 0 0
838 37 6 0.06 15.728449107180605 4.649140798218759 18.141855439074593 0 0 0
837 37 4 -0.12 15.370001729861675 6.8433569146512205 18.2096143652901 0 0 0
834 37 4 -0.12 15.005253006062846 5.356975351841157 17.736824961282593 0 0 0
848 37 6 0.06 16.7823361534499 8.532965958982494 19.65444745819093 0 0 0
843 37 4 -0.12 15.896625938719808 8.277913828314187 20.236304684221647 0 0 0
851 37 8 0.13 15.258499404048035 8.475166849053167 22.311850961888815 0 0 0
890 39 6 0.06 11.506026901716998 9.6087318567334 24.64044955101571 0 0 0
887 39 6 0.06 12.880107657808411 8.4463171533772 22.09901154248946 0 0 0
886 39 4 -0.12 11.985365838672527 8.805741991874825 24.080508937479863 0 0 0
883 39 4 -0.12 12.3229660520275 9.207439288661693 22.645251750389136 0 0 0
888 39 6 0.06 11.335299736639087 9.271159622615187 22.188582284047488 0 0 0
459 20 8 0.13 11.82977110460273 9.85303079495804 19.09111486829832 0 0 0
891 39 6 0.06 12.945380271540193 8.580340210365172 24.544899314987866 0 0 0
842 37 6 0.06 16.319946206373366 7.159970311309755 17.778971284853 0 0 0
850 37 8 0.13 16.837938401669057 9.124945987169173 22.06616757135683 0 0 0
846 37 7 -0.32 16.17017409830531 8.330855831700202 21.732096178357573 0 0 0
2232 94 11 -0.8 12.978342479693735 2.9612412437692233 19.487865908764636 0 0 0
2322 102 13 0.4238 13.719590359761007 2.5553942650428754 20.84729646813588 0 1 0
2509 165 13 0.4238 12.573503674237614 2.9417315991056787 17.631429212455494 0 0 0
2247 94 6 0.06 11.617898461088974 7.952817735551832 17.528587325420915 0 0 0
980 43 6 0.06 18.049090605568864 4.946362645356617 21.885546859587226 0 1 0
979 43 6 0.06 18.7479589349741 4.275704945990754 23.34858992683879 0 1 0
986 43 6 0.06 19.127922643595614 7.282698812782668 22.345418501927064 0 1 0
976 43 6 0.06 19.435522101245432 3.349983633683469 20.507381557740583 0 1 0
975 43 4 -0.12 18.947118572708323 4.486306301512784 22.29784042180836 0 1 0
1169 51 6 0.06 18.513937423193127 7.070936008607944 19.110604061127297 0 1 0
972 43 4 -0.12 19.111895035772257 3.147719985660809 21.528384484066542 0 1 0
981 43 4 -0.12 19.792688017530306 6.749288964065138 23.024869002450394 0 1 0
978 43 4 -0.12 20.16620440164852 5.468959499388514 22.271079921618206 0 1 0
1165 51 4 -0.12 19.396865809886457 7.174923850687541 18.479956746616153 0 1 0
985 43 6 0.06 19.084518058725752 6.487340614287441 23.81097994117786 0 1 0
982 43 6 0.06 20.50774650456171 5.711008562933757 21.264673793459313 0 1 0
983 43 6 0.06 21.022674786365595 5.034596067242298 22.786714432521595 0 1 0
984 43 7 -0.32 21.04657574608467 7.5270536671415975 23.557922753029786 0 1 0
989 43 8 0.13 21.6516426867894 7.868724199535825 22.718132737260767 0 1 0
282 13 4 -0.12 23.554830258467653 3.7397126000156 19.04600360193201 0 1 0
286 13 6 0.06 23.218576671508213 3.853783041605295 20.076543995448034 0 1 0
285 13 4 -0.12 24.641035886328265 4.756698933132021 18.654700511934603 0 1 0
988 43 8 0.13 21.727448569120806 6.858471115500421 24.084706950180472 0 1 0
288 13 4 -0.12 24.01366137359847 6.151670960066063 18.709286838385744 0 1 0
2868 284 13 0.4238 24.661423704920406 3.518426845086146 22.54573859229986 0 0 0
287 13 6 0.06 22.66784333592054 3.772604869649836 18.413339132680882 0 1 0
293 13 6 0.06 23.14370261534353 6.226406911643881 18.05684650985074 0 1 0
2866 284 13 0.4238 23.43559656918456 4.471893192734658 22.94875282951906 0 0 0
2867 284 14 -0.8476 24.30931315488918 4.450698835027342 22.46278624866176 0 0 0
292 13 6 0.06 23.620079230938842 6.2976683019607345 19.715204279975552 0 1 0
1162 51 4 -0.12 19.855462465577034 5.745111080079196 18.32095503985036 0 1 0
1173 51 6 0.06 20.940210764439215 7.702623377494091 19.970358058910335 0 1 0
1168 51 4 -0.12 20.421687079964638 8.18790518565662 19.143480318349884 0 1 0
1175 51 6 0.06 19.125825940759196 9.096426368896946 20.7999436180886 0 1 0
1171 51 4 -0.12 19.54578689914277 9.35209643512055 19.827134479239337 0 1 0
1176 51 6 0.06 18.73286455097126 9.597843862900692 19.143864740634108 0 1 0
987 43 8 0.13 20.7413501625322 8.386951113879004 24.154165854767434 0 1 0
299 13 8 0.13 23.534871827658826 8.862691065404734 18.264453734792582 0 1 0
294 13 7 -0.32 24.453411179674784 8.641995634799205 18.808210112330705 0 1 0
2303 96 6 0.06 24.472302518727524 8.511598736463803 23.131262593741365 -1 0 0
297 13 8 0.13 24.19087524851173 8.720627479032036 19.863190680382377 0 1 0
1172 51 6 0.06 20.954312925376527 8.650009657043224 18.31229969684499 0 1 0
1170 51 6 0.06 19.011239125018456 7.57746563890254 17.543290220471658 0 1 0
1167 51 6 0.06 20.014879010880236 5.327482870213133 19.31507024781517 0 1 0
1163 51 6 0.06 18.044587427414505 4.613884043391746 18.331298294438195 0 1 0
1161 51 6 0.06 20.18789276667076 3.264449698582558 17.768617347216242 0 1 0
2809 265 13 0.4238 22.336608693293368 2.5629598231495145 24.685495683577198 0 1 0
2810 265 14 -0.8476 22.526141393095507 3.353812140932441 24.10358221242187 0 1 0
2811 265 13 0.4238 23.232354709918297 3.872224967482293 24.58576912824991 0 1 0
1159 51 4 -0.12 18.789259601087995 4.850755230346711 17.5713986537667 0 1 0
1166 51 6 0.06 20.80015571443971 5.637779066632592 17.787919841268213 0 1 0
43 2 6 0.06 32.15562072619411 6.800171041075861 22.672026680023468 0 0 0
38 2 4 -0.12 32.124886805541486 7.623014187544445 23.386223227101674 0 0 0
46 2 8 0.13 30.055285867794918 7.592057523250185 24.24208429494844 0 0 0
630 28 4 -0.12 32.14601502528107 3.0861144211204756 21.936826369225226 0 0 0
41 2 7 -0.32 31.084530990637692 7.427105533063681 24.560733587030445 0 0 0
641 28 6 0.06 30.96057724067661 4.461322957832346 24.038763495406506 0 0 0
291 13 4 -0.12 24.976364366528063 7.279809293881063 18.30446920364563 0 1 0
2302 96 6 0.06 25.267900520933747 6.938856531426295 23.216478072981417 -1 0 0
290 13 6 0.06 25.396943430620833 4.583311400102883 19.42061995358084 0 1 0
2304 96 6 0.06 25.037710798787792 7.648541536195499 21.626731746407547 -1 0 0
2857 281 13 0.4238 26.12935114952846 5.637339002972414 21.16378639962531 -1 0 0
296 13 6 0.06 25.901566780389732 7.28543719502758 18.880716415332277 0 1 0
2858 281 14 -0.8476 26.866573673855413 5.0472967227541945 21.49294646931928 -1 0 0
2859 281 13 0.4238 26.431645247208365 4.754647046822036 22.344525893568683 -1 0 0
2788 258 13 0.4238 27.694509924412444 4.753234663742904 23.794590777907743 0 0 0
434 19 6 0.06 30.431864691890503 4.656996321557686 18.330024865449595 0 0 0
2790 258 13 0.4238 28.33750496707393 5.6663015501613305 22.61286409876805 0 0 0
2789 258 14 -0.8476 28.39460610907597 5.435580580973398 23.584203676380685 0 0 0
432 19 7 -0.32 29.57985604736218 6.479640242661361 19.18487233827421 0 0 0
435 19 8 0.13 30.48442023335002 6.587992764334916 19.78329979530946 0 0 0
429 19 4 -0.12 29.9076061437287 5.564282578597474 18.029897090411545 0 0 0
437 19 8 0.13 28.86998215642549 6.03118271163323 19.87989533001059 0 0 0
436 19 8 0.13 29.34256452255916 7.529818889967998 19.014844214217714 0 0 0
638 28 6 0.06 30.0396266822708 3.4982657875706513 21.89122451024376 0 0 0
633 28 4 -0.12 30.729208764850792 2.924700302888086 22.51057190758511 0 0 0
2527 171 13 0.4238 27.293468910166567 3.459896043090979 20.418339585509 0 0 0
636 28 4 -0.12 30.69529434002128 3.405352554901173 23.98734808354874 0 0 0
2301 96 6 0.06 27.545487145144563 7.848410618141407 22.246063610545136 -1 0 0
39 2 6 0.06 30.88976333777294 9.092748774964264 22.471246848669573 0 0 0
1805 77 9 0.7 26.500182669429698 2.618509481280243 23.84564117794824 0 1 0
632 28 6 0.06 31.30273354544965 2.993499344504486 19.995156191928825 0 0 0
431 19 6 0.06 27.902059000285064 4.662596546533968 17.899181831057767 0 0 0
35 2 4 -0.12 31.962019059553562 8.985624572724014 22.635210547896264 0 0 0
40 2 6 0.06 32.09184757192233 9.803344015910028 23.344133312639883 0 0 0
298 13 8 0.13 25.24723741923503 9.341941244840747 18.54742656730421 0 1 0
2299 96 12 -0.18 25.235580513031614 7.882954955017827 22.67267148953242 -1 0 0
2297 96 6 0.06 26.097745783424553 9.698232060984825 21.07100634076964 -1 0 0
2296 96 4 -0.12 26.71360888973972 8.435715515619819 22.634835465521622 -1 0 0
2294 96 6 0.06 28.84428946264177 9.680196425825565 21.62863530085751 -1 0 0
2293 96 4 -0.12 26.655595528312027 9.783077605147046 22.003581758532377 -1 0 0
2300 96 6 0.06 27.07070314767476 8.572972868036839 23.65549021980006 -1 0 0
289 13 6 0.06 25.08421869892238 4.559818095509339 17.67852482935517 0 1 0
640 28 6 0.06 29.651240551707183 3.411993099104437 24.30039701077357 0 0 0
1807 77 11 -0.8 26.571451565677908 3.8364544611436413 24.226490114109442 0 1 0
428 19 6 0.06 27.415933972321877 6.8886106934606675 17.423613313541303 0 0 0
453 20 6 0.06 9.751738259699026 12.598198065036483 17.752159871745086 0 0 0
339 15 6 0.06 6.460663725055516 10.922247524915958 21.2244454175428 0 0 0
28 2 3 0.35 2.6137196047282436 12.079918731395841 18.507258991948238 1 0 0
2359 115 13 0.4238 6.998684667844893 12.763978515820167 18.26545540654299 0 0 0
338 15 6 0.06 7.850166094844968 11.452955700060981 20.495237380059752 0 0 0
334 15 4 -0.12 7.511468696856631 11.085302959677378 21.463848532076923 0 0 0
335 15 6 0.06 7.53085634994883 11.4198496853931 23.562206669172692 0 0 0
331 15 4 -0.12 7.59363995053224 12.03404507453014 22.663922603789295 0 0 0
333 15 6 0.06 5.459771735170792 12.320399441760967 22.56639373006781 0 0 0
328 15 4 -0.12 6.369073607856146 12.919827534205027 22.610531748301714 0 0 0
332 15 6 0.06 6.333573118281786 13.36051618423714 21.614225948606258 0 0 0
324 15 2 0.2 6.253831887952856 14.02586567778325 23.664793820813443 0 0 0
30 2 5 0.08 4.817192784935222 10.638819177205777 19.825090401530147 1 0 0
26 2 3 0.35 3.6238804102423323 12.741603780764224 19.52463269696049 1 0 0
25 2 2 0.2 3.7946950420842525 10.684373384830927 19.45023683573379 1 0 0
330 15 5 0.08 7.121259832019228 14.666382888088608 23.505424661804707 0 0 0
329 15 5 0.08 6.272086170171562 13.553597846971265 24.64699650291634 0 0 0
327 15 3 0.35 4.247804161296209 14.152434523999503 23.31965184182292 0 0 0
336 15 6 0.06 8.4956288148766 12.645141159483671 22.696628898828347 0 0 0
2543 176 14 -0.8476 3.812287531570509 14.14269243118963 20.562713852944743 0 0 0
29 2 4 -0.12 2.7805129507693525 10.440269946691725 20.562380417068507 1 0 0
2842 276 13 0.4238 3.095493499068392 12.15228785617153 24.24783853807116 1 0 0
34 2 6 0.06 2.7477267495041073 11.348622298140096 21.163972546830145 1 0 0
24 2 1 -0.48 3.550796474887139 11.97634770176276 18.869548496751555 1 0 0
2544 176 13 0.4238 3.0967050782089984 14.648836536191432 21.04412303156263 0 0 0
2327 104 14 -0.8476 9.860179412980113 13.800994441815696 20.328913941586695 0 0 0
2360 115 14 -0.8476 6.583955539501678 11.912171562331803 17.94542676501761 0 0 0
2567 184 14 -0.8476 7.371411679246662 14.554186554281003 19.065249266132835 0 0 0
2566 184 13 0.4238 8.20907601611054 14.296309019151632 19.546717479217417 0 0 0
323 15 1 -0.48 5.03757854317111 14.777607355600912 23.393871293310458 0 0 0
2568 184 13 0.4238 6.790884284517729 15.078370017407698 19.688318909550585 0 0 0
2542 176 13 0.4238 4.515523885491822 14.848118387445346 20.474235340421252 0 0 0
326 15 3 0.35 5.131176569119671 15.358781304819239 22.573158536458642 0 0 0
1558 67 11 -0.8 5.662959804069965 15.941509163293084 20.4068744173088 0 0 0
1555 67 9 0.7 6.129674525715034 16.91367618926914 21.044832441351264 0 0 0
1557 67 11 -0.8 5.616262819085194 17.1518784553617 22.152430265031132 0 0 0
325 15 3 0.35 4.775268181336942 15.22056733697275 24.26282107223945 0 0 0
2310 98 13 0.4238 4.0073026294696446 16.38239211667593 19.999053714510392 0 0 0
901 40 3 0.35 3.3483610301823354 16.920933468387148 23.77631129040468 0 0 0
900 40 3 0.35 4.027082016718109 17.29058875696441 22.449596005108805 0 0 0
2309 98 14 -0.8476 3.205272134801268 16.839058076577913 19.614090033291316 0 0 0
2308 98 13 0.4238 3.234197046750621 16.400573837224584 18.71581986785642 0 0 0
1561 67 6 0.06 8.097635518029247 17.214562788876435 20.71031529878447 0 0 0
2326 104 13 0.4238 9.763607795465978 14.341398611549696 21.16475531698184 0 0 0
2843 276 14 -0.8476 3.6153502886785995 11.402106367480526 24.656460758040875 1 0 0
2346 110 13 0.4238 6.845237161153993 15.045593336426846 17.445258036926276 1 0 0
27 2 3 0.35 4.184575365151629 12.060112514462725 18.087627174548537 1 0 0
2361 115 13 0.4238 5.871079592182799 12.360521425749035 17.406181835317486 0 0 0
884 39 6 0.06 13.842864689648815 10.460462886380693 23.18114261395879 0 0 0
880 39 4 -0.12 13.018915075439388 10.537379073012296 22.47171823229762 0 0 0
885 39 6 0.06 13.492535728558114 10.418344235491002 21.49724077373819 0 0 0
458 20 8 0.13 10.638402354605784 11.092382596443777 19.49949168529809 0 0 0
460 20 8 0.13 12.14997169031124 11.592041017756774 18.960895114627597 0 0 0
455 20 7 -0.32 11.410609320581827 10.811035785097872 18.78350817439932 0 0 0
881 39 5 0.08 11.619762532829084 12.023929193086982 21.57529335090097 0 0 0
876 39 2 0.2 12.126116118757494 11.850036895146992 22.524745588359384 0 0 0
875 39 1 -0.48 12.987689039523286 12.977980404290031 22.87318899579856 0 0 0
879 39 3 0.35 12.400399528735466 13.799318008880178 22.89745308329228 0 0 0
877 39 3 0.35 13.32024166847698 12.838706660389732 23.816642994660018 0 0 0
878 39 3 0.35 13.797420810266779 13.026167879641015 22.271436664676617 0 0 0
882 39 5 0.08 11.306346374493893 11.791399974640434 23.240728341624347 0 0 0
2694 226 13 0.4238 12.9405199286124 14.623296326272358 19.361857591144286 0 0 0
1408 61 11 -0.8 14.199661458051422 13.899740250923651 20.2604192742711 0 0 0
2328 104 13 0.4238 10.685974381414592 14.21250819882074 19.943279658421257 0 0 0
2860 282 13 0.4238 10.396778676401535 14.185567608209873 23.686815699923255 0 0 0
1413 61 6 0.06 14.227301209316101 12.648521363758817 18.157916183579623 0 0 0
2615 200 14 -0.8476 16.071137953961184 10.597393355066938 24.016030200739767 0 0 0
1414 61 6 0.06 14.308909686185782 11.095949961246395 19.10725548742103 0 0 0
1405 61 9 0.7 15.191172344929843 13.184870712771412 20.51322160974425 0 0 0
1407 61 11 -0.8 15.556764604932985 12.925937880349386 21.648876995670854 0 0 0
1406 61 10 -0.22 15.899536020949641 12.491123044727876 19.364780770406252 0 0 0
1409 61 4 -0.12 14.851266786036778 11.825074313888923 18.505326513762498 0 0 0
2512 166 13 0.4238 16.27056797859843 13.090758045371915 23.095229026955977 0 0 0
2614 200 13 0.4238 15.773980751637419 11.078715746676162 23.191397168969957 0 0 0
1410 61 6 0.06 16.522840192575817 11.726140368386574 19.82779851306581 0 0 0
1411 61 6 0.06 16.557943237954227 13.086371770986363 18.73211110945118 0 0 0
2616 200 13 0.4238 16.52697194691344 11.375398670107698 24.448368525848327 0 0 0
2513 166 14 -0.8476 16.44437192767107 13.380065670686344 24.036550772869486 0 0 0
2692 226 13 0.4238 12.200852279008298 15.892518427669668 18.755708917764313 0 0 0
2693 226 14 -0.8476 12.045210027761575 14.953789761322577 19.063210564812813 0 0 0
2862 282 13 0.4238 10.589431624455939 15.660166690386509 23.519073606556773 0 0 0
2540 175 14 -0.8476 10.02129191836697 17.093198313001785 24.33843104655379 0 0 0
2861 282 14 -0.8476 10.780178186893552 14.81837736940834 23.01409714812602 0 0 0
2197 92 6 0.06 10.321934825358138 17.014405609792956 20.020724396750623 0 0 0
2201 92 6 0.06 11.648876699284267 17.26522327081311 22.05753291516114 0 0 0
800 35 7 -0.32 16.395452644689456 15.604283232213756 18.01460340951762 0 0 0
805 35 8 0.13 15.707306125718187 15.686965893425327 18.85585842671651 0 0 0
8 1 5 0.08 14.396834498759297 16.44361001766967 22.786120943408104 0 0 0
2 1 2 0.2 15.359040756286282 16.788999287423476 23.164218045417645 0 0 0
6 1 4 -0.12 16.412828396886912 16.66362367035675 22.04307151519587 0 0 0
11 1 6 0.06 16.81861985777529 15.65215851657711 22.02400426009401 0 0 0
1 1 1 -0.48 15.804738939443132 16.12690200214606 24.332100966350627 0 0 0
3 1 3 0.35 15.923527043504498 15.128675287682084 24.234499613397848 0 0 0
4 1 3 0.35 16.60662277119083 16.579911108463214 24.74665885152823 0 0 0
10 1 6 0.06 15.904729370565507 16.810080772762543 21.08993054773815 0 0 0
804 35 8 0.13 17.26963419751352 15.064667508275583 18.37890209201935 0 0 0
2514 166 13 0.4238 15.595316982597044 13.228460385283034 24.542628716616512 0 0 0
1416 61 6 0.06 16.150240830976536 10.30659338900799 17.53480299858252 0 0 0
797 35 4 -0.12 16.59902701408566 16.98149655146716 17.451881636127393 0 0 0
1179 51 6 0.06 19.841320318600417 11.412942721544086 20.565606530750163 0 1 0
1353 58 6 0.06 19.15195531440775 12.805994563090705 24.62510224283 0 0 0
1174 51 12 -0.18 20.415444106928145 10.603067140314907 20.11552270118926 0 1 0
1177 51 6 0.06 21.235185895235556 10.47963542110535 20.823251527451365 0 1 0
1178 51 6 0.06 20.826900333017875 10.933042822369767 19.161629691578696 0 1 0
1354 58 6 0.06 20.109238534356503 12.558793204548696 23.272216412407104 0 0 0
1349 58 12 -0.18 20.084969158014328 13.156202649445978 24.18359174412659 0 0 0
1352 58 6 0.06 20.879678074210627 12.745362564421015 24.806279615616603 0 0 0
1127 49 6 0.06 20.999840887026203 13.440556545797769 20.97801311786491 0 0 0
1118 49 4 -0.12 23.784501405323905 13.378100161629838 19.5275853049146 0 0 0
1122 49 6 0.06 23.668644027316752 12.300156552121104 19.41486141597383 0 0 0
567 25 4 -0.12 24.665816825064738 12.74591349663188 23.802626522463736 0 0 0
1123 49 6 0.06 23.49203078484874 13.835211177474108 18.582279800778075 0 0 0
572 25 6 0.06 24.020737164076515 13.62035401540692 23.717080967750825 0 0 0
575 25 8 0.13 23.092263407419146 11.455298616249065 23.151818308313693 0 0 0
570 25 7 -0.32 23.713925427527013 11.571999351176174 24.039517176631993 0 0 0
573 25 8 0.13 24.292754531833854 10.666200075940244 24.220006995989294 0 0 0
1351 58 6 0.06 19.458537934515768 15.1240436124072 23.525226297080415 0 0 0
17 1 6 0.06 19.018272941268986 16.507653036249017 21.05103759904505 0 0 0
1345 58 6 0.06 19.65784886069344 17.238677297500406 24.80003188058338 0 0 0
1124 49 12 -0.18 21.40879559334232 14.213252371861353 20.327022160344136 0 0 0
1121 49 4 -0.12 22.970533273477354 14.040054672535133 20.61419251709127 0 0 0
1126 49 6 0.06 23.162565893405525 13.47771560283656 21.52797053675193 0 0 0
1346 58 4 -0.12 20.26935891123708 14.676206395835768 24.099772380223726 0 0 0
1350 58 6 0.06 21.234044772914974 14.851901628938787 23.623742489917138 0 0 0
1129 49 6 0.06 21.065774123993787 13.93873532224522 19.32949087142287 0 0 0
1128 49 6 0.06 21.047394517131522 15.199599016455064 20.61788568968544 0 0 0
1125 49 6 0.06 23.373025430494458 15.019446055665147 20.872813169582077 0 0 0
1035 45 8 0.13 22.921045204344733 16.556027493981844 23.73897985245977 0 0 0
1925 81 6 0.06 22.363926558071373 17.247936576756132 19.292953498213926 0 0 0
1922 81 6 0.06 24.7974575205655 16.51582210962259 18.551067311486417 0 0 0
1918 81 4 -0.12 24.189301241894626 17.138633057891873 17.895060802653333 0 0 0
1108 49 11 -0.8 30.947725235764597 12.34034453338093 17.63389091633242 0 0 0
2283 96 11 -0.8 32.19871773871725 13.645657918056909 23.85706418161879 -1 0 0
571 25 6 0.06 25.12598008232812 12.569731727904609 22.83036021135427 0 0 0
1115 49 4 -0.12 25.2886829899424 13.468907660427826 19.894060791575875 0 0 0
1120 49 6 0.06 25.616092478291847 13.005245662004615 20.82460503972767 0 0 0
1116 49 6 0.06 26.069486135620476 11.715695986945546 19.049954460711493 0 0 0
2295 96 6 0.06 27.85933809389354 10.840813291281222 20.686551585668273 -1 0 0
2290 96 4 -0.12 28.020004141644915 10.392360915609443 21.66694381223446 -1 0 0
1112 49 4 -0.12 26.122838646087942 12.78525943044012 18.84678073536173 0 0 0
1106 49 10 -0.22 28.584909367653196 12.51879678642678 17.938980847261455 0 0 0
33 2 6 0.06 31.631717666302826 10.224996331292019 19.96761008179452 0 0 0
2298 96 6 0.06 26.119101740142256 10.39978178975229 22.72465206395435 -1 0 0
1109 49 4 -0.12 27.581839134918184 13.323924352641772 18.820679466180504 0 0 0
1114 49 6 0.06 27.988990206561947 13.29749132110368 19.831432317491533 0 0 0
2291 96 6 0.06 27.75156282673078 12.499701544238727 22.435658733672156 -1 0 0
2287 96 4 -0.12 28.42523063357337 11.65958775896991 22.604396759949278 -1 0 0
2288 96 6 0.06 30.51999930518371 11.506281752721106 22.667333776728086 -1 0 0
2292 96 6 0.06 28.394717519350063 11.245903970352947 23.612378292957278 -1 0 0
2289 96 6 0.06 29.936795366304885 12.326636413394157 21.30763068396294 -1 0 0
2284 96 4 -0.12 29.783264624910146 12.258191665568063 22.384587346589274 -1 0 0
2281 96 10 -0.22 29.909711100610757 13.5510182224655 23.099456973528948 -1 0 0
2286 96 6 0.06 29.516241859278484 13.316592602318103 24.088556877728347 -1 0 0
2280 96 9 0.7 31.36970170234635 14.104369705149937 23.0354302051903 -1 0 0
2285 96 6 0.06 29.17594977086714 14.279129909449834 22.753711809967896 -1 0 0
1110 49 6 0.06 28.70281242614335 11.474463904434849 18.228047983039247 0 0 0
1113 49 6 0.06 27.583312085548094 14.394444646168418 18.615554747124886 0 0 0
1117 49 6 0.06 25.714901984475272 13.009705484693605 17.861233337705176 0 0 0
1107 49 11 -0.8 30.076834225262605 14.332047960310726 18.259353183740625 0 0 0
1105 49 9 0.7 29.996899385258473 13.117364443920538 17.957099309712845 0 0 0
902 40 3 0.35 32.22478008376892 16.960750483814692 22.373657253336628 -1 0 0
2282 96 11 -0.8 31.64148240794479 15.069758347536148 22.287862988010815 -1 0 0
1119 49 6 0.06 25.609784417966182 14.497503341381078 20.05830698597063 0 0 0
1032 45 6 0.06 25.33591266620168 16.90558334880421 24.405189316167856 0 0 0
1028 45 6 0.06 25.88644817725706 15.406981063715808 22.626867556044292 0 0 0
1024 45 4 -0.12 25.748878968784727 16.441447211616182 22.312150971190718 0 0 0
1027 45 4 -0.12 25.039021876983924 17.23231776775738 23.40859886216057 0 0 0
1029 45 6 0.06 25.227800264919093 16.282020446860535 21.36814244453143 0 0 0
1017 45 3 0.35 30.97262713037114 16.86157108698685 19.665285549104855 0 0 0
1018 45 4 -0.12 27.921341193958195 16.384715281879686 20.912613410340775 0 0 0
1022 45 6 0.06 28.05291375337411 15.323224745509284 21.122419519423456 0 0 0
1013 45 1 -0.48 29.98513917787337 16.68860327738156 19.54263612266635 0 0 0
1021 45 4 -0.12 27.13173280882597 17.016487883708294 22.025300375603265 0 0 0
1026 45 6 0.06 27.78548587902097 17.04578230625838 22.896988842660296 0 0 0
1020 45 5 0.08 29.891958824056122 16.62785269624763 21.5769860546244 0 0 0
1014 45 2 0.2 29.275380322436288 17.01325733760705 20.764960037477326 0 0 0
1015 45 3 0.35 29.787532953559726 15.73542730776241 19.273376689032602 0 0 0
565 25 6 0.06 27.013546110559975 14.08159608153759 24.066342721094642 0 0 0
1016 45 3 0.35 29.748096495838922 17.334470226893846 18.803203919378397 0 0 0
1023 45 6 0.06 27.390637551566368 16.68487690679835 20.009093251477708 0 0 0
2590 192 13 0.4238 31.79140368509603 14.727336973749159 17.700723969556456 0 0 0
2619 201 13 0.4238 2.8889225971036496 19.185351175754874 17.465049204781124 0 0 0
2635 207 13 0.4238 6.663165093538332 17.921897956334405 23.294181082092102 1 0 -1
898 40 1 -0.48 3.159853547370804 17.455451091355187 22.9403390981211 0 0 0
2636 207 14 -0.8476 7.119665937301089 18.00413595014868 24.18009144943839 1 0 -1
1560 67 6 0.06 7.087759830712701 17.658572507416785 19.3617166988695 0 0 0
1556 67 10 -0.22 7.186472292583554 17.749932337076743 20.44338266512542 0 0 0
1566 67 6 0.06 4.9207597831116265 19.59441032883608 20.591544382369776 0 0 0
1559 67 4 -0.12 7.092706538498811 19.225682668894255 20.746276505039734 0 0 0
1564 67 6 0.06 7.251146642002543 19.31576626249782 21.82092701201873 0 0 0
899 40 2 0.2 2.8413595529569937 18.842394206036403 23.209825302773645 0 0 0
907 40 6 0.06 4.923664770282521 19.274739225279944 23.737960454724476 0 0 0
903 40 4 -0.12 3.915211273862408 19.4508005801275 24.112281149008457 0 0 0
905 40 5 0.08 2.926887821939363 19.23418681307129 22.196279304918725 0 0 0
1562 67 4 -0.12 5.884711927635436 19.962330901017037 20.240086350165928 0 0 0
1567 67 6 0.06 5.891651748582506 19.884692110411407 19.152880718876492 0 0 0
1563 67 6 0.06 7.919620533906324 19.613531585418315 20.151399635370808 0 0 0
2539 175 13 0.4238 9.336891961208696 17.63205563268459 23.847286569156825 0 0 0
2198 92 6 0.06 9.79236050122268 18.40943563893277 20.735128227231495 0 0 0
2192 92 6 0.06 9.131120432910013 18.74447896626658 18.19587547499257 0 0 0
688 30 8 0.13 9.63893587120568 20.110307919767365 23.865468524921173 0 0 0
1573 67 6 0.06 4.999799468845307 22.378577951063097 19.057984349913145 0 0 0
1578 67 6 0.06 5.827850188887093 24.727152412220278 19.97657830630786 0 0 0
1572 67 6 0.06 3.7628614407683783 21.561304638329666 20.006818014102407 0 0 0
1568 67 4 -0.12 4.6542947654324465 22.184998429280032 20.073486931945585 0 0 0
1565 67 4 -0.12 5.830825241437858 21.39263229620309 20.73429529379377 0 0 0
1575 67 6 0.06 3.7527490369686873 23.27160983945255 21.68251153997151 0 0 0
1569 67 6 0.06 6.761518775609536 21.91262816354317 20.507346289034462 0 0 0
906 40 4 -0.12 3.99341535899334 20.927366731647634 24.381704712738838 0 0 0
911 40 6 0.06 3.7604274177746353 21.413473356127998 23.43433520305191 0 0 0
1570 67 6 0.06 5.642875110052373 21.31155281545725 21.80489928507291 0 0 0
917 40 6 0.06 4.713791594378645 23.33927315867587 23.90623758462219 0 0 0
1571 67 4 -0.12 4.223553855785757 23.496099617631934 20.725412181475434 0 0 0
913 40 6 0.06 6.046911589619965 21.0720993280683 23.912643487014122 0 0 0
909 40 4 -0.12 5.386546239362195 21.431424440298464 24.70188050775834 0 0 0
1574 67 12 -0.18 5.287333492734609 24.605616959985845 20.91528106561346 0 0 0
912 40 4 -0.12 5.274590881044007 22.96051583979713 24.760719350851968 0 0 0
920 40 8 0.13 7.07225483142642 23.473036819667733 23.65866910961552 0 0 0
1577 67 6 0.06 6.0232497248928185 24.243959494309458 21.633419772458108 0 0 0
689 30 8 0.13 8.187783897951308 21.012279554882 23.96407827464073 0 0 0
915 40 7 -0.32 6.586292153793465 23.64597541197492 24.61889020322343 0 0 0
2618 201 14 -0.8476 3.178214888259638 19.90925756304757 18.09135851519083 0 0 0
918 40 8 0.13 6.410457814296422 24.71886107677064 24.696932961474637 0 0 0
1576 67 6 0.06 3.383272809483354 23.893704656529543 20.1562636795514 0 0 0
2177 91 6 0.06 9.363641980213531 23.069964674687956 19.951675489345057 0 0 0
685 30 7 -0.32 9.203025409547955 21.064923741452404 23.570879474138447 0 0 0
690 30 8 0.13 9.242473489235326 21.214770933433332 22.49195327780684 0 0 0
2178 91 6 0.06 9.418716911195645 21.783144631565552 18.891896596949497 0 0 0
686 30 6 0.06 9.738563034156204 23.05127194804509 23.655425306143304 0 0 0
2637 207 13 0.4238 6.45697893207672 17.571691080141164 24.791508447528027 1 0 -1
2617 201 13 0.4238 4.125982277761567 20.008571461056892 17.788262743387513 0 0 0
2200 92 6 0.06 12.684669077271217 17.572104055288253 20.6782053342688 0 0 0
2196 92 4 -0.12 11.806582607191928 17.935148093322532 21.212298253071474 0 0 0
2541 175 13 0.4238 10.808661551013342 17.70518431831174 24.412700918791415 0 0 0
2193 92 4 -0.12 10.674103311910915 18.026203745305487 20.221557411753423 0 0 0
2194 92 6 0.06 11.072874913790645 19.885478836279376 19.292032160157575 0 0 0
2199 92 12 -0.18 12.17739825433215 19.304016668815088 21.82808938192593 0 0 0
2204 92 6 0.06 13.01929798195919 19.177041860646874 22.50865845165245 0 0 0
2203 92 6 0.06 11.343281173094807 19.587847699217722 22.469790753497534 0 0 0
2202 92 6 0.06 12.375258093659959 20.094040683122795 21.103654741380335 0 0 0
2190 92 4 -0.12 11.078740306490099 18.83798951270178 18.990662355115745 0 0 0
2195 92 6 0.06 12.106205239932745 18.62648874723043 18.694562194703867 0 0 0
2187 92 4 -0.12 10.15942598884627 18.594315434205694 17.867043278427154 0 0 0
1804 76 6 0.06 14.609915127177112 19.97162227816369 19.15816428912934 0 0 0
7 1 5 0.08 15.129832420702014 17.77532815945494 23.567592459962764 0 0 0
14 1 6 0.06 16.985625031847807 18.623064127644906 22.05054644149241 0 0 0
801 35 6 0.06 17.065116489041515 17.655555939590933 18.170558584771452 0 0 0
2174 91 12 -0.18 10.057964526585284 22.30502567124993 19.604002444622907 0 0 0
682 30 4 -0.12 10.041244022179034 22.169042270121345 24.219470538090164 0 0 0
2179 91 6 0.06 10.23429377357081 21.584829357313023 20.402950048131043 0 0 0
2171 91 4 -0.12 11.34995441887815 22.857794390247662 19.086554925442428 0 0 0
2175 91 6 0.06 12.14311672218 22.12426458408604 18.941918831367403 0 0 0
2173 91 6 0.06 12.343186289787255 23.685544150436073 20.89473061571748 0 0 0
2168 91 4 -0.12 11.95906018327136 24.017499835081285 19.930186892466857 0 0 0
680 30 6 0.06 11.664880076041085 24.447418081200414 23.787442986358297 0 0 0
2169 91 6 0.06 13.81156428292339 23.951702081990316 18.799608697603045 0 0 0
676 30 4 -0.12 12.190980301510765 23.582759636438666 24.192012327125777 0 0 0
2165 91 4 -0.12 13.118481907953516 24.71335754523413 19.156833859084298 0 0 0
2172 91 6 0.06 11.15584566120122 24.743832691124595 20.054199422862133 0 0 0
2176 91 6 0.06 11.1936032477253 23.230741384454152 18.074350960912803 0 0 0
679 30 4 -0.12 11.498100988482689 22.24026418441981 23.845690849112344 0 0 0
673 30 4 -0.12 13.647370140876872 23.733091548740294 23.81179339160701 0 0 0
684 30 6 0.06 11.491366983269318 21.959091426171877 22.79260559003292 0 0 0
678 30 6 0.06 13.800591334357922 24.29253833725645 22.88895289565502 0 0 0
677 30 6 0.06 14.123648431793246 22.758650440646715 23.703554958813577 0 0 0
1799 76 12 -0.18 14.947911789244598 21.00683540215856 19.111430324385985 0 0 0
1802 76 6 0.06 15.883997015246813 20.91358618405696 19.66201285689351 0 0 0
1803 76 6 0.06 14.30442819078649 21.7566727868237 19.57160939435503 0 0 0
1977 83 6 0.06 15.422403292262487 22.452537453007093 22.097653732464423 0 0 0
1971 83 4 -0.12 16.773542580858972 23.54378253482835 20.834075426611854 0 0 0
1975 83 6 0.06 16.136789653479312 23.195599602201398 20.020806442456625 0 0 0
1976 83 6 0.06 16.31180176669535 24.503502900667787 21.066076021338908 0 0 0
1974 83 12 -0.18 16.498360782095574 22.544262421918713 21.94934941492054 0 0 0
1979 83 6 0.06 16.99287296249328 22.92438134609198 22.843250601680626 0 0 0
1978 83 6 0.06 16.912707896558054 21.578352545195145 21.660512679502407 0 0 0
670 30 3 0.35 16.386129166498044 24.446339655518205 24.126369590707785 0 0 0
798 35 6 0.06 14.570447852391581 17.64395908891985 17.709026110751417 0 0 0
1800 76 6 0.06 15.625278117741539 22.46585737889537 17.69747015261678 0 0 0
683 30 6 0.06 11.995191418645573 21.453542979092497 24.413196687213503 0 0 0
1796 76 4 -0.12 15.252443095809113 21.44198103636554 17.66984121556346 0 0 0
2191 92 6 0.06 10.152712871022358 17.555590697697575 17.536743525346786 0 0 0
756 33 6 0.06 19.48729094372686 18.92669538408955 17.64727293552017 0 0 0
755 33 6 0.06 18.2625523905879 20.072444795677644 18.15778493569658 0 0 0
9 1 4 -0.12 17.524499547981872 17.68959866252454 22.212868895891685 0 0 0
13 1 6 0.06 17.901059814249642 17.65723901557113 23.235242227871723 0 0 0
20 1 6 0.06 20.168046203386297 18.080100585791193 22.55132181132248 0 0 0
16 1 6 0.06 18.335143726989944 17.780856338635914 20.096290506368934 0 0 0
12 1 4 -0.12 18.653189052295147 17.5330548375253 21.10897683823268 0 0 0
22 1 8 0.13 19.114924270741106 20.20663668366401 22.388677965481037 0 0 0
21 1 8 0.13 19.26713127158426 20.17871182875688 20.588282407999607 0 0 0
15 1 4 -0.12 19.86807804772412 18.35659887440619 21.540549915976648 0 0 0
18 1 7 -0.32 19.668250331208174 19.816011689415625 21.534667180275186 0 0 0
1926 81 6 0.06 22.431891004356295 18.37506661378218 17.973568449801306 0 0 0
19 1 6 0.06 20.529271376887028 18.072690648294362 20.721824355633217 0 0 0
1030 45 7 -0.32 23.501973097362264 17.416151583665087 23.40611145323399 0 0 0
23 1 8 0.13 20.65589681069671 20.26470478609408 21.641067169419323 0 0 0
1921 81 4 -0.12 23.053890097801403 17.837594499920336 18.689342769921343 0 0 0
1033 45 8 0.13 23.20533083404164 18.162716955580706 24.142817325980776 0 0 0
1929 81 6 0.06 24.423969730058726 18.364660732487145 20.35500518940597 0 0 0
1927 81 6 0.06 23.900130030199882 19.739161978191532 19.266860658752574 0 0 0
1924 81 12 -0.18 23.629981695944757 18.79886330072926 19.747433667687286 0 0 0
1034 45 8 0.13 23.173088993489024 17.543835668253966 22.374789928371325 0 0 0
1928 81 6 0.06 22.883015899639734 19.095496178400182 20.483737330666212 0 0 0
1967 83 6 0.06 20.40267616568003 24.635805079357365 18.92791951103774 0 0 0
1973 83 6 0.06 18.582006767868574 23.010908203933973 19.81206366889142 0 0 0
1968 83 4 -0.12 18.27481667248557 23.742726702917683 20.559170091681313 0 0 0
1972 83 6 0.06 18.838847614614213 23.73193509655988 21.491824739784093 0 0 0
780 34 8 0.13 18.747744319804383 22.477306963277737 24.19470297579318 0 0 0
1395 60 6 0.06 23.649349586478394 23.155797127877136 24.114624716276577 0 0 0
774 34 4 -0.12 20.453988115277784 23.748914029189937 24.642119263985165 0 0 0
779 34 6 0.06 20.047578189553697 24.61906957762409 24.126607548656963 0 0 0
1401 60 6 0.06 21.88930449833687 23.074391094855425 20.590472792808157 0 0 0
778 34 6 0.06 21.11836747094336 23.164408950638084 24.005687093445918 0 0 0
1400 60 6 0.06 22.654362919092932 24.21894830148429 21.635374237518754 0 0 0
1396 60 4 -0.12 22.80938601615312 23.257710639075817 21.145392566556495 0 0 0
1399 60 12 -0.18 23.98723046091509 23.50489048130185 20.198804053899373 0 0 0
753 33 6 0.06 20.508018638251343 20.96438609552316 18.763824703456297 0 0 0
1391 60 6 0.06 23.446918046531238 20.803760728172108 24.621568050865328 0 0 0
1390 60 4 -0.12 24.024692992972966 22.481832131465936 23.34457241614734 0 0 0
1387 60 4 -0.12 24.338024641948305 21.17046263402679 24.112106725625644 0 0 0
1393 60 4 -0.12 23.070520659894648 22.19959185292411 22.17239331875235 0 0 0
1397 60 6 0.06 22.14772317075962 21.872912935834947 22.6517864319714 0 0 0
1398 60 6 0.06 23.46199938184796 21.392386090357085 21.55331717063016 0 0 0
1392 60 6 0.06 24.599061320790984 20.456294974506566 23.331135244880848 0 0 0
747 33 6 0.06 22.74539197194529 21.873179165775174 18.03643635061415 0 0 0
1403 60 6 0.06 23.708224019909565 24.212097103346533 19.41771102829191 0 0 0
1402 60 6 0.06 24.251642289304876 22.59192818728258 19.66525157608532 0 0 0
748 33 4 -0.12 20.173719159618557 21.047577772462034 17.729699458430318 0 0 0
752 33 6 0.06 19.62294426230666 21.97635180756255 17.87842005468091 0 0 0
751 33 4 -0.12 19.115917543002933 19.939760248124053 17.492762574407784 0 0 0
1031 45 6 0.06 25.382570928251468 18.266702850535708 23.39794213010172 0 0 0
1025 45 6 0.06 26.985161540556785 18.070205906630978 21.788051098377714 0 0 0
1019 45 5 0.08 29.147609243842474 18.090603281047976 20.65963997566038 0 0 0
2715 233 13 0.4238 31.9995928585527 19.77732564828077 19.752074445681586 -1 0 0
2714 233 14 -0.8476 31.12209535671576 19.879599373073006 20.22061687071883 -1 0 0
1908 81 11 -0.8 29.39463900882549 20.074873792859893 18.332341046683542 0 0 0
904 40 5 0.08 31.570338623659985 19.040090769908147 23.569093869377813 -1 0 0
2713 233 13 0.4238 30.47785551731477 20.123131161947565 19.495604675851364 -1 0 0
2612 199 14 -0.8476 28.975553885328935 19.026327805938966 24.065370055184605 -1 0 0
2611 199 13 0.4238 29.50514949654411 18.33669692508119 24.559264337497268 -1 0 0
2569 185 13 0.4238 29.811500621778027 20.058572278914568 21.40163793027518 0 0 0
2571 185 13 0.4238 28.783011496174996 19.81110463171647 22.5685621545837 0 0 0
2570 185 14 -0.8476 28.849738240445735 20.186171366497422 21.64397169658043 0 0 0
2613 199 13 0.4238 28.38613367138484 19.323763660135665 24.816442409785033 -1 0 0
1404 60 6 0.06 24.863855698109518 23.889192186569602 20.720275452184747 0 0 0
1394 60 6 0.06 24.94929949884094 22.861047411933953 22.909382127036903 0 0 0
2374 120 13 0.4238 27.973161365075406 20.48713301583099 19.166682360671224 0 0 0
2731 239 13 0.4238 30.410248388490345 21.298628164859615 18.25544060429485 -1 0 0
2376 120 13 0.4238 27.438467675721572 20.618471876725863 20.64955566164718 0 0 0
2375 120 14 -0.8476 27.181657415559908 20.788770133754674 19.698219036065865 0 0 0
1042 46 5 0.08 28.29207104248462 22.934713865922525 20.192525101242904 -1 0 0
1037 46 2 0.2 29.00646533187584 23.75627123431039 20.245215905801874 -1 0 0
1044 46 4 -0.12 29.23981295819536 23.47656107692996 22.77459584494953 -1 0 0
1038 46 3 0.35 30.250027277368947 23.190109971079913 18.80678123726804 -1 0 0
1036 46 1 -0.48 29.79931518578048 24.03840558923539 19.11878579342441 -1 0 0
1041 46 4 -0.12 29.93466643234474 23.403125606095767 21.446402516463937 -1 0 0
1046 46 6 0.06 30.27440316978845 22.37242711663999 21.344758089736718 -1 0 0
1052 46 6 0.06 30.47819071538976 22.004221360298594 23.666648302620157 -1 0 0
1048 46 6 0.06 28.271055935306077 22.981154937960955 22.83920758611872 -1 0 0
1047 46 4 -0.12 30.158517946106247 23.024321719736566 23.879478265910993 -1 0 0
1051 46 6 0.06 31.113028623781684 23.550003951876192 23.853795797255586 -1 0 0
2572 186 13 0.4238 26.329419312415183 21.574095403622806 18.317308274675472 0 0 0
2732 239 14 -0.8476 31.098997931118383 21.988615816807517 18.03287700302257 -1 0 0
1045 46 6 0.06 30.861434364464944 23.976493758897654 21.425373681207653 -1 0 0
1039 46 3 0.35 29.12891550805762 24.372526854625754 18.4412752534937 -1 0 0
1049 46 6 0.06 29.13522165553809 24.545333544045526 22.961352648017698 -1 0 0
1040 46 3 0.35 30.476699611260823 24.771811267138148 19.271624747028547 -1 0 0
1043 46 5 0.08 28.407414447524673 24.63191175244208 20.495183368796514 -1 0 0
1388 60 6 0.06 26.515939974236158 21.040297453620234 24.52000878319793 0 0 0
1905 81 9 0.7 29.04963130427854 19.281776608278104 17.463307692614176 0 0 0
2733 239 13 0.4238 31.96205663322892 21.48357502778389 18.040411028665858 -1 0 0
2672 219 14 -0.8476 27.622469636384135 24.53929900706562 17.568094963403176 0 0 0
1920 81 6 0.06 25.667146886235702 18.626946011816642 18.090736120906367 0 0 0
2574 186 13 0.4238 26.729466450581317 22.922526416684423 17.654554772334535 0 0 0
2573 186 14 -0.8476 25.976537391128872 22.26520871841632 17.68656954264756 0 0 0
2312 99 14 -0.8476 5.501339456370072 27.302569822600365 17.98414238579154 0 0 0
2535 173 13 0.4238 3.088494930723383 25.94782021566272 18.65758485098136 0 0 0
624 28 3 0.35 2.8172586768393546 31.80010241993906 18.008231552058405 1 -1 0
1579 67 6 0.06 4.9339124615023495 25.601493327111122 21.18251850670276 0 0 0
1322 57 6 0.06 7.270232358999736 27.059233583906142 21.064527046038506 0 0 0
1316 57 6 0.06 9.392428664533075 26.14172698092573 22.536413517375937 0 0 0
223 10 6 0.06 9.440802833795235 25.161084958815483 18.573542212770082 0 0 0
219 10 4 -0.12 9.443962849597341 25.602591961773328 17.576971270118815 0 0 0
622 28 1 -0.48 3.6591526725262113 31.667528461126867 18.550201987519728 1 -1 0
2666 217 14 -0.8476 7.072232978111736 30.400761453716296 18.772828468742862 1 -1 0
1329 57 6 0.06 5.669695415513349 29.91654562653478 23.26352448388592 0 0 0
1327 57 6 0.06 6.467751737592478 30.4407206872385 21.823791835750484 0 0 0
1324 57 12 -0.18 5.590126437611815 29.89904882084419 22.176577082923256 0 0 0
1323 57 6 0.06 7.794006985770032 28.686747913874324 21.20098165197035 0 0 0
1328 57 6 0.06 4.712524202806013 30.404760182530534 21.77388322096196 0 0 0
1318 57 4 -0.12 7.2715679809499685 27.90490478397668 21.75222645350464 0 0 0
1321 57 4 -0.12 5.723901478670079 28.397834557390816 21.74142561497751 0 0 0
1315 57 4 -0.12 7.8848647377428716 27.47586357792055 23.10815178535753 0 0 0
1325 57 6 0.06 5.104895058703569 27.66716558810927 22.26204636168658 0 0 0
1326 57 6 0.06 5.397404762374141 28.354951618637013 20.702362114440902 0 0 0
2874 286 13 0.4238 4.156087575848503 28.14166620273493 18.267933579976482 1 0 0
2667 217 13 0.4238 7.519603842211947 30.7552385598765 19.59392442509834 1 -1 0
1319 57 6 0.06 7.779609361557131 28.36358345321531 23.731823789804043 0 0 0
2665 217 13 0.4238 6.9673753011435435 31.30084385225896 18.349921987783603 1 -1 0
626 28 3 0.35 3.5996335712405614 30.688611396295467 18.791597976458647 1 -1 0
2768 251 14 -0.8476 8.735591874532144 31.80366737287312 20.981150753471077 0 0 0
2767 251 13 0.4238 8.827131413711484 31.938749456963688 21.967744781380002 0 0 0
2873 286 14 -0.8476 3.5894872097586794 28.762274634335547 18.80996977933779 1 0 0
1320 57 6 0.06 7.382825257955523 26.65205565082895 23.615486866562055 0 0 0
2759 248 14 -0.8476 9.588666257108196 32.2389210435218 23.58749044661363 0 0 0
1312 57 4 -0.12 9.278420803838994 27.12759977197246 22.987134124383577 0 0 0
216 10 4 -0.12 9.510044588548112 27.163098184440017 17.611205800507406 0 0 0
1317 57 6 0.06 9.793479983362825 27.792739940735377 22.294029082499016 0 0 0
2769 251 13 0.4238 9.61154476904533 32.0655328555487 20.576022639287046 0 0 0
215 10 5 0.08 9.802381250891363 29.728116222506006 19.34687706577936 0 0 0
2593 193 13 0.4238 9.944337946118722 32.065174324892396 18.043120244749467 1 0 0
217 10 6 0.06 9.948647146195324 27.231777292023843 19.697856394129225 0 0 0
221 10 6 0.06 8.51155269927727 27.576411123815255 17.753608071322475 0 0 0
2872 286 13 0.4238 2.6300743246656255 28.48124601000733 18.786600851655102 1 0 0
1945 82 6 0.06 2.57646039893096 28.398697620893525 23.283382006847713 1 0 0
625 28 3 0.35 4.480565704550946 31.92694545995317 18.022871878393218 1 -1 0
2311 99 13 0.4238 5.614879527398665 27.980241727437697 18.710684230181666 0 0 0
2170 91 6 0.06 12.64150812321286 25.1795085598531 18.294690438105352 0 0 0
2162 91 4 -0.12 13.917781330801485 25.8149880597004 19.90146526599929 0 0 0
2166 91 6 0.06 13.350639683087179 26.625923434668124 20.35844030445931 0 0 0
2167 91 6 0.06 14.186982845928238 25.546300109706156 20.922949163751106 0 0 0
2163 91 6 0.06 15.781656227212547 25.504803093498072 18.936616152656264 0 0 0
2159 91 4 -0.12 15.09391341338724 26.338544404377366 19.077957077875475 0 0 0
2603 196 14 -0.8476 17.201305361903593 25.78573671509439 23.24334955751875 0 0 0
214 10 5 0.08 10.655972397590993 29.631417231059427 17.822424194163037 0 0 0
2758 248 13 0.4238 10.37233599018326 31.950033525686813 24.1373990611626 0 0 0
209 10 2 0.2 10.576506772610252 29.17898245484928 18.810897775246122 0 0 0
213 10 4 -0.12 10.36204434788364 27.65580066816558 18.782761326612388 0 0 0
2551 179 13 0.4238 11.864688896933432 29.532504695590458 22.710006261364114 0 0 0
2233 94 11 -0.8 10.896802915206939 32.17878353464683 19.597456033293376 0 -1 0
2565 183 13 0.4238 14.2145672858141 32.123334923361384 18.770539692665306 0 0 0
2321 102 14 -0.8476 14.373175186156566 31.946504055893623 21.519506568823978 0 0 0
210 10 3 0.35 11.85119967745022 30.482330500503835 19.52529280800835 0 0 0
208 10 1 -0.48 11.758021229411808 29.476811374039876 19.50679349237049 0 0 0
211 10 3 0.35 11.673993415747363 29.19030863713243 20.471650451008948 0 0 0
2607 197 13 0.4238 14.506761497141124 31.588644751305807 23.23202071114627 0 0 0
212 10 3 0.35 12.610094605932538 29.14337599285866 19.079141818737845 0 0 0
2552 179 14 -0.8476 11.980108998856492 28.773308614649384 22.06946510203272 0 0 0
2553 179 13 0.4238 12.443237445216312 28.19957837532259 22.744994668477002 0 0 0
2158 91 11 -0.8 14.149194962502202 29.017937555529713 18.74159952435324 0 0 0
2507 164 14 -0.8476 13.840497906039326 27.70561940540198 23.715703744192066 0 0 0
2508 164 13 0.4238 14.781506048469684 28.041276266475542 23.67290649722934 0 0 0
2164 91 6 0.06 14.681667369077957 26.545752077134132 18.090429758988435 0 0 0
218 10 6 0.06 11.350202781846976 27.196498445928274 18.756753541737307 0 0 0
1313 57 6 0.06 11.114353166535627 27.072545922680515 24.081489796991452 0 0 0
1309 57 4 -0.12 10.0722334104013 27.317836454770212 24.286211543609323 0 0 0
2506 164 13 0.4238 13.61154087761504 27.456527340333725 24.656727633970373 0 0 0
973 43 5 0.08 17.31207967775782 31.78558462592961 22.246659034783153 0 0 0
2320 102 13 0.4238 14.709089923449737 31.149161548597238 21.018107911421975 0 0 0
2564 183 14 -0.8476 14.851081336878593 31.62887458601607 18.17863411569587 0 0 0
2563 183 13 0.4238 14.988777675106121 30.799154311859073 18.71955678792681 0 0 0
2155 91 9 0.7 15.10458455237172 28.90348579186322 19.515098101029302 0 0 0
2160 91 6 0.06 16.064773418725036 27.37034574467652 20.617658020768104 0 0 0
2157 91 11 -0.8 15.497521564899573 29.781905160658493 20.27188703121789 0 0 0
2156 91 10 -0.22 15.85000132902733 27.56853079295607 19.56756866860409 0 0 0
2161 91 6 0.06 16.78376679201321 27.7854640497846 19.048806626967348 0 0 0
2605 197 13 0.4238 15.22310909971494 30.334152443495512 23.71506623484754 0 0 0
2518 168 13 0.4238 15.545063884889238 28.98140055808033 22.02157495210698 0 0 0
2519 168 14 -0.8476 16.09610567134478 29.117254574527397 22.844915685898087 0 0 0
969 43 3 0.35 16.883757825262528 30.619774661941968 20.324762681255883 0 0 0
2520 168 13 0.4238 17.051726116875752 29.07513841972131 22.55335213323238 0 0 0
2606 197 14 -0.8476 14.563610344180276 31.0094643090464 24.045232346913046 0 0 0
2604 196 13 0.4238 16.707303314237482 26.58603518904685 22.90352940013554 0 0 0
1314 57 6 0.06 10.050965196513594 28.321450412659257 24.71094525627098 0 0 0
2498 161 14 -0.8476 11.85023135669518 30.721081710492605 24.59391905554878 0 0 0
2497 161 13 0.4238 12.829549798985814 30.828765312887807 24.422648311141774 0 0 0
977 43 6 0.06 19.805263860776993 32.22390200012992 22.046207435144172 0 0 0
278 13 2 0.2 24.0292986558019 31.967462279335216 18.843753242775183 0 0 0
1969 83 6 0.06 18.029597127981262 25.31356863134302 19.056774968894672 0 0 0
1962 83 4 -0.12 20.0089128177319 25.371448026892764 19.629255302180145 0 0 0
1965 83 4 -0.12 18.580879218223874 25.132321645068288 19.979450219803493 0 0 0
1966 83 6 0.06 20.59289626602783 25.383444149037814 20.549533218428316 0 0 0
1970 83 6 0.06 18.186727383804815 25.91416044184677 20.628653151567892 0 0 0
1961 83 6 0.06 22.445528341219525 26.616545222355473 19.04588443962895 0 0 0
2120 89 6 0.06 23.816592393669165 26.051850628302216 23.47956738562304 0 0 0
968 43 2 0.2 17.724239676469864 32.13255012966915 21.29911954440482 0 0 0
967 43 1 -0.48 17.81048573400515 31.006887183551076 20.43159351076627 0 0 0
1963 83 6 0.06 19.426040342719947 26.805732706215355 18.185429923260898 0 0 0
1959 83 4 -0.12 20.19239993844694 26.78372722915152 18.960220694758227 0 0 0
1964 83 6 0.06 20.016022188152444 27.49387315620088 19.768104158872838 0 0 0
971 43 3 0.35 18.298587873218615 30.211802952760547 20.818492529513364 0 0 0
970 43 3 0.35 18.093424555881008 31.271748242048513 19.498915644246946 0 0 0
1157 51 11 -0.8 18.37694351179168 31.432148250921443 17.96149986328154 0 0 0
2602 196 13 0.4238 18.119603369929244 26.169148545447662 23.144759582729286 0 0 0
2700 228 13 0.4238 20.01074487447859 30.96804402143305 18.30643546988118 0 0 0
2107 89 11 -0.8 18.621387942396005 29.056388820014366 22.02394561643394 0 0 0
2108 89 11 -0.8 19.277724834748845 27.424242574734276 23.41345863859733 0 0 0
2105 89 9 0.7 19.48898497433653 28.337460069692806 22.582799855107957 0 0 0
1956 83 10 -0.22 21.648150873903507 27.021313528942024 18.422631825769642 0 0 0
1960 83 6 0.06 21.92426548948611 28.074604480937577 18.373327353962587 0 0 0
2106 89 10 -0.22 20.911382052388323 28.730658415991275 22.154730573080865 0 0 0
2111 89 6 0.06 20.956066078688856 28.975189386283887 21.093457768081887 0 0 0
2626 204 13 0.4238 22.858393328605654 31.704703961032735 22.828181586565837 0 0 0
2627 204 14 -0.8476 23.503100803928593 31.329686983504292 22.162067605774897 0 0 0
283 13 5 0.08 24.13619811110659 31.69582100687529 17.793574417052447 0 0 0
281 13 3 0.35 23.243370513186303 31.117772272029125 20.562818644007113 0 0 0
279 13 3 0.35 22.334849659139298 30.792576734526264 19.154825905252018 0 0 0
2699 228 14 -0.8476 20.84547972498435 30.47020141309402 18.541733113079466 0 0 0
2698 228 13 0.4238 20.802556792216187 29.630975813681793 17.999652511103047 0 0 0
2119 89 6 0.06 24.468031862168246 27.69018165149686 23.433695771136247 0 0 0
2110 89 6 0.06 21.238719361759216 29.60242785217664 22.721264200673428 0 0 0
2113 89 6 0.06 22.616613077939856 27.555909561493674 21.787727077486068 0 0 0
277 13 1 -0.48 23.241015715152614 30.97129426703269 19.563502674553806 0 0 0
2109 89 4 -0.12 21.879796851951873 27.586410347262007 22.590387413547113 0 0 0
280 13 3 0.35 23.825004039925922 30.148866169319266 19.511899811604913 0 0 0
2112 89 4 -0.12 22.472827374477944 27.711512293889058 23.999705980052408 0 0 0
2114 89 6 0.06 21.376690063766297 26.64481578586033 22.37044357809167 0 0 0
2117 89 6 0.06 22.47256165407192 28.76933047459692 24.262598892188784 0 0 0
2116 89 6 0.06 21.83170312888506 27.288196835230554 24.77291730319158 0 0 0
2115 89 4 -0.12 23.81785309528258 27.01496161175449 23.989966894006773 0 0 0
2628 204 13 0.4238 24.44294169147057 31.39269510642948 22.497809205679676 0 0 0
1091 48 6 0.06 19.235258599287857 30.11510716893426 24.601607491648352 0 0 0
2776 254 13 0.4238 24.379173898755912 26.3402954236392 17.51779167108406 0 0 0
2528 171 14 -0.8476 27.0512027259067 32.228728692371526 20.401731456148077 0 -1 0
627 28 4 -0.12 32.13393432967203 32.262396457630615 20.52079617839471 0 -1 0
2529 171 13 0.4238 26.53265067251453 32.046358303850525 21.237100026462212 0 -1 0
1808 77 11 -0.8 25.94626956745814 31.95418317816101 22.80840728748081 0 0 0
2128 89 6 0.06 26.288655624053153 25.29604522603839 23.440237672391678 0 0 0
2534 173 14 -0.8476 31.952695101512223 25.795449991201817 19.117674091770418 -1 0 0
2673 219 13 0.4238 27.056413932482194 25.302885711458963 17.878756330669063 0 0 0
2333 106 14 -0.8476 25.482778500303976 29.339119031742367 18.849013449648666 0 0 0
2332 106 13 0.4238 26.301958296636474 29.544622664074108 19.384462853621354 0 0 0
2777 254 14 -0.8476 25.370208874221408 26.25599688333294 17.62141264774766 0 0 0
284 13 5 0.08 25.03813677078357 31.74092722220402 19.188745319617475 0 0 0
2334 106 13 0.4238 25.798051390407164 29.079020035121534 17.936354478995824 0 0 0
2814 266 13 0.4238 27.694249998707022 31.75703178404824 18.680162507941493 0 0 0
631 28 6 0.06 31.83638995832824 31.218494582548562 20.61993365260913 0 -1 0
637 28 6 0.06 30.410185368290083 31.624579629796152 22.428362285641594 0 -1 0
2813 266 14 -0.8476 28.005687295773527 31.660534421993024 17.734811173074817 0 0 0
2533 173 13 0.4238 31.581576745766906 26.710929041544336 18.96223072249902 -1 0 0
1938 82 6 0.06 28.75586542210453 28.12067113474634 21.905982563021567 0 0 0
1935 82 6 0.06 29.007266878401502 26.767472244767053 19.711641060557326 0 0 0
2812 266 13 0.4238 28.518840524547798 30.806158119936878 17.816727718911398 0 0 0
1942 82 6 0.06 30.878789505363432 26.763965126413037 22.032975666318723 0 0 0
1936 82 6 0.06 27.973612750037677 28.117596291227688 19.661198490217807 0 0 0
1932 82 11 -0.8 30.885348977862208 27.912569091752125 18.424342257763605 0 0 0
1930 82 9 0.7 29.71356230628904 28.40098529925272 18.606741468798155 0 0 0
1939 82 6 0.06 29.66584911924922 29.449640075806094 21.07173232638171 0 0 0
1931 82 10 -0.22 29.01263157726182 27.848481208682937 19.851222099012574 0 0 0
1934 82 4 -0.12 29.545991318144498 28.37376205096 21.19906101695297 0 0 0
1937 82 4 -0.12 30.805022609598815 27.82772544285181 21.807001195972635 0 0 0
1941 82 6 0.06 31.602215190999875 27.945263882693357 21.07299798581554 0 0 0
1940 82 4 -0.12 31.29232623601228 28.6371051786974 22.992416111067193 0 0 0
1944 82 6 0.06 31.461516522874742 29.649566927736533 22.6258265491988 0 0 0
1933 82 11 -0.8 29.17322102026219 29.249711286589505 17.856404352940444 0 0 0
1948 82 6 0.06 29.631961885986026 29.381967014652762 24.113869689555628 0 0 0
1943 82 4 -0.12 30.320810300076815 28.541953659196107 24.2030741867664 0 0 0
1947 82 6 0.06 29.686150052414426 27.65625964552275 24.232134954057212 0 0 0
1811 77 6 0.06 26.919108733304775 30.363502223783524 24.15107070386302 0 0 0
2778 254 13 0.4238 25.806958260751365 27.143353604494965 17.473623535266693 0 0 0
1810 77 6 0.06 28.201409470222238 31.400146734716913 24.63363347358699 0 0 0
1806 77 10 -0.22 27.119011864630767 31.286990300032528 24.694486341184774 0 0 0
2129 89 6 0.06 27.37838196271266 24.897489357003387 24.657747941566043 0 0 0
2124 89 12 -0.18 26.35546475078555 25.250616800550112 24.527235755709665 0 0 0
2126 89 6 0.06 26.303078431403986 27.361276572238253 24.825597686192275 0 0 0
2412 132 13 0.4238 30.062636855735803 31.990416541887658 17.733214844715533 0 0 0
895 39 8 0.13 9.641188733560838 7.99270332687913 25.75399723638679 0 0 0
896 39 8 0.13 9.796051385290957 6.273062156375335 25.300755203861616 0 0 0
198 9 6 0.06 6.8024851124014285 7.562729476008704 25.265062264871574 0 0 0
203 9 6 0.06 6.696519820281919 4.440471923193445 25.630893900326203 0 0 0
193 9 4 -0.12 5.911645260875467 7.147484163750874 25.736302865210373 0 0 0
197 9 6 0.06 6.286191397897841 6.608692897389096 26.606654057926193 0 0 0
201 9 6 0.06 4.512694281916703 5.6686395404440555 25.152707526446406 0 0 0
518 23 4 -0.12 4.188317214905986 4.633856826597546 28.94966725083556 1 0 0
522 23 6 0.06 4.391728608155249 5.202651929101556 28.042370171422643 1 0 0
520 23 6 0.06 4.441041169928906 6.249506856105938 30.323432032746194 1 0 0
515 23 4 -0.12 3.619611729019802 5.6018384833316475 30.017047697427518 1 0 0
521 23 4 -0.12 5.380274684555512 3.888469357880076 29.40733364221515 1 0 0
1528 65 6 0.06 7.565051541297956 6.986443169467629 30.659039697405003 0 0 0
526 23 6 0.06 6.119349263467833 4.552140074228806 29.85611194338509 1 0 0
1524 65 12 -0.18 7.989837250406725 7.107932078178069 29.662601259744285 0 0 0
195 9 6 0.06 3.980696940895557 7.793720260377323 26.38769894885225 0 0 0
190 9 4 -0.12 4.915872804929919 8.267538304292042 26.089312332475025 0 0 0
523 23 6 0.06 3.446423043157681 3.9383052888859913 28.557375115621202 1 0 0
519 23 6 0.06 3.295129630821989 5.140699228865312 30.94986817212059 1 0 0
516 23 6 0.06 2.7983091358335512 6.817476641974574 28.569373202363792 1 0 0
528 23 8 0.13 6.535418032337386 3.5000112583390495 27.662723493014553 1 0 0
1529 65 6 0.06 7.219710462505559 7.261070530936652 28.906595047385466 0 0 0
514 23 5 0.08 2.6118113408721704 8.332378094711963 30.4618989520782 1 0 0
1525 65 6 0.06 8.4871925473204 9.205587130375994 29.802464635541973 0 0 0
2397 127 13 0.4238 9.775254559321631 3.3778366083962643 32.17190495881893 0 1 0
1527 65 6 0.06 8.454028485158627 6.2142231411075315 29.245584656278 0 0 0
2395 127 13 0.4238 8.547543055755092 3.5308076015867678 31.20158735660048 0 1 0
1521 65 4 -0.12 9.003951258062818 8.250470625967454 29.896299190214137 0 0 0
1526 65 6 0.06 9.451481189326396 8.365227614279643 30.883537663118872 0 0 0
2396 127 14 -0.8476 9.185640005792884 4.06831385237784 31.752870036418795 0 1 0
1523 65 6 0.06 9.532200284438783 8.842473023832401 27.942615442141868 0 0 0
194 9 6 0.06 4.861743568215214 8.866075907385103 25.179963783847132 0 0 0
191 9 5 0.08 5.308075536731653 8.560285099291715 28.16304432535919 0 0 0
186 9 2 0.2 5.3725482607654955 9.161417584123384 27.256085101394905 0 0 0
192 9 5 0.08 6.444342869876485 9.349469242831596 27.192958841399285 0 0 0
525 23 6 0.06 4.905618077393192 3.3307139981663547 30.214614359460622 1 0 0
524 23 7 -0.32 6.039326052246663 2.8898864075479103 28.417529727921185 1 0 0
892 39 7 -0.32 10.318052360443128 7.227061405069376 25.37486649126819 0 0 0
2139 90 6 0.06 16.36471163773716 4.152853601472874 32.228327410154264 0 0 0
2133 90 11 -0.8 13.44774891824863 3.8220469959165886 31.66877075244409 0 0 0
1518 65 4 -0.12 10.072233462239218 8.388925163364743 28.773729469169446 0 0 0
1522 65 6 0.06 10.588940640074165 7.466463233356928 28.50883383303393 0 0 0
897 39 8 0.13 11.114260651057746 7.142489747114995 26.114455574591126 0 0 0
60 3 6 0.06 14.046741804794642 3.3235468515664017 25.792730152191204 0 0 0
2386 124 13 0.4238 11.461028142030395 6.256220197495387 31.06352103772077 0 1 -1
2388 124 13 0.4238 12.832513487448708 5.420355056073023 31.085077276165748 0 1 -1
59 3 6 0.06 12.7965575095733 4.499329570118261 25.16933133092511 0 0 0
52 3 4 -0.12 13.056084720253503 4.469213133012397 27.301479203901405 0 0 0
55 3 4 -0.12 13.574174552494801 4.2991700769161 25.90644732698611 0 0 0
53 3 5 0.08 11.008409092453586 4.096307209897655 26.960568040181442 0 0 0
48 3 2 0.2 11.792449013914421 3.63246973108694 27.559089737304944 0 0 0
2387 124 14 -0.8476 12.17169882048269 5.863852498039151 30.479579193259088 0 1 -1
57 3 6 0.06 12.83480157292413 5.4983056926943465 27.584488721467892 0 0 0
49 3 3 0.35 11.406377667182653 4.447670970673429 29.350919905560747 0 0 0
56 3 6 0.06 13.793068867043386 4.197799750254734 28.057310685597106 0 0 0
47 3 1 -0.48 11.475675626650922 3.5006494646561106 29.006767006317197 0 0 0
50 3 3 0.35 10.589911700396097 3.0309546440932857 29.128847692577157 0 0 0
2130 90 9 0.7 14.064358818846449 3.146588871370771 30.748089917907883 0 0 0
51 3 3 0.35 12.21742416230427 2.9795691449393003 29.45216368659826 0 0 0
54 3 5 0.08 11.892008661518437 2.6116796878435973 27.190080765974145 0 0 0
62 3 6 0.06 15.234710324309061 5.281298453419731 26.347064016585847 0 0 0
2142 90 6 0.06 14.665379672031685 5.9108165509069295 31.76859331670848 0 0 0
2151 90 6 0.06 15.022249091272956 8.229047695206793 27.77330472642901 0 0 0
58 3 4 -0.12 14.519644448926066 5.449929128295208 25.541870563784208 0 0 0
2144 90 6 0.06 14.410918193076913 6.325745521838957 29.337538812980988 0 0 0
63 3 6 0.06 14.182454862148415 6.48091334399178 25.64895345166688 0 0 0
2135 90 6 0.06 15.62597186217294 3.4636023596599292 29.397698158066053 0 0 0
2140 90 4 -0.12 15.441972724279486 6.422923584687975 29.677502032462236 0 0 0
2143 90 4 -0.12 15.966291988102181 7.864582866739672 29.61352810589837 0 0 0
2131 90 10 -0.22 15.490756280790443 3.270310410688028 30.46186308151255 0 0 0
2146 90 4 -0.12 16.022557343046678 8.384769673669023 28.177317222107256 0 0 0
2134 90 4 -0.12 16.22343654249514 4.381494649274953 31.171986240572437 0 0 0
2137 90 4 -0.12 15.542000295711402 5.821663374873101 31.126970346732584 0 0 0
2145 90 6 0.06 15.981492347954797 5.725470664444185 29.036744659330257 0 0 0
2141 90 6 0.06 16.33418945927457 6.326206735293484 31.680110784693067 0 0 0
2148 90 6 0.06 15.26911587258379 8.410086611845095 30.24950227235327 0 0 0
2138 90 6 0.06 17.22524490123591 4.59292823257338 30.798130828159174 0 0 0
2147 90 6 0.06 16.953865210133362 8.079561960144456 30.02166428176304 0 0 0
2149 90 12 -0.18 16.997431228570754 7.690722594223293 27.180024002512347 0 0 0
2152 90 6 0.06 16.974241909967162 6.602331247812753 27.12563082624594 0 0 0
2153 90 6 0.06 16.70013224376447 7.987970584210696 26.174365523028996 0 0 0
1515 65 4 -0.12 11.204225164293208 9.409336727454008 29.118050683130022 0 0 0
1520 65 6 0.06 11.824539069896943 9.011733768338477 29.921303168192537 0 0 0
1516 65 6 0.06 12.677351696185278 8.750907241388076 27.674229357052607 0 0 0
1512 65 4 -0.12 12.195642647777486 9.685136013362206 27.96278613787888 0 0 0
1517 65 6 0.06 11.4323502981895 9.90494746724989 27.216354797726016 0 0 0
2150 90 6 0.06 16.128107585550158 9.457551263022184 28.015790705803376 0 0 0
2608 198 13 0.4238 11.772992628837603 3.183939288428448 32.218806294930104 0 1 -1
136 6 8 0.13 19.640458716724318 5.790407045646614 32.08494829446856 0 0 -1
2154 90 6 0.06 17.97584403092305 8.160943667175548 27.278474774189288 0 0 0
1101 48 6 0.06 18.266426343796283 4.579553402006811 25.44935987821038 0 1 0
1096 48 4 -0.12 18.899575797258613 4.311325555460792 26.29509483347923 0 1 0
1100 48 6 0.06 18.233529113830294 4.138220118306528 27.14038078571289 0 1 0
1097 48 6 0.06 20.040747341420087 2.9903833517754164 25.014221650773727 0 1 0
1093 48 4 -0.12 19.574568403728215 2.875298283554267 25.99275353164601 0 1 0
1104 48 8 0.13 19.479732814083572 6.248927788855518 27.018565515535418 0 1 0
134 6 6 0.06 20.630298506902356 6.277925362594214 29.78639956211403 0 0 -1
127 6 4 -0.12 22.011737985574353 6.81816755140938 31.38142250949425 0 0 -1
1099 48 7 -0.32 19.96042260436998 5.35135613901668 26.629471041316666 0 1 0
1103 48 8 0.13 20.653629240381445 5.5838860107003345 25.821085910186184 0 1 0
1829 77 6 0.06 22.496630009251508 3.2005925311066887 30.86460022024707 0 1 0
1102 48 8 0.13 20.64581220850958 5.011377189122761 27.40583913223033 0 1 0
130 6 4 -0.12 20.715977136193857 6.944145673469817 30.644829342112335 0 0 -1
2711 232 14 -0.8476 24.338641541982057 4.860163340577828 25.42577083632764 0 1 0
124 6 4 -0.12 23.240698415052147 7.379272338449767 30.67091504107435 0 0 -1
128 6 6 0.06 23.59496828722629 6.802686402988489 29.81643652233765 0 0 -1
1827 77 6 0.06 23.56541071960412 3.9756968640671975 29.806963439155915 0 1 0
1828 77 6 0.06 21.90923364781791 3.4470657225935337 29.240110951920173 0 1 0
1824 77 12 -0.18 22.799952139255595 3.19977751989582 29.81765845744582 0 1 0
2226 93 6 0.06 24.18436670551157 7.314581720385757 27.458074498272957 0 0 0
2053 86 6 0.06 19.736900912750123 3.2754847753106313 30.087126739366674 0 1 0
129 6 6 0.06 23.003534176996283 8.38248226671845 30.31677526275033 0 0 -1
121 6 4 -0.12 24.43181707082003 7.404975325016078 31.627283830915424 0 0 -1
135 6 6 0.06 20.643065217965212 7.912729944324254 30.150238223707262 0 0 -1
2710 232 13 0.4238 24.78323214898757 4.991192977766255 26.31186627919988 0 1 0
1823 77 6 0.06 24.490899420894337 2.7568758115143197 27.80625544571458 0 1 0
1098 48 6 0.06 20.270478262475084 2.617595264931976 26.79112101212067 0 1 0
133 6 7 -0.32 19.54262151996464 6.771118083843407 31.619410165011633 0 0 -1
138 6 8 0.13 18.59529720424379 6.823835181942111 31.08285672414642 0 0 -1
2224 93 12 -0.18 22.5089823860316 8.67312725949038 27.019809480738086 0 0 0
2221 93 4 -0.12 23.962185544525525 8.374283169705288 27.332533945890557 0 0 0
2228 93 6 0.06 21.886815561717018 8.131689621175676 27.73244244842384 0 0 0
2225 93 6 0.06 24.203119240113253 8.786691896972709 28.312310479551822 0 0 0
2227 93 6 0.06 22.15752669602806 8.271785654340654 26.069285505483972 0 0 0
2229 93 6 0.06 22.27489348706255 9.737015330827798 27.057711792372388 0 0 0
2222 93 6 0.06 24.634255947085514 8.700232413191735 25.335380028494573 0 0 0
126 6 6 0.06 24.62657324171565 6.472289927937853 32.1566796976852 0 0 -1
132 6 6 0.06 22.204746707023727 5.760276380768495 31.559484065037267 0 0 -1
44 2 8 0.13 31.215021240439626 6.430713267379845 24.982950180293397 0 0 0
116 6 1 -0.48 26.842227233202784 7.854075586407687 31.686867031407743 0 0 -1
1261 55 6 0.06 26.910358857418423 2.6719098534630117 32.10111665803487 0 0 -1
45 2 8 0.13 31.126899764672732 8.091321731202846 25.423933333483813 0 0 0
119 6 3 0.35 27.12565587166128 6.890636058817312 31.57941589290095 0 0 -1
512 23 4 -0.12 32.13233471648664 6.357749294600746 29.4709395968134 0 0 0
2712 232 13 0.4238 25.145542531351946 4.753717994776096 24.844759317088045 0 1 0
2558 181 14 -0.8476 25.49395886600984 5.154252919689349 27.864487892283673 0 0 0
117 6 2 0.2 25.60120844632679 8.060148218418018 30.97066443711842 0 0 -1
122 6 5 0.08 25.925774454178068 7.594175567769583 30.04027824671713 0 0 -1
2559 181 13 0.4238 26.314172998080792 5.435472622939375 27.366332975307426 0 0 0
2557 181 13 0.4238 25.726302999229667 5.292099322517396 28.827300997629163 0 0 0
2220 93 6 0.06 26.58661623050192 7.741169607505424 26.052421804990086 0 0 0
2214 93 6 0.06 29.14058707290107 8.577017846425747 26.069463445531063 0 0 0
517 23 6 0.06 31.382330779115712 5.638362585696123 29.142201222067555 0 0 0
2358 114 13 0.4238 28.327077080473252 5.499752134048895 25.614147190418045 0 1 0
2356 114 13 0.4238 27.365762165183725 4.408234609244924 25.710380673484615 0 1 0
2357 114 14 -0.8476 27.712824121337864 5.128816701375731 26.310633969528023 0 1 0
2485 157 13 0.4238 28.427330200423434 6.150558519458721 27.789216987126228 0 0 0
2486 157 14 -0.8476 28.70583621152772 6.350375834386192 28.728632336677567 0 0 0
2487 157 13 0.4238 28.0332511977639 5.831877305218743 29.25663254419141 0 0 0
513 23 5 0.08 31.301193722958438 7.296312579829835 31.324616130537894 0 0 0
1255 55 9 0.7 26.852159897946155 4.6264918594400815 31.250826663286553 0 0 -1
1258 55 11 -0.8 26.73464563649583 5.346681428129867 30.23092037817891 0 0 -1
509 23 3 0.35 29.803659312493817 7.416204469406475 29.435390366918355 0 0 0
508 23 2 0.2 31.586170129778026 7.570684859275861 30.308938851078942 0 0 0
507 23 1 -0.48 30.433262248332603 8.1737032103349 29.65874942542017 0 0 0
2219 93 6 0.06 26.397712239518622 8.335258534058607 27.67873332602212 0 0 0
2213 93 6 0.06 28.75624592934445 8.904275836312904 27.691407211941282 0 0 0
120 6 3 0.35 27.64166971378654 8.401958918953035 31.40259772691465 0 0 -1
1263 55 6 0.06 28.530251417555217 3.0473070672211686 30.056846628557057 0 0 -1
1256 55 10 -0.22 26.628616892697885 3.1953124648752045 31.18746287152541 0 0 -1
2218 93 4 -0.12 24.91736701104349 8.970084971641452 26.352788368246763 0 0 0
123 6 5 0.08 25.45909535968599 9.118518388704029 30.75215009115973 0 0 -1
1260 55 6 0.06 25.608314093597375 2.896618232758959 30.946930135595114 0 0 -1
2215 93 4 -0.12 26.378395901642108 8.640227866072177 26.632448140191453 0 0 0
510 23 3 0.35 29.759397182244168 8.749736851289597 30.14267552549091 0 0 0
511 23 3 0.35 30.83089179300504 8.59686795879381 28.83236177386617 0 0 0
2008 85 11 -0.8 28.585083342932137 9.632814170931365 30.90277751824418 0 0 0
2209 93 4 -0.12 28.7935510106421 9.384813262699204 26.71376507348378 0 0 0
2212 93 4 -0.12 27.359055158371028 9.74123982096803 26.36708818546781 0 0 0
2208 93 11 -0.8 31.539344291612235 9.20410237117189 27.596327224022165 0 0 0
639 28 7 -0.32 31.598099593851963 2.7339094871521663 25.04242116911248 0 0 0
643 28 8 0.13 31.54302609844678 3.375315941104509 25.921998743478262 0 0 0
1464 63 6 0.06 7.526447185072617 14.56481902244132 31.32110726253057 0 0 0
403 18 4 -0.12 3.379859919543569 16.586924670060526 32.044326151042284 1 0 0
1465 63 4 -0.12 8.98599763084161 12.277034339953284 32.02525296067961 0 0 0
2465 150 14 -0.8476 4.599124392861947 10.12097666859431 30.58097185706403 1 0 0
2466 150 13 0.4238 4.57237957345747 10.1756484375551 31.579114972306044 1 0 0
187 9 3 0.35 3.572069443394655 10.330114157425307 27.391580266292266 0 0 0
402 18 6 0.06 3.502631659637522 13.945961085810954 31.680637502388866 1 0 0
2464 150 13 0.4238 4.946889936319704 11.002794603679952 30.262458913590418 1 0 0
185 9 1 -0.48 4.572242010374582 10.404006516367412 27.272046978742917 0 0 0
1459 63 4 -0.12 7.024747439438778 13.654792308149416 30.992107577562805 0 0 0
2383 123 13 0.4238 7.929267102029563 11.96492441871593 27.10510106295325 0 0 0
1466 63 6 0.06 6.917981521231757 11.603868467305507 31.43172620674039 0 0 0
1455 63 9 0.7 6.349922988394438 12.860835032374894 28.666909014354534 0 0 0
1457 63 11 -0.8 5.382652337129495 12.315197757083137 29.274712246657582 0 0 0
189 9 3 0.35 4.7578964107669375 10.927832819394174 26.428701433559198 0 0 0
188 9 3 0.35 4.975264921723117 11.11098403490748 27.87025158480413 0 0 0
1458 63 11 -0.8 6.514279208600276 12.807733973493127 27.42788659372828 0 0 0
1456 63 10 -0.22 7.392745660892944 13.553507789261138 29.466638482083866 0 0 0
2469 151 13 0.4238 7.275031421591654 14.303773575790284 26.551578025134575 0 0 0
1463 63 6 0.06 5.953391806281503 13.720661470607599 31.181713416236835 0 0 0
1461 63 6 0.06 8.326984556197136 12.995059080283495 29.40811709845306 0 0 0
395 18 3 0.35 3.621128629418899 12.217251372467887 29.61496141929753 1 0 0
2844 276 13 0.4238 3.000321171993618 11.088882982600845 25.380079174967587 1 0 0
392 18 1 -0.48 2.6272556243103438 12.249700192202939 29.791757403526134 1 0 0
401 18 6 0.06 4.143776891723846 14.58186494156457 30.222604611124776 1 0 0
397 18 4 -0.12 3.2021778996955677 14.425028697605894 30.74880394851901 1 0 0
1460 63 6 0.06 7.533694825362581 14.540380185977368 29.025834391729695 0 0 0
2468 151 14 -0.8476 7.564256509034815 15.147270974780959 26.098968931456188 0 0 0
2384 123 14 -0.8476 8.84257847913966 11.561350222879119 27.05045840085924 0 0 0
1470 63 6 0.06 9.461602647020348 12.023416326213182 31.077851366762097 0 0 0
2385 123 13 0.4238 9.172100574337911 11.886671729962249 27.936784754561 0 0 0
2329 105 13 0.4238 9.578588525525277 12.28298279973535 25.79916433309592 0 0 0
1462 63 4 -0.12 7.458311269540154 12.4611010849706 31.833333043714028 0 0 0
1207 53 11 -0.8 5.523264614519135 16.89679015773565 25.731477480014174 0 0 0
2467 151 13 0.4238 6.928755962903 15.876755547223357 26.3519222186969 0 0 0
1205 53 9 0.7 4.4267204620580785 16.382802006279192 26.029759143552063 0 0 0
1206 53 10 -0.22 3.9983764958905033 16.16878753377675 27.471260662338512 0 0 0
1210 53 6 0.06 4.333849782805531 15.201746851145781 27.84593653703009 0 0 0
310 14 6 0.06 8.1661863454759 16.73333455659335 28.375536997121774 0 0 0
1211 53 6 0.06 2.9214124359704288 16.21757724126215 27.632071253680085 0 0 0
1214 53 6 0.06 4.166360074325141 16.91951536807222 29.37002520788745 0 0 0
1208 53 11 -0.8 3.689670903259042 16.02621943357498 25.09915371861928 0 0 0
1209 53 4 -0.12 4.568658921501733 17.239747677833602 28.4089326319915 0 0 0
1213 53 6 0.06 5.648396504429273 17.247321431029626 28.259931279486896 0 0 0
316 14 6 0.06 7.469838269851728 17.220604652410586 30.576711383516628 0 0 0
407 18 6 0.06 4.309335028148715 16.911065986383818 31.576244487181985 1 0 0
305 14 4 -0.12 9.130624506660004 16.93520555799997 28.841583305900166 0 0 0
304 14 3 0.35 9.048637551364477 15.734199125668113 26.60634797211943 0 0 0
309 14 6 0.06 9.29332934659934 16.099336235884618 29.521981474842548 0 0 0
2330 105 14 -0.8476 10.20147977643714 12.753731934324462 25.174347250692012 0 0 0
1508 65 11 -0.8 14.18931366982978 12.965287671341516 25.245108595003547 0 0 0
1620 69 6 0.06 12.85963517149261 12.965509603437514 31.602214490449345 0 0 0
1514 65 6 0.06 14.01316180425186 10.381835381692273 28.78345382930145 0 0 0
1511 65 6 0.06 14.000407056496526 10.372733374513484 26.16655625590818 0 0 0
1519 65 6 0.06 10.75836197399565 10.321529959342879 29.514537184665834 0 0 0
1509 65 4 -0.12 13.213185746835432 10.819953638099898 28.186643354623556 0 0 0
1506 65 10 -0.22 13.871932422207717 11.205033468508816 26.85855545575957 0 0 0
2331 105 13 0.4238 11.02558833048752 12.926805612869076 25.713685444469363 0 0 0
1505 65 9 0.7 13.468935831126046 12.50237619860216 26.1617712988796 0 0 0
1513 65 6 0.06 12.76972126210278 11.686833636529354 28.676490605601504 0 0 0
1507 65 11 -0.8 12.462813738521183 13.109881246869307 26.52540396928377 0 0 0
2737 241 13 0.4238 11.750869090604056 13.559884265126746 28.304986043005865 0 0 -1
1510 65 6 0.06 14.901392116182862 11.452439576199806 27.117582566318934 0 0 0
2739 241 13 0.4238 11.075612413778876 13.529127166622123 29.80579257284514 0 0 -1
2738 241 14 -0.8476 11.047364933057338 13.949920976800959 28.899079847867394 0 0 -1
2430 138 13 0.4238 12.604201382454262 14.649726244252903 25.777621302714326 0 0 0
1615 69 4 -0.12 13.66440601755169 13.699980299625897 31.570770445022962 0 0 0
1626 69 6 0.06 14.549616911467064 11.098348677709753 30.91149191979083 0 0 0
1625 69 6 0.06 15.363173615387062 12.305651954792797 30.010203192816885 0 0 0
1628 69 6 0.06 16.872680788378048 10.546637789261476 30.525336598366042 0 0 0
1442 62 6 0.06 15.671098422246768 14.436536540339956 27.26242410594022 0 0 0
1624 69 12 -0.18 16.59498269157956 11.160067354671344 31.382471350947437 0 0 0
1448 62 6 0.06 17.16273417339066 12.45253702308838 27.715466958385463 0 0 0
1621 69 4 -0.12 15.328347964356286 11.855592061127078 31.002334879434134 0 0 0
1618 69 4 -0.12 14.98610793157794 13.07823563639243 31.894821497088753 0 0 0
301 14 2 0.2 10.124570771635126 17.058312652163377 27.74750968488879 0 0 0
1619 69 6 0.06 13.708872747448652 14.224931602054168 30.616547788124304 0 0 0
300 14 1 -0.48 9.973554931954208 15.843749836506293 26.997014251675207 0 0 0
1435 62 6 0.06 13.450523199262172 16.11072152324176 28.3525791140477 0 0 0
2429 138 14 -0.8476 12.338309758222094 15.495842923082602 25.31568722608092 0 0 0
302 14 3 0.35 10.536833433239343 15.956756504668412 26.16632775081682 0 0 0
303 14 3 0.35 10.264957804390773 15.002938125144148 27.47473093691053 0 0 0
2428 138 13 0.4238 13.12824716023322 16.062265228423993 25.55054812971179 0 0 0
307 14 5 0.08 11.139064863481419 17.28749538749967 28.07365234337093 0 0 0
1610 69 6 0.06 12.590944945779995 16.4922716327454 30.47497702235588 0 0 0
1606 69 10 -0.22 12.075089770347565 16.683154303438407 31.416013293071313 0 0 0
1433 62 11 -0.8 14.243399842824875 17.07933898359136 26.110447669871167 0 0 0
1436 62 6 0.06 14.082809919988618 17.399135564945492 29.275366342929082 0 0 0
1431 62 10 -0.22 14.348727024673757 16.717451033581277 28.46747628545676 0 0 0
1611 69 6 0.06 11.040134837282029 16.902687487829866 31.1537812660976 0 0 0
5 1 3 0.35 15.049302649698326 16.186068090039964 24.999865271318523 0 0 0
1441 62 6 0.06 16.73865561221516 15.832420009266238 27.01444975815701 0 0 0
1437 62 4 -0.12 16.373997257586975 15.113433397906661 27.7480535991098 0 0 0
1439 62 6 0.06 16.31690035923348 16.673585114811644 29.251491566915895 0 0 0
1434 62 4 -0.12 15.646105886619115 15.9284646161553 28.823797432181127 0 0 0
1438 62 6 0.06 15.273244321862935 15.295608796076003 29.629129549173108 0 0 0
1613 69 6 0.06 11.253159083466707 14.825330373247137 31.912622877299327 0 0 0
1623 69 6 0.06 15.725971331827145 13.86885055046716 31.769832302293075 0 0 0
574 25 8 0.13 23.06948998006102 11.81024298041548 24.885705666436124 0 0 0
1344 58 6 0.06 21.411351167193974 17.12556559380385 25.11024559426237 0 0 0
2028 85 6 0.06 20.023627862774845 12.48616792350104 31.948452312088143 0 0 0
1440 62 4 -0.12 17.545201290353653 14.479875301971664 28.33106526848883 0 0 0
1444 62 6 0.06 17.50955376637934 14.243599713588209 29.394547808371993 0 0 0
1447 62 6 0.06 18.074234095885814 13.287079551132145 26.558083484512814 0 0 0
1443 62 4 -0.12 17.990922311419062 13.156844339203644 27.637059827296653 0 0 0
1451 62 6 0.06 20.187905272766002 13.188464867928912 27.989115585084996 0 0 0
1446 62 4 -0.12 19.31203045010459 12.573923994491885 28.19714162616209 0 0 0
1454 62 6 0.06 19.675825130338776 11.43774668048024 26.415491112932386 0 0 0
1449 62 12 -0.18 19.517875365473756 11.22660809154853 27.473113212939094 0 0 0
1450 62 6 0.06 19.179745824892002 12.46785004718802 29.273868669123598 0 0 0
1453 62 6 0.06 18.64397613953285 10.594832700635969 27.63202206540149 0 0 0
1629 69 6 0.06 17.42192451434494 11.86964544725011 31.354935442143695 0 0 0
2024 85 12 -0.18 20.910584859096343 12.188764888309096 31.38903229194457 0 0 0
2018 85 4 -0.12 23.39458710889188 11.745040107151285 31.662848843548144 0 0 0
2020 85 6 0.06 23.92125477117491 13.296364039683159 30.298205912506425 0 0 0
1452 62 6 0.06 20.329450803846534 10.576015643066855 27.798945709972703 0 0 0
2029 85 6 0.06 20.893801793013456 12.606942112807108 30.382584011090565 0 0 0
2019 85 6 0.06 22.900612203689306 12.212261855715605 29.493340410490323 0 0 0
2015 85 4 -0.12 23.731737169577052 12.227621409041214 30.198384667440177 0 0 0
2223 93 6 0.06 24.72850797089373 10.001919236796603 26.649001739020605 0 0 0
2023 85 6 0.06 23.171963326747115 10.68281024888912 31.561861762769794 0 0 0
2021 85 4 -0.12 22.166669582463474 12.496478922259602 32.21644884873062 0 0 0
2027 85 6 0.06 20.879546327735834 11.10779716620615 31.252513373850647 0 0 0
1343 58 4 -0.12 20.40419127364823 15.32533524100027 25.54162998792752 0 0 0
1347 58 6 0.06 19.585575253701258 14.920231821901016 26.136483786320973 0 0 0
246 11 6 0.06 17.91757319632859 16.891189719999446 31.94505095682149 0 0 -1
1445 62 6 0.06 18.34858179018695 15.2159593817848 28.30187585081879 0 0 0
247 11 6 0.06 17.76392523298783 15.282233377246401 31.444191617961316 0 0 -1
242 11 4 -0.12 18.48092591351067 15.95874779288492 31.909304923061047 0 0 -1
245 11 4 -0.12 19.67812318964653 16.232585907338326 30.909605988796102 0 0 -1
249 11 6 0.06 19.356819624776563 16.47017946918124 29.895502775182553 0 0 -1
1340 58 4 -0.12 20.420173466203998 16.881005028435318 25.492147334932035 0 0 0
1348 58 6 0.06 21.280841439608746 14.932527975334976 26.056682376203693 0 0 0
735 32 8 0.13 23.04099647806114 16.764429232972148 26.439760782352796 0 0 0
736 32 8 0.13 24.759970770851776 16.68477576584761 26.345854676247555 0 0 0
250 11 6 0.06 20.255511071754576 15.335699279790932 30.68530782999221 0 0 -1
1342 58 6 0.06 20.679260147192895 17.17164962305887 27.658899520907546 0 0 0
731 32 7 -0.32 23.880498955487155 16.081926852266363 26.572116800901533 0 0 0
732 32 6 0.06 23.17485712137637 14.770849612638099 27.924600212954573 0 0 0
734 32 8 0.13 23.84803112489088 15.23776204692706 25.883332616498386 0 0 0
728 32 4 -0.12 24.019447300616285 15.459536524506756 27.902925790164264 0 0 0
725 32 4 -0.12 23.874638716144826 16.543338769012678 29.048054166882253 0 0 0
730 32 6 0.06 23.724162176573355 16.292809786578307 30.098141805000438 0 0 0
729 32 6 0.06 22.99170586353236 17.14666254710609 28.837051709477066 0 0 0
2025 85 6 0.06 22.138459081002367 13.585902849625946 32.23770190939139 0 0 0
2462 149 14 -0.8476 28.65416573246946 14.072093441021648 31.976632570308904 0 0 0
2406 130 13 0.4238 30.719643138057187 11.207604950586806 31.832301377953527 0 0 -1
404 18 6 0.06 31.363438732389668 15.571855904075436 31.78246619475531 0 0 0
399 18 5 0.08 31.763378144457445 14.111543777225876 28.98456048488658 0 0 0
394 18 3 0.35 31.944972428189963 11.743425417460037 29.025998750994468 0 0 0
396 18 3 0.35 32.15509735921779 11.802117223501098 30.672222417879354 0 0 0
2016 85 6 0.06 24.927578085192735 10.779607059591022 29.12244070602965 0 0 0
2017 85 6 0.06 25.31638853719319 12.37886853111469 28.716898918308125 0 0 0
2012 85 4 -0.12 25.05101151817632 11.762965833914302 29.576160800130186 0 0 0
2014 85 6 0.06 26.02036561589811 11.025216716635914 31.270461507613213 0 0 0
568 25 6 0.06 25.215400762943528 12.60208155288837 25.85805040159969 0 0 0
2210 93 6 0.06 29.840516721186074 11.064605569987526 25.676682371491662 0 0 0
2206 93 10 -0.22 29.757955894765548 10.610761083255332 26.66425561689509 0 0 0
569 25 6 0.06 26.49895835413055 11.914533389996473 24.89580519313377 0 0 0
564 25 4 -0.12 25.755415586475852 12.711253996361709 24.917541290979337 0 0 0
393 18 2 0.2 31.874023812006833 13.605763158099691 29.94374531897233 0 0 0
2207 93 11 -0.8 31.87254929625497 11.36861765223684 27.208406600098236 0 0 0
2216 93 6 0.06 27.233535918869034 10.092848659130823 25.343023657675698 0 0 0
2010 85 6 0.06 27.369339986552987 10.564067057656922 29.037467943821465 0 0 0
2211 93 6 0.06 29.339636828431956 11.480319921835711 27.171176352597485 0 0 0
2011 85 6 0.06 27.75106779106867 12.295034663847494 29.228853552400825 0 0 0
2217 93 6 0.06 27.034616976382456 10.587567161396937 26.972531757928948 0 0 0
2205 93 9 0.7 31.162180205878514 10.367139706084231 27.17409982061327 0 0 0
2005 85 9 0.7 28.587589396674193 10.866887030233173 30.610036010064807 0 0 0
2007 85 11 -0.8 29.437405916839953 11.631233394651765 31.08610915394352 0 0 0
2701 229 13 0.4238 31.363333183666132 13.054110860453433 26.674041579074657 -1 0 0
2009 85 4 -0.12 26.2690383176747 11.734792289451486 30.48131233271268 0 0 0
2006 85 10 -0.22 27.484054628280546 11.37774322780029 29.753612948868597 0 0 0
563 25 6 0.06 28.22422160847758 13.355302126249194 26.235221402179608 0 0 0
2702 229 14 -0.8476 31.17419501438308 14.025799558817182 26.532472303212945 -1 0 0
398 18 5 0.08 30.890990915070702 13.578496173975335 30.413846234908366 0 0 0
562 25 6 0.06 26.821629478701077 14.168822474607353 27.040490109954337 0 0 0
2013 85 6 0.06 26.383697028400835 12.754680711265282 30.848426764198866 0 0 0
2461 149 13 0.4238 28.689770638776224 13.204803446809644 31.480110194135506 0 0 0
2703 229 13 0.4238 31.630857414328112 14.173248226718059 25.655139530798916 -1 0 0
405 18 6 0.06 31.865318666066518 16.258218548229987 30.25255190926662 0 0 0
400 18 4 -0.12 32.232747228325124 15.771283928026042 31.155869656139675 0 0 0
733 32 6 0.06 24.88700005622542 14.828887320049285 28.09715718941021 0 0 0
726 32 6 0.06 26.031072472703716 16.791376190118214 29.130947546558755 0 0 0
566 25 6 0.06 25.836110456713836 14.890312150943995 25.06763635071896 0 0 0
561 25 4 -0.12 26.47930716195855 14.011961120739992 25.013882550085334 0 0 0
558 25 4 -0.12 27.482681711925892 14.151833323910994 26.173995224312097 0 0 0
2587 191 13 0.4238 28.74007229652737 15.29052056516173 30.597137153995305 0 0 0
559 25 5 0.08 28.75353640739585 15.532561614537514 24.95208551260569 0 0 0
2589 191 13 0.4238 29.115631543414278 16.74718356736587 30.05329765803109 0 0 0
2588 191 14 -0.8476 28.989707787888545 15.796084116001417 29.771254780747412 0 0 0
560 25 5 0.08 27.646045813022585 16.385739271808525 25.799266928156754 0 0 0
554 25 2 0.2 28.244468609112953 15.482032493128543 25.914576452555238 0 0 0
557 25 3 0.35 29.9181010336134 15.180135072768378 26.960584085774688 0 0 0
553 25 1 -0.48 29.09274348645521 15.757189042484322 27.037310415448967 0 0 0
556 25 3 0.35 28.689389482118838 15.621826353892294 27.953321181215372 0 0 0
555 25 3 0.35 29.39650500053325 16.7167101487628 27.121819119855328 0 0 0
2662 216 13 0.4238 31.646983454571647 16.441740166814753 25.24284273534252 0 0 0
2663 216 14 -0.8476 30.910423531673313 17.11700961701588 25.28138502121136 0 0 0
2405 130 14 -0.8476 31.654944485716232 10.96694057538277 32.091695714114664 0 0 -1
908 40 6 0.06 3.899930311466008 18.950260213007383 25.08043291909083 0 0 0
411 18 6 0.06 2.6269347228032687 18.539860909017733 31.561049822691366 1 0 0
910 40 6 0.06 3.2862838085201265 21.320302393584 25.112224124882676 0 0 0
916 40 6 0.06 4.894767115460276 23.376690076221937 25.693792198741097 0 0 0
914 40 6 0.06 5.7469576270695235 21.097506099535725 25.67486263335985 0 0 0
687 30 6 0.06 9.811267902810213 22.339958634155995 25.271131424468827 0 0 0
315 14 6 0.06 8.886638119380494 17.499060346563617 31.647646473544206 0 0 0
2601 195 13 0.4238 7.383388672242023 18.797117618240218 25.806861477057982 0 0 0
2599 195 13 0.4238 6.246727740241113 18.440869527845237 26.846806821131366 0 0 0
314 14 4 -0.12 7.539987024440087 19.152394375094673 31.530590973073405 0 0 0
2600 195 14 -0.8476 7.029534752139258 19.047457244251238 26.708033812949452 0 0 0
1212 53 4 -0.12 3.8995972616294727 18.712129813893394 28.25489321619462 0 0 0
1217 53 6 0.06 4.018451777202745 19.16189408542872 27.2691560671077 0 0 0
1216 53 6 0.06 2.83932910057782 18.519422272138623 28.4185613549251 0 0 0
1220 53 6 0.06 4.404397185501151 19.410113790031915 30.323798651080054 0 0 0
1215 53 4 -0.12 4.418393761999694 19.73516993041558 29.283493595580246 0 0 0
1219 53 6 0.06 5.472964507518258 19.831668138452482 29.025306354637085 0 0 0
311 14 4 -0.12 8.247106307307316 17.924459289752264 30.87425987148407 0 0 0
312 14 6 0.06 8.513457107324154 18.9216521003311 28.950417456491586 0 0 0
308 14 4 -0.12 8.993793061513774 18.203789089659942 29.615279907489416 0 0 0
319 14 6 0.06 6.742673208802738 19.364126635554587 30.81816401115506 0 0 0
306 14 5 0.08 9.838436179171643 17.828603803441318 27.03135986767414 0 0 0
320 14 8 0.13 8.733393888046395 20.70393635078826 30.8771539479979 0 0 0
358 16 6 0.06 6.756059022086879 23.40711226738174 31.482513793645257 0 0 -1
2830 272 13 0.4238 7.583166080354563 20.572458220962428 26.840787279315848 0 0 0
919 40 8 0.13 7.154502106061292 23.303986295569896 25.483917895558324 0 0 0
1218 53 4 -0.12 3.890617925260286 21.137301188148715 29.078105426390106 0 0 0
1221 53 4 -0.12 4.263637715407469 22.08342516544509 30.262882440255243 0 0 0
1228 53 6 0.06 3.9514837176079145 23.931309862739173 31.054607624853404 0 0 0
1224 53 12 -0.18 3.5334720901821166 23.418316358824786 30.188469095432822 0 0 0
353 16 5 0.08 7.649530189946317 24.04943981477527 28.38018237704625 0 0 -1
1225 53 6 0.06 5.3122116215859965 22.364125705876063 30.36183712393261 0 0 0
1223 53 6 0.06 4.16944939646312 21.65299586306671 28.15919081949392 0 0 0
1226 53 6 0.06 3.978539125106707 21.626116277750604 31.210341877053008 0 0 0
352 16 5 0.08 7.939125274897569 22.618917609470234 29.370390805511583 0 0 -1
354 16 4 -0.12 7.119500097387829 24.403503872432562 31.23110495288021 0 0 -1
347 16 2 0.2 8.344143272593545 23.589162996538754 29.082855810609253 0 0 -1
2831 272 14 -0.8476 8.20136199877593 21.32984082565902 27.05102253443562 0 0 0
1229 53 6 0.06 3.5658631421510294 24.003391095544373 29.269376934229065 0 0 0
359 16 6 0.06 6.3852563829278814 24.825842836052004 30.545096218672096 0 0 -1
351 16 4 -0.12 8.42165966117241 24.43959204826756 30.415925674962505 0 0 -1
2832 272 13 0.4238 9.109258042021603 20.91355908048014 27.001752156586292 0 0 0
349 16 3 0.35 9.45244023751238 22.619447393428263 27.72803436714827 0 0 -1
346 16 1 -0.48 9.611677935579976 23.34775331351991 28.409435154240153 0 0 -1
356 16 6 0.06 9.276178963364968 24.11938652197127 31.012044166419972 0 0 -1
317 14 7 -0.32 8.282282394291766 20.40271085781719 31.822592276966684 0 0 0
1222 53 6 0.06 2.810548267763649 21.01872787076279 28.99160670070528 0 0 0
321 14 8 0.13 7.482287405981457 21.066358009975062 32.150727165772366 0 0 0
2522 169 14 -0.8476 12.22668504247819 18.77847991992511 25.149334918164453 0 0 0
2521 169 13 0.4238 12.941211363778002 19.465293948336925 25.016165234247012 0 0 0
681 30 6 0.06 12.186685675710796 23.705348200384783 25.275084666148537 0 0 0
313 14 6 0.06 10.002725204655395 18.53740443289671 29.857867600708968 0 0 0
1605 69 9 0.7 12.59261776805088 18.01377771779429 31.991611777614654 0 0 0
2523 169 13 0.4238 12.735870655157582 18.109808576232105 25.691185781739478 0 0 0
2770 252 13 0.4238 13.484182981860934 19.554092716429796 28.611201421796736 1 0 -1
2772 252 13 0.4238 12.681707470007902 19.36027703225424 29.848284653097604 1 0 -1
2771 252 14 -0.8476 12.521231464079444 19.556041541030364 28.88085654510418 1 0 -1
2381 122 14 -0.8476 10.67117602170899 20.185308817060303 26.850671583300407 0 0 0
2382 122 13 0.4238 11.121953818589244 19.813364566955975 26.03922168513805 0 0 0
1608 69 11 -0.8 12.782685808072912 18.942754443827315 31.228661456250457 0 0 0
2380 122 13 0.4238 11.21461465224856 19.9353917465771 27.652051557226507 0 0 0
1430 62 9 0.7 14.520250197814892 17.551447698931145 27.220549253215303 0 0 0
2848 278 13 0.4238 14.558614137820248 19.64880529047295 25.976788721661695 0 0 0
2433 139 13 0.4238 11.913254124860707 21.255939077350448 29.404936487953677 0 0 -1
2390 125 14 -0.8476 17.16104013742537 18.354851209937394 25.58270993553734 0 0 0
2391 125 13 0.4238 16.40545759469281 18.46903909697079 26.227729300332108 0 0 0
2849 278 14 -0.8476 14.407827753862025 20.336513238220963 25.26663681368647 0 0 0
1432 62 11 -0.8 14.991207615364216 18.716881400016053 27.381083750078407 0 0 0
855 38 3 0.35 15.807387596080686 19.290634908849253 28.838513825616495 0 0 0
853 38 2 0.2 16.28386032484447 19.274787142931157 30.932673123662955 0 0 0
852 38 1 -0.48 16.198091617546837 19.83677734255113 29.59294892771651 0 0 0
859 38 5 0.08 15.310895636902798 18.874355733709564 31.217429893689147 0 0 0
858 38 5 0.08 16.986504193534646 18.44194999524819 30.90499816861306 0 0 0
857 38 4 -0.12 16.737563433707024 20.35842246047013 31.96236574009609 0 0 0
854 38 3 0.35 17.133256154469827 20.06673846509558 29.288516743676684 0 0 0
669 30 2 0.2 14.458084312982567 24.355949436448604 24.98068413257438 0 0 0
2762 249 14 -0.8476 13.221709377399147 21.31819068811117 32.033383271518105 0 0 0
350 16 3 0.35 10.003277945756064 24.151019610329538 27.93879030228761 0 0 -1
348 16 3 0.35 10.328774135608015 23.16459058667071 29.096688925423354 0 0 -1
2432 139 14 -0.8476 11.304762978070796 21.812763772106067 29.97033769425864 0 0 -1
2459 148 14 -0.8476 13.122583954646052 24.467257719562216 29.152163183378814 0 -1 0
2431 139 13 0.4238 11.57267310970738 21.724472329493896 30.929724046295643 0 0 -1
2460 148 13 0.4238 12.393747422953984 24.7138657973225 28.513433197130404 0 -1 0
2761 249 13 0.4238 13.77715178545613 21.727541105208143 31.309567510249497 0 0 0
2644 210 13 0.4238 14.294382248717794 23.00548736128737 29.39854056888003 0 0 0
2763 249 13 0.4238 13.027863303768722 20.399661831240127 31.68882287327456 0 0 0
2458 148 13 0.4238 13.941318318463312 24.83964780652225 28.71513438541214 0 -1 0
675 30 5 0.08 14.184442311713742 24.008443258694264 25.976902746777423 0 0 0
861 38 6 0.06 15.846797795750687 20.972789900227074 32.093442987504204 0 0 0
668 30 1 -0.48 15.851799989189871 24.19293579042166 24.945132114125492 0 0 0
2850 278 13 0.4238 15.150436002109911 20.96680117531185 25.49305514780124 0 0 0
672 30 3 0.35 15.957692088503347 23.214332267136456 25.17143980153574 0 0 0
856 38 3 0.35 15.62034220610214 20.658928562130768 29.694764561163314 0 0 0
2645 210 14 -0.8476 14.750748497083874 22.193267600017045 29.761890509664322 0 0 0
2646 210 13 0.4238 15.6899460332338 22.532082893500075 29.70615053352314 0 0 0
2783 256 14 -0.8476 16.342630965756825 21.841182562747825 26.295160096665814 0 0 0
2784 256 13 0.4238 16.426795156300543 22.462855430053253 27.07389788212801 0 0 0
671 30 3 0.35 16.159942715096502 24.82176516554314 25.672947277699045 0 0 0
2402 129 14 -0.8476 17.13118644243007 22.915537444728432 28.842301475897905 0 0 0
2782 256 13 0.4238 17.1274766996829 21.279443884915928 26.556809031901196 0 0 0
484 22 1 -0.48 20.530142094383407 24.264512961224078 31.841213920184373 0 0 0
488 22 3 0.35 20.37152062565803 23.43113396637693 31.29311524456038 0 0 0
2582 189 14 -0.8476 22.14786784472571 20.24498563597538 31.63001105846867 0 0 -1
1341 58 6 0.06 19.077030438758396 17.5233642018351 27.065450493135675 0 0 0
251 11 8 0.13 19.8884661222512 18.353592538514953 31.398344902941055 0 0 -1
1339 58 6 0.06 20.26854634364513 19.664778138793775 25.892463009314717 0 0 0
2389 125 13 0.4238 17.85610378327808 18.89310454271904 26.05932736135501 0 0 0
862 38 6 0.06 17.55637889839482 20.93567764601937 31.53293620429153 0 0 0
1332 58 11 -0.8 18.173808104718283 20.19080647396571 27.258668973974228 0 0 0
1330 58 9 0.7 18.97478747533729 20.301757668176386 28.161867162865345 0 0 0
1337 58 4 -0.12 20.136646798405465 17.648238407015 26.842489151112773 0 0 0
248 11 7 -0.32 20.489504636512848 17.44483163330595 31.366748547432714 0 0 -1
723 32 6 0.06 24.283463917663433 18.91806229548238 30.62541865868707 0 0 0
1331 58 10 -0.22 20.34191360098018 19.836521056768763 28.02463745735611 0 0 0
253 11 8 0.13 21.324691022375255 17.681920558401742 30.70770032005951 0 0 -1
1338 58 6 0.06 21.71776535850424 19.165011457130383 26.5532832529578 0 0 0
1334 58 4 -0.12 20.646122377174525 19.08876865262613 26.73729523767617 0 0 0
1335 58 6 0.06 20.712016324197766 19.298463560933968 28.897340226628202 0 0 0
777 34 7 -0.32 19.22669744579351 22.86720819520862 25.092852706598837 0 0 0
782 34 8 0.13 18.530297527207857 23.537747789671226 25.596336451833462 0 0 0
781 34 8 0.13 19.36079874142565 21.942774492489885 25.65457433720382 0 0 0
2401 129 13 0.4238 17.78353083648814 22.227245822647085 29.159629143907498 0 0 0
1333 58 11 -0.8 18.60740655996449 20.801985246633336 29.17882585297605 0 0 0
2403 129 13 0.4238 17.776293394224563 23.679269058742218 28.818919617858537 0 0 0
2752 246 13 0.4238 19.486532399308565 21.35028078506039 30.35187112484501 0 0 0
2753 246 14 -0.8476 20.118608007415727 21.777294280470898 30.99850554556431 0 0 0
2420 135 14 -0.8476 19.082881415971453 24.7760624214914 28.927686745705955 0 0 0
775 34 6 0.06 22.265927861189013 24.73571955748535 25.188444849451113 0 0 0
771 34 4 -0.12 21.411170324639524 24.302758442008408 25.70808533920395 0 0 0
1336 58 6 0.06 21.00399278635981 20.688640026253253 28.178378980586615 0 0 0
2754 246 13 0.4238 20.781644462695994 21.070494761927137 31.245107703119004 0 0 0
772 34 6 0.06 21.022638502966 22.922694717484994 27.1762440114524 0 0 0
773 34 6 0.06 22.509699179657805 22.49340072985139 26.138795908553018 0 0 0
768 34 4 -0.12 21.921963817002407 23.251951702612722 26.655767461843578 0 0 0
764 34 3 0.35 23.819554033319022 22.875677015117866 30.728708167612893 0 0 0
761 34 2 0.2 23.05706684030506 22.958062799786322 28.999074773465914 0 0 0
760 34 1 -0.48 23.825048137578907 23.594200934126835 30.018928924550654 0 0 0
765 34 4 -0.12 22.863317583985975 23.843717176161555 27.718595411364312 0 0 0
766 34 5 0.08 22.12634640977849 22.73936153960627 29.522545216291146 0 0 0
767 34 5 0.08 23.60430200461865 22.040942347363004 28.78109365213889 0 0 0
769 34 6 0.06 23.844664443229604 24.08506877971722 27.310184130631654 0 0 0
763 34 3 0.35 23.283304806133092 24.38670446004701 30.332849190440037 0 0 0
486 22 3 0.35 21.21458260198591 24.828472316730856 31.35790725547953 0 0 0
770 34 6 0.06 22.39719670372114 24.768350311295475 28.059002386942705 0 0 0
762 34 3 0.35 24.787902682637288 23.69480273324018 29.7310337578582 0 0 0
1385 60 6 0.06 24.81397405149461 20.333154727499185 26.955740674642648 0 0 0
2583 189 13 0.4238 22.958746319185074 20.813583510967202 31.768459687296264 0 0 -1
1757 75 11 -0.8 24.30723028187919 21.68675925679962 31.949595273888644 0 0 -1
717 32 3 0.35 25.38799457547982 20.352387773033822 31.87935799985383 0 0 0
714 32 1 -0.48 26.294072374530465 19.906381788990128 31.865392789469364 0 0 0
716 32 3 0.35 27.065363340997354 20.55761972762462 31.898456706245018 0 0 0
1761 75 6 0.06 25.015480559545068 24.20936538227801 32.13614853485943 0 0 -1
722 32 4 -0.12 25.151501395989257 17.434234549144158 29.165297540773583 0 0 0
724 32 6 0.06 25.175088886365003 17.66268043021062 31.373604978341923 0 0 0
719 32 4 -0.12 25.146705228848344 18.27104259446117 30.46962385529892 0 0 0
727 32 6 0.06 25.14682329882747 18.06893243322193 28.279166210076486 0 0 0
1386 60 6 0.06 25.47771264372939 19.199077897194652 25.84240976330381 0 0 0
721 32 5 0.08 26.35777485352755 19.864186186902014 29.760516114765636 0 0 0
715 32 2 0.2 26.34272595803371 19.183906181028036 30.6120351624661 0 0 0
2650 212 13 0.4238 29.68927309545715 18.34562355736695 31.49829612353258 0 0 -1
2664 216 13 0.4238 30.920530961557397 17.535374212141658 26.18960449261942 0 0 0
720 32 5 0.08 27.260107667936538 18.608675743140903 30.487083928848627 0 0 0
2651 212 14 -0.8476 29.647633685568714 18.351569781632314 30.499184229267094 0 0 -1
2652 212 13 0.4238 29.64241371739866 19.268848361439122 30.100978193441534 0 0 -1
1382 60 11 -0.8 27.748467834645336 19.113895561238667 26.5761114611412 0 0 0
2869 285 13 0.4238 30.097246303983574 18.91469342326597 28.26619509423726 0 0 0
2870 285 14 -0.8476 29.834931719691884 18.229206512479806 27.58701024131838 0 0 0
2871 285 13 0.4238 28.966244528661953 18.618299963620032 27.280444929475337 0 0 0
2756 247 14 -0.8476 29.21338238638416 20.76866353563103 29.54970782662367 0 0 0
1227 53 6 0.06 32.22391954363117 23.546430011126667 30.45760202085755 -1 0 0
1389 60 6 0.06 25.633213840310063 22.182835664062853 25.57085086764601 0 0 0
1381 60 10 -0.22 25.630688775394077 20.19985766862855 26.246303555383026 0 0 0
1384 60 4 -0.12 25.594070891783716 21.212709080845823 25.075457838401576 0 0 0
2127 89 6 0.06 25.688809614272778 24.479251570589675 24.912798519720155 0 0 0
1057 46 8 0.13 29.265706198809987 21.26041063631968 26.093457714915704 -1 0 0
1050 46 4 -0.12 29.526576052907664 23.15008291301058 25.291182712296454 -1 0 0
1054 46 6 0.06 28.442372846269876 23.21378368322743 25.198783229554444 -1 0 0
1380 60 9 0.7 26.975412243126108 20.044018421030287 26.90087373364317 0 0 0
2474 153 14 -0.8476 26.39368985677219 22.54467502576631 29.705539584335146 0 0 0
2755 247 13 0.4238 28.657698120300935 20.95133564983976 28.73863385869376 0 0 0
1383 60 11 -0.8 27.22133437277958 20.888855122982832 27.840550993281386 0 0 0
2757 247 13 0.4238 28.78116931243703 21.394921580933083 30.19854298595513 0 0 0
2475 153 13 0.4238 26.768598591518877 22.04671989888266 28.92356780381021 0 0 0
1055 46 6 0.06 29.82058944053609 24.146630065213436 25.620639740001597 -1 0 0
2061 87 6 0.06 30.50466558661848 22.27550071752014 31.12868651806767 0 0 0
1056 46 8 0.13 29.73233028791298 22.383423263881152 27.319131518335784 -1 0 0
2058 87 11 -0.8 28.042363832099834 21.88696387430658 31.701062173880143 0 0 0
2473 153 13 0.4238 26.86427857062683 22.333508223190563 30.562248225347286 0 0 0
1053 46 7 -0.32 29.94329761532903 22.09116506952612 26.290457642389708 -1 0 0
1058 46 8 0.13 30.99327265219846 21.816555478090567 26.189294112672275 -1 0 0
1253 54 6 0.06 29.778692508619585 24.111111535028456 29.458333908197808 0 0 0
2060 87 6 0.06 30.090642987455333 23.72786191716161 32.1003729296102 0 0 0
2056 87 10 -0.22 30.308698445687366 22.660296619814467 32.1294967060423 0 0 0
2103 88 6 0.06 4.343736695108779 25.618674585818532 27.7327570712765 0 -1 0
2102 88 6 0.06 5.783229226531859 26.132797028787568 28.561241061342116 0 -1 0
2104 88 6 0.06 5.7174504434948865 26.020727555846776 26.743043298752223 0 -1 0
2099 88 12 -0.18 5.194302116739111 26.296280779970147 27.65872790177817 0 -1 0
355 16 6 0.06 8.591564071675817 25.50381498152198 30.252664841377896 0 0 -1
1311 57 6 0.06 9.805504249855938 25.332004847067548 24.896612449598557 0 0 0
1310 57 6 0.06 8.6694571939072 26.43661263405392 25.594716981725288 0 0 0
1306 57 10 -0.22 9.724219986773342 26.32230184961767 25.344715928911253 0 0 0
1277 55 6 0.06 3.926331827058825 30.03563952979974 31.830848807993725 1 -1 -1
1279 55 6 0.06 3.2201539875977203 30.810966258365898 30.446637710154224 1 -1 -1
527 23 8 0.13 5.249128454038205 32.12523008339176 27.860651046149957 1 -1 0
529 23 8 0.13 6.809727041087819 31.990138258030484 28.849625469314347 1 -1 0
2088 88 6 0.06 7.161758164286787 28.94277390866454 32.05100360838591 0 -1 0
1274 55 12 -0.18 3.0745010306045586 29.992948987955764 31.152133979353906 1 -1 -1
1278 55 6 0.06 3.2042854148025697 29.077409908975127 30.575041066995503 1 -1 -1
2101 88 6 0.06 4.161276989840702 28.078394026203345 28.491608532966268 0 -1 0
2100 88 6 0.06 4.407446814272247 27.934143320224873 26.66720891523266 0 -1 0
2085 88 6 0.06 7.446094132197029 31.289893364348334 30.946547288219598 0 -1 0
2098 88 6 0.06 5.906919760885412 29.70198404339494 27.408081711057463 0 -1 0
2097 88 6 0.06 6.6849083160481975 28.154600837330964 26.82686428029738 0 -1 0
2096 88 4 -0.12 4.814001027899652 27.788887404789648 27.668061771583037 0 -1 0
2093 88 4 -0.12 6.110257622070964 28.65020176016462 27.609327271504124 0 -1 0
2095 88 6 0.06 7.893282265072201 29.078734869021073 28.445624930699264 0 -1 0
2084 88 4 -0.12 7.593966468011955 29.182371568284477 31.079468242070746 0 -1 0
2094 88 6 0.06 7.494495901743622 27.370164830831126 28.746015212614267 0 -1 0
2091 88 6 0.06 5.768734418003493 29.60227869292793 29.869677840822877 0 -1 0
2092 88 6 0.06 6.0703438842317485 27.931905925119118 30.407119199143036 0 -1 0
2087 88 4 -0.12 6.537499831631938 28.853061199865433 30.05879419861267 0 -1 0
2090 88 4 -0.12 7.096827224849719 28.384512093330304 28.71359155631276 0 -1 0
2086 88 6 0.06 8.837388680495794 30.847040499802784 31.956881448419846 0 -1 0
2642 209 14 -0.8476 8.859419913343016 31.85493432099796 26.56650249819797 0 -1 0
2643 209 13 0.4238 8.868351096603366 31.7420500924953 27.560067523734173 0 -1 0
2641 209 13 0.4238 9.257371468836574 31.00481568786804 26.221645073362748 0 -1 0
2081 88 10 -0.22 8.265668454791882 30.58156666082766 31.06763919542011 0 -1 0
2089 88 6 0.06 8.347015436632056 28.415219898084274 30.899225072894662 0 -1 0
2083 88 11 -0.8 9.363453223380752 31.869442686604977 29.32113065017885 0 -1 0
2080 88 9 0.7 9.336634910372485 30.790213124403675 29.929256805637127 0 -1 0
2132 90 11 -0.8 13.517718580330394 32.01590330704103 30.094548775796692 0 -1 0
496 22 6 0.06 16.58036757106617 25.292649809068553 31.968085456151968 0 0 0
674 30 5 0.08 14.242314487196168 25.424240837565137 24.963686900127545 0 0 0
2794 260 13 0.4238 12.277877976273107 24.846086761284674 30.829649585164297 0 0 0
2795 260 14 -0.8476 11.606221075937928 25.163487150880147 31.49907305869978 0 0 0
1307 57 11 -0.8 10.887155098419953 25.27357589085154 27.220203368122228 0 0 0
2796 260 13 0.4238 11.474691445812518 26.083589134421466 31.130145933689636 0 0 0
1305 57 9 0.7 10.656327519979692 26.310652767760388 26.555056597456563 0 0 0
2033 86 11 -0.8 14.98636548801714 25.685359252111205 27.470193631404875 0 0 0
2035 86 6 0.06 16.481591579799485 25.534195279683175 30.032234652442224 0 0 0
2030 86 9 0.7 16.13736201217439 25.900368358340685 27.99289902493398 0 0 0
2032 86 11 -0.8 17.193063045967136 25.75778300342447 27.30922578117591 0 0 0
813 36 5 0.08 12.721601120176203 27.88981231780364 32.05124618768794 0 -1 0
2082 88 11 -0.8 10.189092788846237 29.871963070675374 29.71343458069935 0 -1 0
2835 273 13 0.4238 10.650553841117901 28.20069670083663 29.720564022728578 0 0 0
2325 103 13 0.4238 10.520807971688008 29.91127464383945 27.918341366985757 0 0 -1
2499 161 13 0.4238 11.624103693569273 30.44851657171909 25.52910271738512 0 0 0
2324 103 14 -0.8476 10.656819664149191 29.748252167956437 26.94114241485801 0 0 -1
2323 103 13 0.4238 11.045038421769934 28.827440704771714 26.903915852229343 0 0 -1
2847 277 13 0.4238 14.359537322480502 27.267980081977637 26.995601226751898 0 0 0
806 36 1 -0.48 12.228547166925368 29.888844028532265 31.291492552238754 0 -1 0
809 36 3 0.35 13.085422143448902 30.073268192681784 30.78964977992591 0 -1 0
810 36 3 0.35 11.547400343555456 29.657402384346135 30.58257269300053 0 -1 0
1308 57 11 -0.8 11.351824034180495 27.316320602536024 26.789500499632688 0 0 0
2834 273 14 -0.8476 11.052205113804586 27.2995720203809 29.88379753847335 0 0 0
2845 277 13 0.4238 12.943129058782931 27.742513931023918 26.664363293260394 0 0 0
2833 273 13 0.4238 11.218989426823228 27.040927712275515 28.93233552227004 0 0 0
2846 277 14 -0.8476 13.886299818555244 27.879720625677 26.361713952554613 0 0 0
2680 222 13 0.4238 14.806958986283497 29.974104306131757 28.33647154513056 0 0 0
2681 222 14 -0.8476 14.612229646207531 30.01271019802326 29.316565140516552 0 0 0
2682 222 13 0.4238 14.24009513782395 30.922742529719486 29.49918614989765 0 0 0
808 36 3 0.35 11.98840798513375 30.811967070667688 31.623562156951337 0 -1 0
2136 90 6 0.06 15.981034181488239 32.03686652455371 30.41418869582058 0 -1 0
2503 163 13 0.4238 14.643281407914474 29.33830712580013 26.48077088169591 0 -1 -1
2031 86 10 -0.22 16.198195933872817 26.409534498115757 29.44780319651859 0 0 0
2505 163 13 0.4238 14.965119055909277 30.73261689138251 25.94885247678256 0 -1 -1
2504 163 14 -0.8476 15.104821841216081 30.177387817747523 26.768728865756938 0 -1 -1
2036 86 6 0.06 15.1892242384686 26.663719530577605 29.77254635833327 0 0 0
2042 86 6 0.06 16.149905604635745 28.419310052537607 31.381458949955718 0 0 0
2034 86 4 -0.12 17.220599318902163 27.593158976201696 29.623103791687004 0 0 0
1089 48 5 0.08 17.100451677434737 28.955507425063598 25.06472794372107 0 0 0
2037 86 4 -0.12 17.17769795466168 28.29775348084277 31.03946640861571 0 0 0
2038 86 6 0.06 16.996347060543663 28.232926350180215 28.76958126923019 0 0 0
1088 48 5 0.08 17.39116092002017 29.129387772678825 26.816731780712043 0 0 0
2044 86 6 0.06 17.492201884356255 30.03181852989822 32.21628922545583 0 0 0
485 22 2 0.2 19.323634112388653 25.039742430679265 32.19612029688183 0 0 0
1822 77 6 0.06 22.860485853625992 32.077838614332705 27.362936180220043 0 0 0
490 22 5 0.08 18.9933914565098 25.4885494897632 31.25931507792219 0 0 0
2421 135 13 0.4238 19.769281968573576 25.440476589885627 29.223325219948617 0 0 0
2419 135 13 0.4238 18.52366448020013 25.232337976005127 28.235527695995522 0 0 0
2048 86 6 0.06 19.690358399316576 29.059215659850157 31.83867548689904 0 0 0
776 34 6 0.06 20.82880843329729 25.100078334614555 26.169851110048512 0 0 0
1232 54 11 -0.8 22.3320340784227 25.70767011995866 30.651606191235818 0 0 0
1233 54 11 -0.8 20.968516025260687 26.91870473438643 29.62767553106586 0 0 0
1230 54 9 0.7 22.103748196323046 26.804987920849953 30.144210445785983 0 0 0
2045 86 6 0.06 17.5049811595454 30.30604641678891 30.470141779046603 0 0 0
1095 48 6 0.06 17.54049716954929 31.737419931789315 25.398711846071993 0 0 0
1084 48 3 0.35 18.877289602423975 27.57552542358531 24.91081487939403 0 0 0
2052 86 6 0.06 18.49498893399977 31.883261061550744 29.443822313411992 0 0 0
2041 86 6 0.06 17.651143081436327 27.588638357278455 31.718507988602845 0 0 0
2040 86 4 -0.12 17.831544424854158 29.630970016004895 31.261166639640145 0 0 0
1094 48 6 0.06 18.07921181534821 31.39755304287607 26.973153594633978 0 0 0
1083 48 2 0.2 17.857749191745683 28.947199999636965 25.84864343594535 0 0 0
2039 86 6 0.06 18.213558460785926 27.21806715864109 29.37525245138585 0 0 0
2049 86 12 -0.18 19.499747037859862 31.975884052310064 29.85610164218938 0 0 0
1090 48 4 -0.12 18.443165564962648 31.470544709646294 25.948311219261726 0 0 0
1086 48 3 0.35 17.923157815353242 26.885185299154234 26.20593222755511 0 0 0
2046 86 4 -0.12 19.88494999416805 31.128722445904646 31.057229865784088 0 0 0
2043 86 4 -0.12 19.276145128616378 29.66864837454413 31.035487349505253 0 0 0
2047 86 6 0.06 19.446777778204375 29.063230727653423 30.145292934946756 0 0 0
1087 48 4 -0.12 18.937160114051082 30.07939616056897 25.64944056672851 0 0 0
1092 48 6 0.06 19.757418461091106 29.972452266542657 26.359251280557384 0 0 0
1082 48 1 -0.48 18.47238533122211 27.646525533200975 25.83336875630041 0 0 0
1085 48 3 0.35 19.297867413107344 27.691278135500667 26.413601340323204 0 0 0
1238 54 6 0.06 24.470708587344138 27.007969669024938 31.79935019672423 0 0 0
1817 77 6 0.06 24.390580664345812 31.182543204564276 25.296055080866562 0 0 0
1815 77 4 -0.12 24.276186596699112 30.45370190920233 27.370648323444385 0 0 0
2123 89 6 0.06 24.277183309354825 27.668790555313624 25.974461088506924 0 0 0
2118 89 4 -0.12 24.407669372666433 26.72287870214477 25.448803235803076 0 0 0
2122 89 6 0.06 23.831524466618013 25.910334028431997 25.891432032646257 0 0 0
2050 86 6 0.06 20.974366804344864 31.125170413595733 31.092591278567113 0 0 0
2054 86 6 0.06 20.016549664879072 31.62707838207298 28.962042546428286 0 0 0
1818 77 4 -0.12 23.729574023914132 31.723671837504163 27.917322023926157 0 0 0
1821 77 4 -0.12 23.35321649972361 31.62033448474551 29.415635929898674 0 0 0
2315 100 14 -0.8476 20.62597850816914 28.098380667017313 27.456769722004985 0 0 0
2316 100 13 0.4238 20.730873309208324 27.48493721383021 28.239506969262134 0 0 0
2314 100 13 0.4238 21.29315051117995 28.807368777412492 27.685266287644676 0 0 0
1826 77 6 0.06 22.693434156860512 30.792709340449758 29.67605077788812 0 0 0
1234 54 4 -0.12 24.50029875615135 27.65161181870368 30.920179435481458 0 0 0
1231 54 10 -0.22 23.15539474340068 27.95749800528332 30.30057686331638 0 0 0
1825 77 6 0.06 24.2853057850391 31.441990401833436 29.95182151375993 0 0 0
1820 77 6 0.06 23.494437929166253 29.70086222249605 27.269685647453954 0 0 0
1235 54 6 0.06 22.590925050822033 28.597353053294437 30.978847856972227 0 0 0
1236 54 6 0.06 23.30593419039994 28.468279497423094 29.349507902314354 0 0 0
2051 86 6 0.06 19.51189036569548 31.70499094808953 31.903889855265444 0 0 0
1809 77 4 -0.12 26.403114451361716 31.23703302589944 26.072048012112234 0 0 0
1244 54 6 0.06 26.99533720204901 26.193017561945073 31.454934146715207 0 0 0
1271 55 4 -0.12 31.477043069934478 30.073316779971428 31.854725352693603 0 -1 -1
1270 55 6 0.06 28.872107204728866 31.168868928762635 32.125948049256806 0 -1 -1
1273 55 6 0.06 30.425982610646876 29.806016983442277 29.937444260307903 0 -1 -1
1814 77 6 0.06 26.954195315514745 30.579279331370376 26.744180453019446 0 0 0
1268 55 4 -0.12 30.44670643949144 30.515415632455774 30.76473871430442 0 -1 -1
1264 55 6 0.06 27.1212637840229 32.22927773669318 29.144147357902273 0 -1 -1
1250 54 6 0.06 29.246577747509658 25.759078250545766 31.224427916265082 0 0 0
1240 54 4 -0.12 26.912343873960904 26.835612852858198 30.578420885091997 0 0 0
1251 54 6 0.06 29.755138975919568 27.04092268399902 30.160501318574315 0 0 0
1242 54 6 0.06 25.170201681234882 25.98733101902852 29.640964001013764 0 0 0
1252 54 6 0.06 31.103063767589877 25.175581724788277 29.602025442665685 0 0 0
1248 54 6 0.06 27.47009750872403 25.212313648075448 29.338455270423903 0 0 0
1249 54 12 -0.18 30.05599069413558 25.153282902688467 29.29997785481086 0 0 0
1946 82 4 -0.12 31.10541001131064 28.570319994450838 25.507265619436136 0 0 0
1254 54 6 0.06 29.94665262442406 25.545644786972222 28.288944051197014 0 0 0
1813 77 6 0.06 26.29565732286831 32.22565879287209 26.518326067889443 0 0 0
1237 54 4 -0.12 25.523146247295013 26.97423760870121 29.940192277943034 0 0 0
1812 77 4 -0.12 25.006506764350476 30.62163036777102 25.998980297777727 0 0 0
1241 54 6 0.06 25.644001257071984 27.585697466850387 29.045987088916966 0 0 0
1819 77 6 0.06 25.047791951121106 30.172999643311996 28.08753285275912 0 0 0
1266 55 6 0.06 27.972356819540494 30.27010561687306 29.446281614780386 0 -1 -1
1239 54 6 0.06 24.873864811945754 28.607085026599457 31.288433918158848 0 0 0
1816 77 6 0.06 25.02637837301227 29.65112460440811 25.50318220826973 0 0 0
2121 89 4 -0.12 25.9168722008645 26.489682915487343 25.35404948920447 0 0 0
2125 89 6 0.06 26.255739266982367 26.539728208159158 26.388823220017603 0 0 0
1247 54 6 0.06 27.849363568464724 26.833665574469787 28.671080605460006 0 0 0
1259 55 4 -0.12 27.57545316665183 32.26615587697686 30.1343210874121 0 -1 -1
1267 55 6 0.06 26.928255017900344 30.39082764698827 30.83694632546453 0 -1 -1
644 28 8 0.13 31.23916472371574 31.55153246055488 25.50123701324895 0 -1 0
1245 54 6 0.06 27.239862082624953 27.86554820890363 30.72004363985286 0 0 0
1262 55 4 -0.12 27.842566074781452 30.78834715778058 30.396372221579163 0 -1 -1
1269 55 6 0.06 28.906873034882064 29.54905974121331 31.860626305310543 0 -1 -1
1272 55 6 0.06 30.750187813544102 31.5404241302275 30.551786418840358 0 -1 -1
1265 55 4 -0.12 29.034294265423192 30.47551856537674 31.30068890614894 0 -1 -1
1246 54 4 -0.12 29.232977245962235 26.084430619242102 30.184210192843754 0 0 0
1953 82 6 0.06 30.655869056327482 28.646862794852154 27.648198058821457 0 0 0
1954 82 6 0.06 29.28112858980787 29.037626430633523 26.590960576904692 0 0 0
1949 82 12 -0.18 30.156939199388948 28.399958550693448 26.71107517352128 0 0 0
1951 82 6 0.06 31.67073557206638 27.641091840368162 25.436314541126034 0 0 0
1950 82 6 0.06 31.754671970522917 29.442652835726992 25.43252376811562 0 0 0
1243 54 4 -0.12 27.873477714863043 26.200791603148787 29.55820016211951 0 0 0
1952 82 6 0.06 29.69990823693413 27.43207854541537 26.91704362423116 0 0 0

Velocities

616 0.0010962616233576208 0.0017794115705248503 0.00025002737646406576
1153 -0.02729460383878872 0.007499530482308673 0.008735564969347248
2378 0.005036609510023153 -0.006767017046898929 -0.002258811247855492
2379 -0.01052824497667363 0.007887598355763683 0.007190337498753659
1647 0.010408197829438498 0.004482677969001891 -0.0042180923485564846
1149 0.0037744669022710432 -0.006888028179285509 -0.0007829700273628998
1154 0.007678648826726958 -0.01028131524489315 0.019965399449632982
619 -0.004158116452526386 0.0009771513378545738 -0.005448937884099038
1150 -0.007944228465620637 -0.01100829471180492 -0.010257029509959431
613 -0.001341130455472072 0.0024023337420761293 -0.0038928628898815096
618 0.0033092492054199217 -0.00039718764646614637 -0.004754739433296119
621 -0.04198968043000056 0.019955540146444174 -0.008455328516980505
1640 0.0008785422993033545 0.0009696857323265129 -0.0052166499067528614
1646 0.000986401530769069 -0.005275343868773451 0.010831152802804929
1645 -0.0030906366674157094 0.007604685601318865 0.0018898948042607444
1146 -0.005220179349875391 0.0003833825280986048 0.007584538462882398
1151 0.026943915435704006 0.004271789616444027 0.01926156292078082
1649 -0.0019121922575945848 0.0035719601362255537 0.0044405355315865445
617 0.00032875799376368245 0.004693329600577865 -0.016139701325009442
620 0.012069243806717592 0.02905262506350916 0.01481951155056724
1654 -0.004730429071573987 0.0018555116269641254 0.028062652217909857
1152 0.0036110339486641486 0.002354245710582332 -0.0018497369377994434
614 0.004049229374005213 0.002878364832237198 -0.009528022552479615
1639 -0.010090205743747149 -0.004629462547491018 -0.013804995261786157
610 0.003967064700595168 0.0010990800679503774 -0.002293738132810988
615 -0.01940785024554606 -0.005981985238055343 -0.004536439288080055
1651 -0.008457409486084085 0.008256736152060382 0.01238033487196955
2547 -0.010087019622166578 0.006746149890338712 0.0034987481133658058
1643 -0.0012142814172694785 0.0005834796529270928 0.008365937603698321
1637 0.0013382293929089302 0.006731001912628571 0.0009748048370084045
1641 -0.004944929945538447 0.008477715529658043 -0.0016913606046488705
655 0.011332849495811523 0.007565139354665492 0.0074691153705163955
1648 0.00023703238998145783 -0.004769777260133428 0.0054768696592499225
1634 -0.004668054305418351 -8.694895221557792e-05 -0.003117147112491803
1635 -0.0008847925381818953 0.00740785282610268 -0.012798174467602045
612 0.009850695005032451 -0.00976550493514358 -0.007474360286305612
603 0.0035404572015962327 -0.013681209267864636 -0.00043800500505471564
604 0.0023392082730926294 0.005863497183999577 0.005248995081316951
602 0.008516096281426971 0.0012712091691392186 0.02780235580415167
608 -0.025479576180091095 0.021635250609846505 0.0029518246938826436
607 0.004793588031150665 0.005138622064089581 -0.0036144840594100804
609 0.004339938919577219 -0.026566585835283704 -0.0036757934765568093
599 -0.005922704817798256 -0.0024166582947241473 -0.002233568610703463
600 -0.0039356950791392155 -0.0054254612243542265 0.008748520434945244
606 -0.01966444271255821 -0.012779621838776537 0.009711241973840327
611 -0.013122186298696542 0.010688803196288075 0.014630966371253397
463 0.010851977439277906 -0.005493642554301172 0.010339508364574328
468 -0.026821120335929656 -0.01772776914100707 0.0019494178896323133
605 -0.005875949254690445 -0.00857392714662765 -0.00028629237390716706
461 -0.001172064542946452 0.003989944274213736 0.0014425200371079403
464 -0.004373625756730552 -0.00032553627556462805 -0.014383278978193238
462 -0.008652976883336227 -0.0008425136433189743 0.002754187260740801
1860 0.019260234352027138 0.0007815506683000497 -0.002281632228009659
601 -0.014927003840789294 -0.012207468513868771 0.010121220691118381
467 0.004096994660789954 -0.004535129067753733 0.021900918664761786
2653 0.0007255887515701057 0.0006444188569485308 0.003219366598197549
2655 -0.009462969770043652 0.00045373523133358904 0.00527751058486652
2654 -0.0020348526438312363 -0.0003435573066776674 -0.0011462948425585567
1708 -0.004578709162086865 0.0010528935884016044 0.0070815495690416
2318 0.0034644158149351265 -0.00016689719052083562 0.0028638569410188
2319 0.007513527367118182 -0.001997204650161728 -0.009341051190924076
2424 0.001555674341754521 0.012711008915078665 -0.0035928356233981894
1705 0.00535194895836408 -0.0028248653154314784 -0.0011566478946162606
1707 0.00017997004009206018 0.0029624050430214783 0.0029514022266028143
2781 0.003724115838546312 -0.00020455674596990726 -0.00991831030610514
1857 -0.0014093285991152874 -0.0068482780033162615 0.003724385561973165
2413 -0.0036235880651814983 0.00508115876441844 -0.0009468069959751124
1866 -0.0014295879147533613 -0.004036002088556917 0.0008133123976103943
1856 0.0013086812353835526 0.0038560006618711994 -0.0002585492760146716
1855 1.6956176711797456e-05 0.0025417430006896137 0.007823901969043806
1861 -0.002478283714612184 -0.009181092777153597 -9.298882445603609e-05
2740 -0.003080353742518096 0.01989338943294944 -0.00605330346051572
1632 -0.002447797611849831 0.0038553472993430125 0.006122518917913698
1633 -0.0038327572417758042 -0.008259559405769964 -0.0006718804678253372
2610 -0.01519158936476766 -0.0042969541865729745 0.003803361064484914
2423 -0.003085354877925119 0.001941045017589178 0.0076441107685927346
2780 -0.004807880087567677 0.002373821415386734 -0.008381541524739328
2317 0.015755224356251957 0.005192493770840523 0.002039132723357066
2779 -0.009262694653944022 0.008218557797863386 -0.00011109117845738561
2422 0.0010363159324502612 0.01366207269611313 0.021203696317426593
2863 -0.013954593364494899 0.005208426060329705 0.019956526873703865
2865 0.014945083584774756 0.009552119587958364 0.009625837590263966
2864 -0.001020735166336081 -0.00018073540873678006 0.004222695472493676
1711 -0.003227581074042469 -0.008215623741258156 -0.011332997019011724
1706 0.00206478219345875 0.003201880557403437 -0.0027813833702686726
1710 0.009686008571358855 -0.013999645332753616 -0.0030334720767855377
2686 -0.0015035053653799494 -0.0014188926253745917 0.0031507951112745014
146 0.014123807597605783 -0.025329895118872285 -0.00996733674356767
1709 -0.005203402545615561 0.007450525416878908 -0.007289747353118239
2687 -0.003308467903896663 -0.0046193955115439635 7.222799781343321e-06
147 0.003463710858477487 -0.0019333580272511482 0.009897542998759204
153 -0.0024917600730650835 0.005849155230297613 -0.0002668624228743999
2808 0.009720910429030491 -0.006343672698550153 -0.010712634250170616
2807 -0.00011429629662987177 -0.004317826961859304 -0.0008851860059778223
2688 0.0028488949902198786 -0.001792828731224106 -0.0049889864777533715
99 0.009843459180607254 -0.023087046098039545 -0.015236495106242908
100 0.0047629479615494364 -0.022695028178990106 0.012729764489735092
2806 -0.018979585137551578 0.037343374445382306 -0.0005341138423151632
105 0.006727132202487537 -0.0025279945689361794 -0.0003209278977720304
98 -0.003449514486563969 0.0009287218130817553 -0.0018597191924488712
152 0.0019977613307597497 -0.008017946591720244 0.007372265843970703
158 0.010256085184241478 0.0058491293906857205 0.0014027112000257129
101 0.0040804137242726945 0.0009513047091702391 0.005365668638393645
150 0.008743566543917933 0.0012228000926119984 -0.0029077812992951996
94 -0.0018467150514564913 -0.005085794032804522 0.007035552996222363
106 0.0038504842762127284 0.007004974866045351 0.004358520089744818
154 -0.001695254591056455 0.00672580078011356 -0.00027516705181295463
2696 -0.0019971779272090697 -0.0035278294923336583 -0.00205951070845442
157 0.0033666781475483877 -0.01643016266751602 0.018914784181929642
2695 -0.013898309520118945 -0.0036955741101298077 -0.0030793229060582794
2741 0.0017599814973924162 -0.005925858406790181 -0.005461340038398145
2742 -0.004151358926465443 -0.009340523761250327 -0.0072257795199323314
2584 0.007630708174594955 0.011411228511460212 -0.0009083331924474198
2585 0.004424873769864037 -0.0036830906907487576 -0.0024341979911364155
125 0.0001562773688853425 0.023799671054835443 -0.012585195457184215
2721 0.0023425323831971745 -6.517179424843651e-06 -0.011452779258327953
1183 -0.003995372463211927 -0.0009370962645883002 0.002875729755468748
2719 -0.00037002007776066166 0.008697049062903115 0.006048832262436451
2720 0.002386570496055089 0.0060782686148888624 0.0006415238827098147
1713 -0.008309828699351788 -0.0005978297905159557 -0.011958317972752219
148 0.01962408622030893 -0.019809287620763078 -0.00674398986226824
142 -0.013987062679497885 0.004565815514555103 0.008220262338337232
141 0.019649530628324918 0.022431097904492495 0.011479306606920143
144 -0.005706281226721127 -0.00020116488440328158 -0.00134919666882004
151 0.020533180297879285 -0.011393599246771986 0.0013299765287723667
131 -0.014628951012243556 -0.0007772698620352236 -0.0009962878390977182
137 0.01863825404568993 -0.0011487277946712303 0.0028878893329126604
1653 0.012816949383625544 0.017862469712889434 0.01419717101162862
652 0.008601427135728125 0.004809543889399891 -0.007870291392310918
103 0.005176387804179686 -0.017345880560654364 0.0116127812672756
2697 -0.0009475135326127216 -0.010752903978804148 -0.002299635706056165
93 -0.0009857188121963549 -0.002679901817022071 -0.005404049606179882
97 0.006228178555206508 -0.0035324516848745154 -0.020738510723698637
102 -0.0458728080976504 -0.003313346145257643 0.011179805828170011
1182 0.007540382490632003 0.0016282068295525884 -0.00014367164116281753
96 -0.006561855619781641 -0.0042092989889412355 -0.007317423293902501
95 0.018085367527696964 0.00808967202940508 -0.013449361437819994
2792 0.0034214092435279086 0.0017611434594564236 0.004694401765185281
2793 -0.027296736213043554 -0.0065972378121371906 -0.006650759570534968
2377 0.005830196485283625 0.0020886100300275628 -0.009081859123898783
2791 0.01043733239542187 -0.025226519314617706 0.02177411348236633
2342 -0.0030197410764699487 -0.0017355285028197197 0.004110907970295283
2341 -0.0220853161699191 -0.011377483192205487 0.013077045605007465
2343 0.00746944044806112 0.023772804632572933 0.003422668252126798
1583 0.001913835293232333 0.0037831249923173053 0.004724995890084339
2526 0.006583651430708494 0.008352478827790529 -5.29234722877567e-05
2525 0.00837514946224161 -0.0013806242351522798 -0.0007012414475805618
2824 -0.01807078121137395 -0.03281606225041518 0.03180870939475925
2825 0.0005963808090348889 0.0005491213823380645 -0.00041496619492319104
2452 0.029203328217062244 -0.007007294182402574 -0.004861409858781323
2453 0.00996664329871391 0.0015172401099227337 0.00010491262575472484
2338 -0.01992863059452451 -0.024652273489678776 -0.014536452074274812
2449 8.954275542970934e-05 0.0005892934288767998 0.003209087406378194
2454 0.016700531494569838 0.00962010941355867 -0.0051265398821935025
2524 0.01620192001341148 0.0017241090338693608 -0.006017745777553318
118 -0.014290272993140223 0.003160884460532894 -0.00013078900740250049
1358 -0.005561310252948698 0.004109128127727202 0.003650118124203617
2826 0.005839805628971315 -0.011246757544886646 -0.010927488859449329
2339 0.0019886493911173884 -0.004572581647740725 -0.005699816984660556
1257 -0.0022116760570291584 -0.0022167512701268305 0.0013032282677237262
1580 9.014838517129582e-06 0.0020927361725821725 0.0007678795795436494
2340 -0.007978886666709305 -0.016213940584740984 0.03488260229451926
1180 -0.0031004407723024866 -0.0032747731790392014 -0.0061345667330702765
1588 -0.006816836196452327 0.010827086150058845 -0.009215786550367588
2450 0.0029739514951305345 -0.0013458625879777968 -0.004566539565419753
1585 0.02635863139297691 -0.006023543893878663 0.00846151855876848
1011 -0.0011306872266174481 0.0044716772052609014 0.011147523132900893
1581 -0.0049492156739576205 -0.007242669900046808 -0.005119720112013527
2451 -0.006841752494638983 0.0046954730235242315 0.006134179334905672
1584 0.0009057101791062795 0.004049382008725998 -0.014023573559982887
1652 0.014277593650029455 0.004701717888911404 -0.009507603412644824
1873 0.03343581027895892 -0.009476291689363476 0.006411444454110124
1879 -0.011732776062596307 0.0032987612684383947 -0.005104209259724034
1875 0.004055298527748738 -0.012530527297349919 0.007973972780500745
1877 0.03914873355140064 -0.004191963269594023 -0.0008468530486926983
2546 -0.006037714861150989 0.002072077478271235 0.000977365501951672
1878 0.0011113568425224778 -0.0004050502217480256 0.0013037740456183845
1874 -0.0010298121058251682 0.003681959510354964 -0.008508351480670874
1871 -7.008434649607297e-05 0.00295707311821534 -0.0014536165697506924
1204 -0.008349406605772871 0.009316858873077543 -0.0037493247134805538
1872 -0.003994268702979017 -0.009418719299794119 0.011123494435595939
1876 -0.011192645775552448 0.004995938171234317 0.0009828299390459265
1868 -0.003921298536973918 0.0005187190381441795 0.0016318643399657268
598 0.0034276306867401934 0.010358950145024772 -0.0008656784774269925
597 -0.008249930331059847 -0.008786234867141326 0.006271094362207066
593 0.005074010359784978 0.006346053803422182 -0.004656488631407795
1202 0.009564002663250868 -0.0074507703863944804 0.012598358352267566
596 0.0036394301629261933 0.00962917106029944 -0.013069798780688745
1467 0.01707341842303729 0.022660387124666587 0.011883877246070127
1753 -0.015966262277371312 -0.006759172517951676 0.0025443873783018603
2545 0.0283191990925425 0.01773474025138837 -0.029896470158341983
1473 -0.0011316812921228928 -0.013534063052742773 0.011808797667400126
592 0.008578930039770814 -0.0025706689898910918 0.01243653290080127
1865 0.009531410640657953 0.0029051148857873084 0.004037384913055814
1869 0.0012136771045484066 -0.0012500149914343075 -0.0050618773776385665
1468 -0.008931565704513814 0.0010690000297032144 0.00219471400115374
1867 -0.006618272327057594 0.00937693133299342 0.005760758127199722
1199 -0.004857866804909323 -0.0022571589454449975 0.008200424554957947
1203 -0.008318286304794295 -0.009925296449212037 -0.017915006226679596
1689 -0.014172069571521676 -0.002192137815529957 0.005787531927953349
594 -0.006804507737867372 -0.02316404093939667 0.014340081380790327
1691 -0.008997764453640237 -0.00287025460552414 0.004353563627956294
1687 -0.002523927655445739 0.00523474797794331 -0.0029359356784667092
1692 -0.00213833513979532 0.004927245641642985 -0.0015534508890337707
591 8.030684512998785e-06 -0.013939222664762226 0.0025281383633499366
590 0.003993783557065928 -0.0030846513949863105 -0.0051568565157393996
595 -0.00036185099142787815 -0.008615497144626427 -0.017334924635171906
587 -0.0032631866646088783 -0.010995672214814239 0.00045773574034377865
1694 -0.020307769106765718 0.007117074710277811 0.019924586324826705
589 0.020655750766447982 0.01340879520416582 0.022002567771968143
1690 -0.004906109113528972 0.011035976721095353 0.004769401703624162
1698 -0.004498940535624486 0.000658100402776557 -0.001377228558037483
408 -0.009413764358103118 -0.011935662517847124 -0.011910674245176781
585 0.0017110918543113756 -0.008077950218033054 0.0037284636223067352
584 -0.0014164781868963802 -0.0022453255086376457 -0.0040822600027333265
581 0.009083895852473187 -0.0017423709491991913 0.013525536042906171
1850 0.0007369493425274478 0.0060502379573890725 0.00846852205719479
1472 0.007824952217378679 -0.010046965219181435 0.008612983079112598
1469 0.011813028516579383 -0.003981003269892519 -0.0008447342047066522
1864 -0.007652136950333637 0.003827368213956023 0.0022490552446804953
1862 0.002863155838645957 -0.004129497354777554 0.0021171475683880764
1476 -0.009649364115458924 0.006404132210618424 0.022808735587170587
1859 -0.0035603544308904275 -0.003152546180141853 0.00018082866068313413
1479 -0.006116846263060915 -0.006858662914244728 -0.0003793877291353341
1477 0.0001495087860356316 0.0026570868091007655 0.013629518687732515
1863 0.013426790005892402 0.00010758257117139012 0.013554936627139321
1474 0.0003496937525813291 -0.002742943377460162 0.0025660435508506937
1478 -0.0064783112990201945 -0.012079805483078567 -0.010423160502832532
2705 0.0025271842498876917 -0.00044319684087099006 -0.00012360986530624655
2704 -0.031551234129915805 -0.006877505148403758 0.005047871628979611
1471 0.001657534518726162 -0.00044583999917788476 0.0016012508041755712
1622 -0.007896571087114664 -0.01691059339478432 0.0013795464940046804
2706 0.0038852169966044473 0.026264895678978127 0.0034308759657914276
1858 -0.006025145130489293 0.0033150723820551597 0.009133692050744087
2638 -0.007433326209608694 -0.0050670154773279266 0.02883909591863659
2371 -0.01029733347237819 0.0036940740251372923 -0.0012818632791110163
2373 0.015057022439684464 -0.004030362501977377 0.0027799936533678573
235 -0.00013637366964549754 0.003614666547558689 0.002397413527694395
2372 0.002274222170284959 0.004123907284822074 -0.0031172655876670428
233 -0.013076846480866173 -0.0031510732851334385 -0.008326553504623066
2764 0.0149636763389577 0.012869797689125528 -0.0017153453857897854
1475 -0.0026489173872684744 0.014306632870560368 -0.0015500962790152971
588 0.0077561601559741206 0.016148633889918173 0.004639969633705499
586 0.00882610937098388 -0.0019499677643896004 0.013892072276924879
1614 0.0045177524600017544 0.017810658634935587 0.005279107863748652
578 -0.0034687274736755346 -0.0021546524905870735 -0.017259827850335106
2348 0.002088770585391884 0.0021749922465947803 0.0014900004484502555
2349 0.03140814842459363 -0.008800754159200851 0.007054262034092665
2648 -0.000870792975168166 -0.0003570800343724266 0.008328749089633403
2647 0.010818921946440593 -0.014862244230527913 0.003121346855753799
576 -0.0018229373498148205 -0.000951058585151169 -0.0034702065081900864
577 -0.0033961460762078773 -0.011324420235965428 -0.0026767935666880955
1612 -0.008030065953986277 -0.00576392126982775 -0.0003015431640096452
1616 -0.008488028764984681 0.016118009143819136 0.009665152248835275
2347 0.00432784893384731 -0.024605065181882053 -0.012039521619066261
2500 -0.006809198922576322 0.012247811420779436 0.0019661922438840725
2502 -0.009027141937842676 0.0040244894643653795 0.005470463278098889
2501 -0.0012336881623802127 0.008448821975008743 0.0023915175402627353
2367 -0.00019246920360741374 -0.019308997449057615 -0.007859859196593795
2365 0.008363208156924998 0.007987036270233207 -0.003416690923015542
2366 0.004378395108297323 0.0036827608081094333 0.005538008867924976
240 0.0016732313192510838 0.005848603811897872 0.020791906905829587
1617 -0.024263609532987736 0.012080186519216878 0.016338343256375915
1609 -0.006494271377120295 0.00539088118874464 0.0042821425476466295
1627 -0.018985990052209144 0.011236948518467509 0.008059870164175607
2586 0.007062875825435664 0.002416537230498391 -0.013315238583991482
2536 -0.0009325807977901928 0.004211124507412866 -0.0057851721443438016
2639 0.0009537795998386377 0.006239373877596213 0.007285032281653908
241 0.02259144530513667 -0.011038354169936183 0.020614907691766327
231 -0.007017780779145812 -0.008705037415255178 -0.0018102490987452326
2538 2.795263738973754e-05 -0.005707574963043301 0.009197446785153404
2640 0.009854448791428404 0.014794074825055072 -0.02253038008451751
234 0.0013897131724831702 -3.052086732427326e-05 -0.0016707039775279012
1657 -0.0021421738577372244 0.002867997365910482 0.0018335992471249544
1655 -0.004879862342122478 -0.002726223400341945 0.0007141842252888131
2537 -0.00012945953190189819 -0.0004262769924640863 -0.002136386064032804
237 0.006441000506907102 0.009103695868449873 0.0016330670940597075
1658 0.002903961174829764 0.0016098709399800508 -0.0012529581429332845
232 0.001977501286709526 0.003391139559003031 -0.002612111471523486
236 0.0004639924512406581 0.005952395436663338 0.00269733758895848
2026 -0.00616267170418267 -0.011733308113553676 0.004537930017325433
1062 0.005250081705697682 -0.000420315720672709 0.004812346132092182
1066 0.002100979704780794 0.006719617110080903 -0.0030142294870512706
1063 0.004590865266900599 0.009527182078828586 -5.01415735876002e-07
1061 -0.012696714731410456 -0.01710575778048841 -0.02766995680990945
1059 -0.0003316901249466773 -0.0025599690808134077 0.003048443731326555
1060 0.0014899897417395514 -0.001966412154815428 0.0027248089645874863
1068 0.022191892929478846 -0.0007881425516716627 0.0010375546871295817
1064 0.0020153754987229547 -0.0005450022674417733 0.0038005538293422077
1069 0.006601381353023535 0.0071993530958548956 0.0024877742101790195
1065 0.025969829926509452 -0.004433792407727588 0.0015806060683026233
1067 0.0015093553801616875 0.00339489864962649 -0.003335023382212
2575 0.0017406171221818765 -0.0026681450655920524 0.0034648314338252425
2022 -0.003978727184926034 -0.0234292043785142 0.007518756846084907
243 0.00817270933912077 0.01485959352847631 0.008142580845758977
244 -0.0047806618228379534 -0.0021331626997625817 0.01854014834599899
238 0.0018579618706459557 -0.00015259784290925203 0.005841007930204369
239 -0.0040393253515747605 -0.0002873486902732867 0.014343247669829346
2734 0.0005269683132315635 0.005009898046992007 -0.017434973130217118
2352 0.009808233303178144 0.0018931480580380222 -0.00275038264824733
2351 0.003626263942852231 0.00544489581248867 0.0003607607816344714
2350 -0.028447466000097288 -0.006848605665436028 -0.013191391367050513
2550 -0.011984215543258077 0.009186349197684636 -0.004830556613678749
2576 -0.0028428538595542075 -0.004935688445608059 0.002395310454876862
2577 0.006932549659273915 -0.010094582047151272 0.017714450769278647
2548 0.006019428915650788 -0.0006195802972100908 0.0015150381532689188
1833 -0.0037085032266201546 0.005586054630224182 0.0010625974336677152
252 0.020519321041362993 -0.009687318708027961 -0.011477581996444917
1071 0.010734303899608793 0.008403125078788766 0.004413000628203939
1072 -0.004654691963062904 -0.006203050661966088 0.019838047315437052
1181 0.010302782329161297 0.007300124743788671 -0.00723659909128909
1185 0.012650079492939196 -0.017052597344981046 0.013115982581060491
1186 0.0016621464182817066 0.023072365537823276 0.0018832888591974394
1070 0.008192554703551593 0.014274651564195145 0.004475670310372007
1189 -0.0027609091320536967 -0.014338694025325179 0.0027114467591274256
1010 -0.007797097034323539 0.037847476586585174 0.005115016229528184
1012 -0.01185155852575888 -0.008033981437723626 0.013288104749513035
1008 0.03089530530827032 -0.0006216290850877393 -0.0020776576631211666
1007 -0.003094797968396683 -0.0010697509486224833 0.0025109350923575415
1004 0.0030452259936759596 -0.0035195906019251976 -0.007122327356734765
1009 0.005799570601486255 -0.018724336698248554 -0.009384095612015723
1201 -0.0012876988677878154 -0.0133913502504087 0.0015407951301506517
1196 0.0018015506362853938 0.004128551460963336 -0.007669042300349013
1188 0.009254750567743506 0.023172527820363973 -0.005662089806608125
1184 -0.0006106801894779063 -0.004182840289264517 0.005469783088778673
1197 0.01830702572699809 0.017245195743768572 -0.0031250042922481226
1192 0.0021382401180378347 0.012634789782012873 0.010146325816499133
1194 0.02122177210092412 0.008831791257443789 0.007757820094156635
1187 -0.0015557333773608348 -0.0012014020776381534 0.004795626428152862
1193 -0.005379000040936011 -0.006049275531443641 -6.436336033559739e-05
1190 0.002895183720989563 0.00088240492896317 0.005225862184893649
1195 0.027014989863069907 0.019656715864887698 0.011534779397304266
1191 -0.015902470756457454 0.00013028463190670075 -0.0046936748075166275
1080 0.002715109227409201 -0.0031117631091909514 -0.012206857931045074
1076 -0.0005529815509562331 -0.0011486469190094756 -0.0016910848996804409
1079 0.007283328179573994 0.0016724104854824364 -0.011435122832323608
1081 0.024425564367565343 -0.00784570677973033 0.003895329043225724
1200 -0.0021980801755474744 0.007871458677858587 0.008412022573561467
1198 -0.00781739380725803 -0.0028943087679242255 0.00881939217325802
1830 -0.001951473708313694 0.0045898840766379675 0.0014428607303350737
1836 0.006476335199475004 -0.008283500032599846 0.014359390253261321
1838 -0.004447174187340238 -0.0012163560461296917 0.005234548915297335
1831 0.0006136915653859572 -0.005206364167101092 -0.010465313876500274
1835 0.013034985955931026 0.0020976119819139786 -0.0029665029270734412
1834 -0.0001740021803406741 -0.0007467344520070109 -0.0009476794555722711
1844 -0.011287524424400563 0.0014193122922014677 -0.011324900060556045
1839 -0.011970997101576444 0.025522840261983506 -0.01818871393841952
1837 0.003516131019710418 0.0002491842813706363 -0.0017486432089970194
1840 -0.004920853787446762 0.0026598162889303056 0.005111542826461803
1845 -0.01032677611645484 -0.010087614839571787 -0.005495252291819169
1842 -0.0019889475535860793 -0.0023491250680834686 -0.005129748588293905
2404 0.00883431843595361 0.006717017517518733 0.01823252690844053
1846 -0.0023813678437019374 0.007369757575558524 0.0029217329008536332
1851 0.013051882242218626 0.007580089064985331 0.015825429080179233
2463 0.008155548202646783 0.02209730137795683 -0.00031776910564236473
318 0.005271603510084486 0.009914289083342265 0.002232833757949431
406 0.003959124853984488 -0.0028616675548919935 -0.002298075659249022
1695 0.018209704156606533 0.0198172543139399 0.030054813216462306
1697 0.004001245924004921 0.03281106653579425 -0.006888283981922478
1693 -0.0034576517352793187 0.0018614665731432726 -0.0012492618980853257
1696 0.009150994249713697 -0.0008411218541378581 -0.000912599443893104
1700 0.0010554280605780525 -0.0004581497508950099 0.010090315884772567
1704 0.002054220049938148 0.004578983496808627 -0.007587598111716297
409 0.00236913140084819 0.003371130550391699 0.006484385363303428
414 -0.0075431742178014 -0.021295922445080016 -0.006623869858201453
412 0.009293144978713806 -0.010125706917100005 -0.00450744286876949
1701 -0.01785409629524986 -0.038867207795854286 0.006997285441084842
1702 0.006263271922790517 -0.011558568818487108 -0.008005186382979593
1699 0.001554822413448775 0.0018754374367379429 -0.0051550119591299995
1703 -0.014503315024111178 0.0037255939077402737 0.007523674280390731
2072 -0.0032596654842237684 0.00496692094744058 -0.009772862849202497
2071 -0.0020808973579156953 -0.005421669391808398 -0.0001629172054540964
2076 -0.012002068366826959 -0.0023640321694101845 -0.005931492013286251
2069 -0.007971238811494238 0.05055124962581472 -0.01824389054771885
2068 0.007814176948865922 -0.004213751827918602 0.0032594916562670782
2074 0.004532388133914392 0.001885053286753208 -0.0052655000873289524
2079 -0.011927100260974403 0.00952680390434968 0.02759724308995443
2077 -0.019503964212935584 0.00017354113506812716 -0.01820565400222762
2065 -0.0013245881758479523 0.0017150780107727305 -0.0030112127452003442
2078 0.003985305185680548 0.0076294978586640754 0.007879300544429826
2075 -0.008938873326190188 0.0004610108376749588 -0.01099014797595873
2073 0.002564508063441476 -0.0003435221573572299 0.01077744989287041
364 -0.0193331422127894 0.0022134863323858196 0.012220980321624856
2353 -0.009220634601161919 -0.005891783300022209 -0.016290910728202136
91 0.0030953083518552335 -0.01409294269495987 0.0012955923254192225
827 -0.005641111026574634 0.004777539602396181 -0.0059031548971682415
2417 -0.002496712049761293 0.0015040578069773487 0.0004993334820100176
2354 0.0009682695613609781 0.00699404702274721 -0.005093573127976222
2416 -0.010251175764481077 0.01925955108033583 -0.0013759781006429748
826 -0.007233903561728723 -0.00805852282387801 -0.009027749383750061
362 0.015236625119087997 0.051800994776757404 0.016736800322749636
2070 0.016309493730581943 -0.0011058016019252564 0.010214138471989563
2063 -0.012094911041565896 0.02046323619552279 -0.009352113449792051
322 -0.009535885545542253 -0.022063121423466663 0.011880163624803871
2425 0.007777502838554792 -0.0066202233505054595 0.03022762609960646
2427 -0.016074107317059303 0.0008618240566553457 -0.006225898676893567
582 -0.024430386175127695 0.01680618364738909 -0.018931113134252407
583 -0.010111126361637449 -0.01656904560350323 -0.005093444065608602
2649 0.0062420488479619325 0.0006783699053260446 0.0036974404417925645
2827 -0.0016201336290499156 -0.005651934420554994 -0.01800421361247254
2828 0.009599581984992011 -0.0008134255775774071 -0.0024078868476535426
2786 -0.0019032598297761697 -0.005269478896100333 0.0003655558372018475
2785 0.006840478179077342 0.003780414867411967 0.008856256878339007
1607 -0.0019130153945559464 0.0070392140249174 -0.0051577042898261665
2787 -0.014388998994331445 -0.0017981293399656937 -0.0034621618205824298
2620 0.018031115159878222 0.0002165878392059075 -0.01851453017293083
579 -0.003987588897035404 -0.0022901010106464947 0.004222259372926262
534 -0.010339066047313026 -0.004901046143378854 0.011911675839317508
2875 6.856051787770401e-05 0.013620916723781112 0.0033913570103349874
865 0.010504585271160398 -0.013627478296648947 -0.004249009433314407
530 -0.002304939119461785 0.004604394640538811 0.002157322072263087
531 0.0009672363088150511 0.004541245693790823 -1.0935248061045566e-05
536 -0.006358280210687798 -0.00379072136228349 -0.0019269716020924128
860 -0.000850362002293066 0.005226336899873853 -0.0016240909862171354
871 0.005020552195975816 0.014996627733951978 0.019216451228075075
532 -0.00427924902398237 0.004243075328313004 -0.004861748234552627
2355 -0.014461664164578815 0.0014914700540095683 -0.007237394807884852
2829 0.0009500289164890024 0.0014358833751505682 0.0022257697195210433
2621 0.0006968417902260691 0.0003788891197347133 0.004121760463185546
2876 0.00347121040134985 0.002724625431492043 -0.002733712386233753
2728 0.014732717723279715 0.0008990790582969727 0.011533646354799391
2877 -0.0020841962801584324 0.014968002584815785 0.011332023783525302
2730 -0.0029495758961250135 0.006056201609485934 0.005234407387413204
2729 0.0021436852518125563 -0.0027450859157645744 -0.0021138450213815108
2622 -0.024002257941901622 -0.024111399569927645 -0.004831664912278753
540 -0.015436724053574286 0.00040418918582557395 0.02033054945180117
546 0.0004481085513469548 -0.020153607024746785 0.0189341993351055
2426 0.0003612569003577852 0.001759899420244566 -0.0015674176129186405
541 0.003991351756685961 -0.00026445607062388916 0.0009900732508088567
545 -0.009375512089932182 -0.030877645730816267 0.006769292285589539
502 -0.005450087235614324 0.006682215668303421 -0.007287898820297184
500 0.014767218277275632 0.0019535370005270354 0.0037706987757882074
535 0.0030509361060835436 0.009323339288448921 0.0011033938713826867
538 -0.00465236633609677 -0.002227688917139653 -0.002943673180007439
499 -0.012644969514030541 -0.0078001250523020964 0.005166685473275178
495 0.004736449505448674 0.006019744232007441 0.0005125165959653491
542 0.0014130911288394716 0.001508499190324024 -0.0011278554800207227
867 0.022839873284764896 0.011476802169138238 0.00516696288783886
549 -0.002082602348747156 0.018013380344033502 -0.0007598300309131164
544 -0.002155110229723353 -0.007701962958685304 0.006587143286682993
537 0.020798426694928037 4.499243330269563e-05 -0.026742500656271286
543 -0.0029550984800368984 -0.02168559469434515 0.00390516449048098
2736 -0.002644235951769074 0.01232178075756072 -0.0006037721829074869
2735 0.00047465034424612734 0.00216711111455132 -0.0010184645210970246
866 0.007001971451346258 -0.005798862829363502 0.003759177218810169
870 0.02764025117185754 0.013878313372676998 0.022590313350656685
872 0.0035951562049252005 -0.012400598687286995 0.005589805156073128
864 -0.005824968950430577 -0.0010812050666493425 0.0013317081405432713
2748 -0.024429383456039278 -0.01912859548263471 -0.0007424677172149294
2549 0.003100104211808352 -0.003051367419265788 0.00032867064608848353
2496 -0.018881671212919317 -0.004167306045906949 0.035138576636635485
2805 0.011498888578173274 -0.005658028663646816 0.003542696233890877
2803 -0.007072139898094098 -0.03464139276000074 0.009073850112218172
2804 -0.00032982126344747277 0.006910538965881961 0.0048765127055459215
2773 0.015672653313796383 0.0063914192277611664 0.0019305997085443136
2774 0.002381946421303731 -0.008315062455930335 -0.0005305877607513761
2775 -0.003498754367539527 -0.004768706556755492 0.002489384225050245
2494 0.0117436006292332 0.01529598611773179 0.0013004077958052654
2495 -0.0018837935759893488 0.0017191197129242538 0.006287430280559919
489 0.006399135422374626 -0.0015880839389060231 0.0013279138150479554
487 -0.0031744023525794433 -0.0216437093975513 -0.005898653536828517
863 0.006932615309502442 -0.0022084175285291166 0.0022360861603945674
874 0.014270721941779476 0.0068743415117401745 -0.025531827452964184
868 0.007890235031725744 -0.014933472568094425 -0.007668480830201509
873 -0.005864210098260467 0.009073435394583104 0.006272645177414941
869 3.4182626328482966e-05 -0.00026873728513225517 0.009124828995499198
493 0.01860929987762097 0.026560320829729044 0.005491062769006157
2491 0.0060702695255059076 -0.00964927660414429 0.0003284297738006789
2492 -0.005680104296875846 -0.001736598291974809 -0.0005154482938314932
2878 -0.014379042975614516 -0.014090253034736842 -0.0062243024947458495
2879 0.0021316383818422505 -0.005308778527988499 -0.00010516722099325622
1756 0.009242188303298258 0.005702087113854625 0.0040781106759610755
1755 0.002309500716800896 -0.008487061276675123 -0.0034874688064293123
2493 -0.008345254603879948 -0.01162457990455313 0.01046688388009732
2554 0.016914037263081348 0.010750896719658969 0.02091642629488664
2556 0.011483325904745371 -0.008384725998095468 -0.003601258490565499
2555 -0.004873818508264587 -0.0012877854848807812 -0.002203623187979849
2816 0.0016343634550151941 -0.0022192626730217183 0.001146860993234391
2815 -0.009560230343938983 -0.00015168331663760793 0.016742194695442608
1758 -0.0019124882025486948 0.009264050639759451 0.001971462908176568
2817 -0.005117332251547475 0.0020900999225212246 0.00966991528355939
1760 0.004835595122750891 -0.005401423416793501 -9.332809685684298e-05
2880 -0.0175002999674081 -0.026356874917827216 0.014251035864317566
2581 -0.013725309661859942 -0.0023186862117819786 0.006762268242806848
2708 0.005305522771704495 -0.00306706346383154 -0.002430419943313686
2856 0.001169760336654246 0.008316845703566942 0.0003551604169620012
2855 -0.0009457231436700594 0.0002332869126179602 0.004123090239090096
494 -0.005752708787965106 0.009628850625876371 -0.016002505906635496
413 0.0037782284352701648 0.004657647124669023 0.008114638591693354
718 -0.029960758240586676 -0.0071912751511459625 -0.012635068566321243
1832 0.0016366658115256727 0.0030741746730330527 0.0004505940885300031
1852 -0.010462268999117636 0.005636465921851247 -0.013849926802921492
1848 0.027414852362901355 -0.03831727659357373 -0.0037448069611612927
1843 0.003639062571428124 -0.00904823334391295 0.0029659453995162016
1847 -0.00155494743454603 -0.0043975605439251645 -0.008334076946091977
1841 -0.011458345439967838 -0.005698425144727914 0.011543222086346571
2691 0.006015844955477527 0.004656473620061607 -0.0015653095738559519
2690 0.002967751225233817 0.004027667552589191 -0.008169089312291659
371 0.0031045005045811183 0.009003429287799429 -0.02001428666632644
375 0.011144766926701466 0.006848560338607984 0.005720629106461076
2689 0.021091174283785517 0.00027142157739409395 0.01468826138799656
410 0.003613623482651164 -0.007901056574525134 -0.01701721481495691
2067 0.010049889610840385 -0.007357559831118502 0.0059209799745162635
1763 0.003257556794537461 -0.018925980734597298 -0.0003944631221884509
1759 -0.0031578622300823256 0.00462859591452653 0.010593087876965663
372 0.006434705149793474 0.014988941433737508 0.008407941433429303
1762 0.0035748171358003004 0.002435386269486135 0.0004491463319142095
376 -0.01526308149355545 0.0053580634486373995 -0.008098678928518826
1766 -0.0326211840382905 -0.009063974365072657 -0.012395346307383698
2059 0.003346126882205156 -0.004757310400414463 -0.00032482751459528004
379 0.02158531676028589 0.008039165131074073 0.004858297608248606
385 0.010050366217343747 -0.006086820181637776 0.0008298578522846605
369 0.005104866430704847 0.004483180499272485 -0.002956623086833056
370 -0.007103568211254416 0.008411020610731018 -0.004290222141805853
382 0.010207313745890522 0.008790662562317529 -0.03274397206153313
381 -0.016122635869105673 0.018692477701695662 0.0066936647255285584
2062 -0.002261479114112473 -0.0036697044575579175 -0.009321217422667732
373 0.0072573382455767615 -0.017585080762782562 -0.020780254615981975
2057 -0.0009741177855699723 -0.002645839275572568 0.0011512617215307932
378 0.02687518586584372 -0.020835489085729644 -0.0021416299726473654
374 0.0025203126221604944 -0.005371796064158896 0.007116029821755052
377 0.011813725413856077 0.0014598800525674348 -0.005017987131689539
380 0.004015963286458069 -0.007651966169615296 -0.005985384410909041
384 0.031119972588357678 -0.007141579807397811 0.0001793091703073875
2066 -0.009383536931166817 -0.013383695332185934 -0.021850314005649935
1767 -0.027592755078649576 -0.009570733972314102 -0.0006933078754239191
1773 0.03503749231658106 0.02304749087216924 -6.612193990649432e-05
2055 -0.003583377368767788 -0.0006549098098631499 0.003572391470114098
2064 0.01982215042451187 -0.004077526193926762 0.015695952971816144
1650 -0.0034726358822250213 -0.0037844855381383978 -0.009563730124930633
365 0.0012416731550096713 0.0027063790400983618 -0.00802660568144096
357 0.0009302758396040483 -0.0015440415411877263 0.0020356750285958187
360 -0.0009669703046585707 -0.007071426795398605 -0.0061056466990576826
366 0.014181878587411009 0.0035855195159987486 -0.010194127910422618
368 0.009038289378937397 0.001978886795364361 -0.006967384665611222
363 0.009161964284972738 0.0010253987868698933 -0.006722229823379206
823 -0.0003597019480235339 -0.003356945861921157 -0.003321800683499172
1644 0.023624118378463996 0.0008936285337207213 -0.009837129002404636
1642 0.014540796583295976 0.00750359957008264 0.010397258569134845
659 0.003943169756690713 0.00027718321608321547 0.005178137738383251
663 -0.0023242213456348302 0.0031961869682883962 0.012499016518635707
657 0.039944894934760465 -0.008744646201551012 -0.04853268984504011
367 -0.023296063401004485 0.00891163970054798 -0.010956478608675135
660 0.0034957865238835558 -0.0039011552228040256 -0.009753009102789393
653 0.0001171648631483267 0.00396070164251786 -0.002126626458183824
667 0.00816610960032665 -0.0048961301020831564 -0.0007367255596150234
666 0.006176982082760342 -0.01143505469168375 0.013407731017458435
662 0.0008653041377180137 0.0065438818345951374 0.00583284541587238
665 0.008291207355752771 0.019677257189513735 0.01610939627668406
656 -0.0027313191480213763 -0.0020813800826025423 -0.0008765723746531831
661 -0.01117614462024691 0.009571619279113432 -0.0025099408828010102
2279 0.007792120506664993 0.0034027795258974726 0.005877094508950972
2278 -0.0027527664752143707 0.010016022406016985 -0.02531434213242702
2274 8.852073292003506e-05 -0.0073092289594374645 -0.0004141458662476756
2275 -0.008245027787805857 0.0010761154617695084 0.005391513506731417
650 0.0028999278149732153 0.013009840864424253 0.0009036503043461075
1902 -0.003959283611625063 -0.014637347438471508 -0.02003011720452249
1638 0.0008404000058606656 0.006319253242273438 -0.01253180658019695
821 -0.02362900182041128 0.027069395076750363 -0.0004887504566987485
1636 0.015260750797566702 -0.0028746712766825225 0.0013328454075372813
1631 -0.0015755242107349551 0.0016261141268686067 -0.004774773256394434
824 0.0003200055178093453 -0.014428750009440395 -0.020320737226568856
822 -0.018139876790780073 -0.002968360286302446 -0.006471957324489939
817 0.0005920231834285172 0.007666715290977195 0.00012294115063442917
825 -0.0057953539154982185 0.007909732969514851 -0.002298918768191008
820 0.0010823178214995359 0.0064414508321929366 -0.00595824550642293
1904 0.003918688355394158 -0.0050531455612860265 -0.0018109831654313882
1903 0.00022896104913779232 0.005660020824261552 -0.0024195325695616898
664 -0.006138371260170562 0.0161423711931029 -0.0002959009916337185
1899 0.00043616080778016144 -0.0029195797057136297 -0.002003308656688128
361 -0.00031632216171821777 -0.0038873618712258005 -0.011742645008177125
2271 0.0011913085110331395 -0.004096215454320754 -0.0051795792034978316
2277 -0.013406248250040472 -0.00010925421748026833 0.018645417448541864
2273 -0.0019160728846280468 0.023941201848874126 -0.000701694799086041
2532 -0.006979717003737324 0.00048393685895064707 -0.013240164288364801
807 -0.004405324186560884 0.0018435418831247517 0.0002926866274927578
2530 -0.006437912010490518 -0.0021793100656797206 -0.00898557929495289
828 -0.0009015190595761491 0.013202171530099147 0.010193392417696717
548 0.005367635841316778 9.784626119145681e-05 0.010632494049083972
86 -0.032703601747407725 -0.0024557206408470623 -0.008981225792308555
503 -0.004160512482764445 0.009214538660454167 0.0005861133096025697
492 -0.0020770517306887724 -0.0001884607830886563 0.003077306011485752
498 0.00334997550241366 0.0012238360242835626 -0.003087393671285828
547 0.0055348593886806715 -0.0019562792920198406 -0.009960839650693394
551 -0.014650653045371059 -0.011635616844640791 0.0051322081255921435
550 -0.025325251881928846 -0.01985681589127764 -0.02154951206688766
2415 -0.0023859398223471497 -0.00857778805962708 0.0056357702345391
1630 -0.0007270859919580654 -0.008419464480398002 -0.006670886836025415
819 0.017653041996871417 0.0052628801582407965 0.014901340582842933
811 -0.003430943666647589 -0.00016104412827422945 0.007045345953001538
818 0.004497318543607249 -0.0011384122911760554 0.00897491290525978
814 0.0033903951298951797 0.0015435652907285025 0.00866452829736637
2516 0.004460307823469459 0.004153115384811271 -0.0008439893598716682
2517 -0.00046048845396739053 0.0024356373124060572 -0.008210208985314157
812 0.008655842147185545 0.0041081018888273835 -0.01562558398852048
816 -0.017147021650496704 -0.0006387226019882073 -0.0014242052179242216
80 -0.0006963979584074631 0.01936369939316614 -0.008051894493420485
82 0.010638824691858959 -0.011914566604406006 -0.012537265457645129
76 0.002869113048384645 -0.005614722120266807 -0.012187969635661747
504 -0.0021550411660291135 -0.0003825663920493447 0.004018533514962345
2414 -0.0037563610892840105 0.00031933259335357485 -0.003738757224290884
2515 0.0063221351301763415 -0.008851084731493306 -0.0085253692196459
2598 0.007186695061416202 -0.016356791157220517 -0.0094348990915673
2596 0.004187019424817308 0.005194181984394333 0.009129782827196533
2597 0.004357190311294075 0.0027531037219269976 0.009251171953845111
501 -0.0009266452589705563 -0.0012797216468460404 0.0030917904270727848
505 0.018890192968343735 0.00026685757886850593 0.011551474711391927
2531 -0.0025698117491872842 -0.004727523161061634 -0.005752102130273192
506 0.003502202356200331 0.0057005963749187 0.003898874560184277
552 0.005680473878484991 0.002196395438070629 -0.005080939348326955
73 0.01034995139621796 -0.008307156118057752 -0.0020062555236141644
497 0.022300153020078945 0.011532398080863702 -0.018443683438706403
2609 0.003967477515610621 0.0024315913688458127 0.0012412326923563765
815 0.007367758903662078 0.012238178731763315 -0.012926570952989526
491 0.001734920591254171 0.01704239860128135 -0.01024116397110389
1714 0.008716911886855335 -0.01479184822054129 -0.01045309371075763
2443 -0.020311161184332457 -0.0007594392017281091 -0.005759795348850969
1727 0.00895365908817512 -0.0029023874741688827 0.015072784293166941
1379 -0.009617691183619147 -0.009886112234101564 -0.017533562881640773
1716 0.032438546274025336 0.011084689217941491 0.020264231866427822
1717 -0.0019662546124667194 -0.0004938036234326256 0.010372531971335074
1719 -0.011320115428209434 0.027025319270019037 0.008153101492911853
1724 -0.001844589065151352 -0.003086442656262308 0.0020342525247236073
1720 0.009902961202665936 0.026189214596441555 0.0137236906667065
1712 0.0033147404002392676 -3.809120954051815e-05 -0.0025424383509493006
1715 -0.002105182677070124 -0.0032416810697095517 -0.002086475310917913
1718 -0.002399056963060692 -0.0005698707809605463 0.0035503286333058172
1729 -0.006788639175082393 0.027357435633237948 -0.019682203065656562
1728 0.0032115385285213655 -0.00980143877039157 -0.028406793829453734
1726 -0.0031116032078887276 0.002031239868153892 -0.011367798978871748
1721 -0.002833330474625608 -0.00039214832446508527 -0.004036306190563018
1723 0.003269252420239862 -0.007380164803892894 0.0010680840450428028
1722 0.003313240464918445 0.004540657920447465 -0.01331337605673141
1725 6.722011403789131e-05 0.0011034750161177079 -0.0029286292707338896
180 -0.016716969997119968 -0.026505310490001686 -0.010123481538827821
156 -0.0047532925446974374 -0.0027605192262915934 0.004963350391508367
159 -0.010238836672110294 0.005979904775755042 9.639608596460607e-05
104 0.0008232003259145518 0.005897589359454013 -0.011282750989829879
111 0.008701839870711324 0.016807191649658895 0.005610835169250652
109 -0.0046495709895499554 -0.02738006561143721 0.012306551166774109
113 -0.028371359035419225 0.0020580827208892373 0.014177125094815802
107 -0.0044385705511041755 -0.00913309564341494 -0.0004779484824354364
110 -0.004329433414620178 -0.002677159396611184 0.01246355690935804
1377 0.0032880530746012 0.00804888937438529 -0.0013590428433872934
1374 0.005198801999455755 0.003942314514213266 -0.0046407107055476534
108 -0.025930936606906187 0.014367710814292464 -0.030512787952365828
1378 0.0229338237807308 -0.005597472525153202 0.0029596330569269308
1371 -7.610313457462735e-05 0.011646818195656813 0.0008885436233846966
1376 0.010922746806669595 -0.03972566393092023 -0.01825483129083771
1375 0.02308277234532628 0.032981687787117374 0.002119745165147602
115 0.007801193744302457 0.02324809144355612 0.016000014483737286
112 -0.012317798235976427 0.013322135971292545 0.010463834587575604
114 0.010620359111506184 0.0021764354013741436 -0.017196487794752288
1764 -0.017008139877873987 0.0043073042973375015 -0.013095249223782522
1769 -0.026081339489841565 0.0024972579025139877 -0.012647523257204243
1768 -0.0011312929196065074 0.006825275394699662 -0.006842504656977394
1765 -0.005304514356991066 -7.679522161730208e-05 -0.003680861566454701
1772 -0.009066119314950601 0.02414781686200987 -0.014160954880366184
1777 -0.0097013134540965 -0.008402357767165261 -0.0014457100351442191
1770 0.026490931523217753 0.011570843293194289 -0.011199748193546643
160 -0.0017854529195294917 -0.019041112154241802 0.01380981338815599
1373 0.01368625701457675 -5.141486622060927e-05 -0.017037309834020093
1368 -9.530084862956781e-05 0.004243791221974346 -0.0003982447983152842
1365 -0.00020667152568772665 0.001854376259997053 -0.00101345094578973
1370 -0.011496774584271022 -0.00770293205319716 -0.0003715170563709792
1369 0.03441892058060487 0.007368380795835955 0.004340633785706556
1372 -0.005104356381853521 -0.011754580751676728 0.016324125030651233
1355 0.0017843310813064953 0.0026893388546593753 -0.00210122307197947
1779 0.020737903644543722 0.013983520895136999 -0.018347477136640294
1775 -0.021548216321498715 -0.00839121622176775 0.0036697652602250374
658 0.012690700626945486 -0.002194390860850684 0.013984788507156874
1364 0.0022168717793248564 -0.0024737678053537836 0.01645187743795554
1774 -0.003392442671580657 0.003726787733776011 -0.0009902461389924863
1778 -0.0009580065854411888 0.0029266852550212112 -0.006554464546329518
1366 0.006750570138427747 0.0046331703413663786 -0.002869638168690148
1362 0.005018889395326252 0.0021580740507559813 -0.001552540493321698
1367 0.007807760426345429 -0.00037187097506162503 -0.011778500777922536
1363 -0.009443469434954508 0.005987645986453122 -0.004752592892517409
1771 0.0019792245299262807 -0.001303032162611687 0.0018878688404261469
1776 -0.021680102292230732 -0.00617639589773313 0.024357436002369715
1361 0.005895094328545007 -0.0049292016785191664 0.00431474565538048
1359 0.00927449017862046 0.0005733872331499366 0.0007324753020121863
1356 -0.004993331914336664 0.008518543796237614 0.002492599063749896
1360 -0.017541478048871507 0.0107568942662057 0.023623076241563415
1357 0.0018989441680183003 -0.0020215099723429474 0.0012705861358650796
1276 -0.013585587841679013 0.011284091622059747 -0.0029037718539951228
1895 0.01825549090375856 -0.012571647056589415 -0.00916779963690593
1897 -0.003542022243983608 0.008411232404852885 -0.004405937379509864
1275 -0.011456830796405724 0.0030217424893327297 0.010672632873809974
1750 0.000760503458691908 0.016624790103800528 0.002245557331444163
474 -0.008740792314832008 -0.005099789019515445 -0.0007042680742945717
2595 0.0006962892237017725 -0.0034218420913101066 0.017175422021529864
1496 0.00384174159425831 0.005922082636597854 -0.005411977232483021
1501 0.004968685378484214 0.004455971991168876 -0.00691235961242464
1500 -0.0019638656482332045 -0.004507206601362651 -0.006481950851012646
1747 -0.0036453966752597487 0.032614825500515476 0.013022917465043136
1148 -0.005504408457961624 0.004648961185643866 -0.003931376778976633
1143 -0.0017162436442482627 0.0015624049517487374 0.002888954727879458
1141 -0.007792122876413166 -0.0049948631236308005 -0.00532609406025976
1131 0.004983415610177445 0.007983763272284686 -0.003962749911688587
1140 0.004339867367460575 -0.004618442150390274 0.004944455769810917
1145 0.014970647333953533 -0.00011149544527677994 -0.011332575251731435
1137 -0.0032801899501188883 0.007009875780422688 0.00038593094076077146
1142 0.010124734168097341 -0.006008112440812329 0.0267909419392915
1136 0.0090244871145627 0.0024612844560538325 0.009249708547645251
1147 -0.009502027519506346 -0.01882567766300735 0.014634938958687787
1134 -0.0024962919763975664 -0.005781909906176455 -0.0004970829775466278
1742 0.002811525343144305 0.0012001157503316589 -0.0032011403460271413
1743 0.0008184269722164056 0.003744039272914494 -0.0026598874203463464
1748 -0.012513512847768653 0.0006444546784893952 -0.01099039208097855
1144 0.0035281951719338665 0.003081709340684467 -0.018538528719330743
1138 -0.0035151275898872795 -0.01016531699208916 0.01871301696188772
1740 -0.004750207248370968 -0.009654370393504452 0.00034223699881479297
1744 0.015000903077659685 -0.004458901688614243 -0.009518393508433873
1497 -0.015711947276381075 -0.03817926233484422 0.01927522720567412
1493 -0.0024789306752619946 0.0029261331549561937 -0.00685455613824738
1751 0.006540453211944287 0.028282296261611776 -0.005789074980231057
1746 -0.005223454386971882 0.006013051303962815 -0.0005467610026250399
651 0.023995948639665643 0.0045015268138386315 -0.013080494302724737
646 -0.002101490848682729 0.004771730136058822 0.0034615737593134237
479 -0.007203461002517967 0.01364235108043867 -0.007086482946001792
473 0.007865149477349957 0.008293929792558281 0.011729532401600904
2253 -0.0017774643278835253 0.0024013094830508657 -0.002933300015410467
2252 -0.0018412352464228096 -0.006628490783936445 -0.01179772992853312
475 8.407456103772229e-06 0.007575783171196578 -0.00030729816480191047
1498 0.015351004508589634 0.017947462266066867 0.006135747162116158
2249 -0.0027539272448159763 -0.0005965259167289367 0.0009118052986235021
2254 0.0025482302114810717 -0.004574998677480192 0.0016236748851134557
1495 -0.004968322540942383 0.01101206180973237 0.0041356382135760055
1490 -0.005719008380682166 0.0038490903056415155 0.006187835684973995
1494 -0.0059207420606617964 -0.00665257596657991 0.010397159202542127
1491 -0.0022788760444351587 -0.004243769636249644 0.012526768869591604
1487 0.004898976868677729 0.0004983874924744901 0.005635683925903113
480 -0.017370161909831847 0.0006756892890296619 0.0031682979725976322
478 0.003680551990194971 0.0033936147000320736 0.0011702690353208149
1135 0.0055425974620822785 0.004559576764538052 0.009582051133036194
1130 -0.005391340791443852 -0.0023020295949522716 -0.0018527955911944792
1133 -0.005987939789594022 -0.004103092483643064 -0.00029640212611000457
2269 0.02171459363934173 0.01030062056899116 0.014977590319786526
2243 -0.004185402991337659 -0.004323923329371425 -0.005454323203799938
2251 0.015342172665304124 0.009556056808013344 0.014511242946327111
465 0.012746304413055649 -0.004414999818851082 -0.007397095393886595
2246 0.004287511786709251 0.0017338400753242912 -0.0005452161788302642
835 0.002329475703675502 0.01577645842028391 0.009222855266936473
466 0.00209209392297145 -0.0023435619937147985 0.0005935870282289332
469 0.001515290288778631 0.002540930827432563 -0.0037095455219133683
471 -0.013668029674253892 -0.007670903669017454 0.008590543095608126
2263 -0.020575627526675223 -0.0015500003598522894 0.005833588874898535
470 0.01158403234629848 -0.002386513389818829 0.015518080596704478
2258 -0.00473115531052213 -0.0023639704261865045 0.0019794338647588844
2255 0.0014643203651700978 -0.0011452552643489214 0.0028007146694951565
477 -0.013245770201373054 -0.01381363785563013 -0.004098628807042745
472 -0.007115107081718296 0.005390964832802106 0.0040595101172432825
2260 0.020140474093559086 0.009515895458580977 -0.0072719889655592125
2250 -0.0037350130114475323 -0.009080289857838873 0.012809837634169888
1427 -0.013614006264486216 -0.0015629643004477858 0.007058073873387341
476 -0.007512962647042608 0.008346090318338478 0.009804023065050854
1424 -0.001251097172511701 0.0024629077547535265 -0.0026215606065387678
1426 -0.02569069652880842 0.023082263142616403 0.005731060270042034
2264 -0.027481484305499945 0.006906263178059683 -0.02644041915244592
2259 -0.004385964345750043 -0.00709098263152429 -0.0038364974716045175
2256 0.0031451458492996204 0.004314272516793969 -0.0003865768121161792
830 -0.0008609714489301629 -0.0040783621218065495 -0.0004402806164938844
829 -0.0014392465376818746 -0.01631812795939771 -0.007700324916609201
2257 -0.002014049786610361 0.0005146221387113074 0.0032020652873066577
836 -0.0076476465279536445 0.004155615304585135 -0.010499517157125705
2822 0.0025982850314021696 -0.007726961808720235 0.0011533333726625066
2823 0.008037053935511808 -0.01972442165590182 0.03474580696834038
1429 0.00030151621989358814 0.005137501272493173 0.009562221905641013
831 0.010431680404827006 0.002637508817316978 -0.010053503393467072
832 0.01670258901157674 0.020620631282633306 -0.004983374109931043
1421 -0.011293339402796925 0.0037863115251759783 0.0002777996153512937
1418 -0.0007808102240731642 -0.00535855010364842 -0.013214299645359367
482 -0.010049013903096269 -0.005479079546206743 0.0024644009306443136
1422 0.015590779921710693 0.002433119218310833 0.012835102222283234
2511 -0.007155654226087374 0.017916360565657055 -0.0019515472231941562
2510 -0.005160168892907886 0.004711106668591408 -0.002954043043669337
833 0.005623180697662443 -0.020067738892306234 0.013718437118766861
140 -0.002453484019115893 -0.0036623002193363246 -0.002415925356384321
1160 0.020227101169345944 -0.00841517281977932 0.015710283472237917
1164 0.007869838027320162 0.002408565863725314 0.0015923189813393218
139 0.00035452145140732157 0.0036050768453685707 -0.0007850741041667437
143 0.022266123302333 -0.004358594653080446 0.002339107850913474
2821 -0.009302344378092168 -0.030470509265719203 -0.011205877930742328
145 0.01169394349486855 0.0001612683552586453 -0.016217071367043114
149 0.008289591241109182 -0.007713317222710948 -0.004137467031932342
1679 0.009431147133541547 0.010205428280830044 0.030641084282284414
1677 -0.011758740404007978 -0.0017643255879894269 0.01258869524582466
1678 -0.0005330659691955271 -0.002929987901564787 -0.016234952620843533
1674 0.0029438243059920995 -0.00579112858299334 0.0015539530638767072
964 -0.007599244195232787 0.0012952010883950861 -0.009877403521229778
961 0.0015232506748035473 -0.004226908786506149 0.0031064218300478844
963 0.0022304706874711746 -0.007674816614869735 -0.008223446731607138
966 0.0036492767826502128 0.023391180894175818 0.023162908180121698
958 0.0018318829093868913 -0.0033114512221965146 -0.006471171195386753
965 0.000737578439209532 0.009327594636218165 -0.004784366933485882
962 -0.013574697949215378 -0.0024326604653091277 0.010583664859093248
955 -0.007883115035048469 0.007683894835208675 0.008674980772328294
957 0.016467377283551153 0.026005343617229823 -0.013792508701608475
1672 -0.016962154262988877 -0.023276984544545527 0.016984865787739643
1675 0.0033948253926116777 -0.0005426650477358963 0.003270694207508684
1676 0.00860114895584941 0.0009760969892330355 0.003265181717672113
1670 -0.01227539822598244 -0.013605301624526072 -0.009779482846875947
1671 0.0026184146181275217 0.007163120089864266 0.007135032400257455
1673 -0.007595908282421649 0.014580720301730191 -0.015494240254015742
1668 -0.005557331370079338 -0.006579772357694042 0.004054538542638898
1603 0.013702969527769521 0.027531119077548863 0.0006675033700787348
1599 0.005995240977788616 -0.0004626790384462853 -0.0005497571659882929
1604 -0.02497560634026469 -0.023318380570863714 -0.008683144659112577
1602 0.002624182747653044 0.0003609446087997364 0.008140797069962204
1598 0.00550276278908069 -0.014103699151415149 0.007103252489240189
1593 -0.00019576584132860835 -0.004842235293004227 -0.008301476788863662
1594 -0.009364202503469867 -0.0079373177526234 0.00916516660113614
1596 0.0022829866427032317 4.571585696824141e-05 0.0013543459821847015
1597 -0.0075306405403976475 0.008181946732931433 0.009746119842891402
1590 0.0010262697527796904 0.0017225499011258895 0.004113080277296144
1156 -0.0006492012820882865 0.004092523694834768 0.005962917653252562
423 0.009958961857635978 0.006940576897796941 0.0005985287332200247
427 0.006044593947770772 0.003867335037457388 0.008829938200092641
426 -0.006451162538114093 0.00207014509574363 -0.0020192877116742575
1741 -0.01997592152676172 0.006418016999994469 0.0082704756357336
1737 0.0011866789894189479 0.0011284964032889848 0.002209876112576146
1735 -0.00556433913707228 -0.02591895038783269 0.0027510264171814115
1745 -0.006822461172060223 -0.014322865797709422 0.017447099175610978
959 0.030462266805416263 0.0014588043228774264 0.010805809326590561
960 -0.020439817397002322 -0.004481325294765389 0.011579975209261363
956 -0.0032440193180552825 0.004228877923265333 -0.003265212321567309
952 -0.0005156778864120655 0.003915736407728247 -0.0029946102860381363
420 -0.006169638995675844 0.0018350965374783826 0.010941551695649521
1592 -0.007088236087994405 0.001616594285189563 -0.01251426307729707
1739 -0.011866598175865 0.0017627036860838271 0.0026532524735748838
953 -0.005721554895742823 0.0004917825942146564 0.02415363763295816
949 -0.003349206871333276 -0.004002979840412574 0.010490811505379874
951 0.00011257405545211836 0.013009743869577352 0.003899281685469413
1582 0.008705187363858183 -0.0017748678034946786 0.002306668185964659
1734 -0.009254882823216909 -0.005364174484758338 -0.0021815591752265004
1731 0.0008347455324053821 -0.0019537886655476857 -0.007662708970883765
946 0.008782354278174302 0.008119224039356667 -0.009277165804760804
1736 0.0038112774262627856 -0.003488533074371257 -0.005626123126604721
954 -0.026552220716010693 0.003057245858527673 0.023466474222606414
947 -0.0036736157815986576 0.002852131269732179 0.006597697426747013
1738 -0.04384467182456679 -0.017321542349587358 0.010549377960344015
945 -0.0041797611495956715 0.0038495732804913678 0.004793233391045967
1730 -0.0009723837357035991 0.0011087346878671058 3.2857771728747774e-05
944 0.002736468607040289 -0.0009180264312339296 -0.0035839682243317757
948 -0.03197296983723229 -0.001318058386672993 0.024224059156297488
2561 0.002843267257255024 -0.0026231501990723258 0.004571616040183558
1733 0.002092845882208151 -0.0022848764221061425 0.0010662503913721282
2562 0.018721233751875226 0.006814507864768048 -0.009199829049759968
425 -0.008949818233543228 -0.02473047055171714 0.02799370039706979
421 0.0035976722884367243 0.020437409694614567 -0.0287590125640497
950 -0.00040335808292958793 -0.003353374288224783 -0.013449857865817838
295 0.002400613355276663 0.0001816566047389425 0.0038170337186619217
1587 -0.001360235292985018 -0.0008490234729709564 -0.0035734132963087238
1591 -0.00223371202822938 -0.011454649748120433 -0.0012094476701847673
2560 0.0037391537811781233 -0.005708151273672652 -0.00438444969534002
422 0.008143058311736551 -0.01092007160207014 0.012627144612227213
419 0.0011495023999134788 -0.015570234672719481 0.013596518329804167
416 -0.0008633654775418271 0.005397754227102652 -0.008356141019017774
1586 -0.02136471972676101 0.0015509214486151184 0.006685906005616476
415 0.0017048124547457881 0.003595621591412143 0.005240410799645404
424 -0.000983096121569339 0.00220514431464741 -0.0015974056629084721
418 -0.010539301632457077 0.00589494319615537 0.03231652576886037
430 0.009160694767876348 0.011038738720182864 -0.009001941967218314
433 -0.0077569638700338995 0.01704218611768219 -0.013609154453025714
2718 0.013434166762199993 -0.00463549963567136 0.02309680772827935
1870 0.0043098092809000545 -0.004285184076688603 0.006327685085689009
1686 0.005635469398600023 -0.007328785093383319 0.018327087614179536
1684 -0.0025378808232628548 -0.01048130573902701 0.0035909570505163915
457 -0.009258157306454826 0.02777512282482661 -0.011678229648960568
1754 -0.0044070446397488855 0.005626763752296629 -0.01709145449717165
1749 0.004889849129871418 0.002872565864485737 -0.004394098935844795
1752 0.008484216570636896 -0.005519971703790129 0.007178165717204939
1489 -0.018787533424790386 0.004271624519768301 -0.01763359764798427
481 0.007846830164713856 0.004284411301512898 0.014512833531251516
1492 -0.01920353078480474 -0.008180994678350408 -0.00796423944685476
1488 0.0055202556085236325 -0.018232605817213726 -0.012552277109807388
1480 -0.004033642822773089 -0.00408558717307045 0.00040762508942516226
1486 0.0014754447316529867 0.02457971180686795 -0.005927537769448311
1481 0.007827672712580665 0.00040092577533419057 -0.0056290360040697875
1485 0.012785542307646868 -0.03474513547482498 -0.020262703178577767
1483 -0.0007899926123440421 0.0021966274166889586 -0.004168548353737427
1484 -0.0023066831465710117 -0.001384163953444974 -0.007644568565227008
1482 0.0007540590014610661 -0.008548294831704493 -0.003484361916066185
445 -0.009839596842698476 -0.003932970988951108 -0.029666216697170702
2716 -0.0026761974244959344 -0.012456563991993063 0.010208719901953477
447 -0.006962341397646612 0.008202144295202968 0.006924919648857098
2717 0.0013269460024017846 0.00040155519118967184 0.0019325989219348815
451 -0.02039856031768387 0.001398618520821057 0.01821628103219962
443 -0.007963418731371817 -0.0074702098889102165 0.00535531175705525
1681 0.000976787719497033 0.0037191856419718354 0.0008585185812664877
1685 0.01051752292056115 -0.024905181057687856 -0.019403118321966676
2592 0.0021632019690016064 -0.008054934873563242 0.009050835283814413
2344 -0.013132206572180566 0.014791508869076212 -0.018751882426445706
1688 0.0034112273291724716 0.015058708627108765 -0.02812505935746192
2345 0.0006682034163353213 -0.002642864492474453 -0.0010986517515161301
2677 0.0039197890767534915 0.0054568014889134564 0.015611874110014483
1680 0.006588934583991294 6.818521118248147e-05 0.0045742919918853224
1682 -0.007115761173314536 -0.0023341900700836102 0.003925755167854944
2679 0.011855603875927875 0.005898253112185772 0.03455183192392414
2678 -0.0034166056905071017 -0.009664835703715303 -0.002366420394499708
1683 -0.0006315828153095332 0.0008292494110507074 -0.007962692329959706
441 -0.00148077831676749 -0.015613978462189175 0.0028193773369893887
440 -0.008088050992801618 0.003671114344377106 0.005459028191393645
438 -0.00127825443873364 -0.0035967982118215286 0.001628077433885645
2658 0.0007213894498712117 0.0009890094692071422 -0.01002976598846286
442 0.00899269947028674 -0.01897195505790588 0.003216283570368251
2442 -0.0050813956697708 -0.0006439959165222376 -0.0008942910852637368
439 -0.005483538504090949 -0.0054617798413689215 -0.002803512271503317
444 -0.006444698818731826 0.004979971766796921 -0.007403803756327964
2591 0.001982928911401134 0.0026398731792414195 -0.0011822184535457976
803 -0.023055121244320086 -0.000913235466717606 0.01568220535089067
2765 0.0032196761515918947 -0.0037102775827746776 -0.0049944211900708885
2766 -0.0006578703741385245 -0.004204700128944747 -0.0005765474011131343
456 0.0018518986529193501 -0.0072304938428913645 -0.0007555269616700118
1428 0.00013596174784851243 -0.0026761883059903823 -0.008580409035680244
1425 0.014351486791209777 0.011477275930722864 -0.013223019615987186
483 0.014839214991398687 -0.009702151230150287 -0.0034728388959529817
2482 0.01697889500545041 0.0006747909262344343 -0.015218259330650793
2483 -0.0038276238627915045 -0.002149518453912278 -0.0031400527410231937
2484 0.000831195131482973 -0.0018241028923002642 -1.9007220398492628e-05
446 -0.0009658026611489464 -0.010012884628433288 0.0026786810697990676
450 0.004622949565119019 0.01876830179535511 0.0015186608619429333
2838 0.0023240999466753055 0.006557897584468706 0.013262528156378194
2836 0.02099223817215103 -0.012298497490984373 -0.0015586967579430673
1415 0.0005498107539256544 0.007054483610696183 -0.0017544243941201784
1419 -0.011513799843236201 -0.004022156085061123 -0.01615326579438442
1423 0.010420119598526038 -0.025482431912696585 -0.0023039249002604675
1417 0.004420713430072306 -0.0016306045809269718 -0.0052543975082027785
580 -0.012639829897417496 0.030571829026725228 -0.010948863944937649
448 0.004112786672387161 -0.020634716752679777 0.012580692365123632
2837 -0.0013135385394421456 0.0011891229358389503 0.00887698022599715
785 -0.011429244369703967 0.020613080191414897 -0.01818773926770647
796 0.0015014103881131617 -0.0063544073908395225 -0.02383484314256651
784 -0.0008283522847713857 -3.423379108362783e-05 -0.002413540700717328
790 -0.012489891910712288 0.0077826059952746385 0.011844791570186785
783 -0.00056951215742589 0.005841709699737643 0.0005871637418282306
789 0.00040922629385885224 -0.005110507474775777 0.00036683978497276473
786 -0.0026203233496437375 -0.0013487084187265392 -8.607152160687074e-05
791 -0.0025153272795206023 0.005223610615060331 -0.0002996716239000138
1982 0.005466590667637196 0.0006720949626072583 0.009267591167194533
1986 -0.0043489572551321225 -0.005337990829400757 -0.0054289048688711755
1980 0.0022752085718665623 -0.0033601312247590305 -0.006822462471717289
802 0.0003262777045969206 0.02090718597185625 -0.00187541515220316
795 0.011181339945323308 0.010947616850126952 0.01622391604319971
1420 0.003989219367585053 -0.006357786836900628 -0.010159006633181384
1412 0.00450319959297133 0.00040943029767473237 -0.0015233091279455242
454 -0.0034835654592806444 0.0011777489405247492 -0.01812572804581513
449 -0.004970142044534596 -0.0044031783559963225 -0.0024926025488094176
452 0.0019146379011121559 0.0075152832028748924 -0.007074200096190378
1075 -0.006895420090112042 0.0057591679165780495 -0.012209758043044831
1304 -0.008208855695558848 0.040583260550944904 -0.019917784385077988
1923 0.012698416428909585 -0.027890427128018744 0.022956370999224856
1656 -0.007523177501032681 -0.010371743400891698 0.00023636980496377128
1669 -0.011295629732491626 -0.0066667092751173974 0.007266069376101398
1665 0.002625228326703763 -0.000983491441827285 -0.003373491894644337
1659 0.0033231700668658972 -0.0039896434197699325 0.0052323736487751215
1662 -0.009275436622703415 -0.0038307481792733593 0.002519726501151385
1667 -0.02227305000408866 -0.017531827027603638 0.008191162358004532
1666 -0.000990483948714899 0.015084073695363034 -0.015156235407810519
1600 0.010502194024912762 0.005164625178649494 -0.0049857551121058885
1601 -0.009465264667635264 0.001664895941710897 0.019724383292431688
1661 -0.017213999334527004 -0.0011536310444041828 -0.008424335489218839
1300 0.009877573788676269 -0.0019559132916315155 -0.006895674677909755
1664 0.009583703391881932 -0.0018901774214337048 0.007934886679969784
1296 -0.007577414987487027 -0.00617908287486099 0.004604084769614088
1663 0.03272150367066117 0.002332207383686847 -0.015739524440934027
1294 -0.01608289490181064 -0.0010529632149324465 -0.009288853610707668
1290 0.0007379034534355119 -0.005629215178654667 -0.011342692407720832
1293 -0.007393428223154265 -0.0025729337170795636 -0.007263908119926105
1298 -0.021193016903614297 -0.006341133600670131 -0.011884253837575288
1292 0.014847538899436739 -0.0019719775627661243 0.02729846568545729
1287 -0.007787180638914571 -0.006946862878304517 -0.008858224788856082
1295 -0.008394244146616475 -0.0076898200907837165 -0.015335746222031897
1301 0.015260951171275178 0.0008026485678813775 0.010519843479481915
1595 0.01828139329949294 0.0005915113550741467 -0.012081237718000182
1302 0.005001255197321501 0.0010734227399207892 -0.027353905352605175
1660 0.000206417185544319 -0.011326191645316449 0.011973895367282538
1299 0.00028563950755129333 -0.0002946831535107052 0.0014966631360016649
1981 -0.004278022257793813 0.0014809562595927148 -0.0040256037440158906
1985 -0.0010542309978942403 0.006481590959472695 -0.018664716833191555
1988 0.006519668955570605 0.021285273360717814 0.011565669415232264
1992 0.0013700110039073818 -0.0017001484353644436 -0.007270448856812266
1987 -0.00014116607524646425 -0.0023878305977867607 -0.006382352204744447
1991 0.021692794325228092 -0.011427584576437994 -0.012036083688219497
1984 -0.0018583020375650162 0.00014457856003416235 0.0008967448738919269
1994 0.02557680596767249 0.015627073693506622 0.002521999322681381
1990 -0.001209638554311847 -0.0021300635075670584 0.0007801306822662347
1297 -0.0049935058514477375 -0.0005690451558828673 -0.008788246395945628
1291 0.012908937148510716 -0.02951768957894915 0.0010321254063166074
1998 -0.00747395767804425 0.0015658809059108088 -0.01851708343949024
2001 0.029955551346716926 0.021519068548728863 0.007550899811996917
1993 0.007856166605822472 -0.002789525609975806 -0.002987325274281795
2000 -0.001116947954985706 -0.009953468152922388 0.015475923296733021
1303 0.008966291985342765 0.00807743628007943 0.03272653034605685
1001 5.142774821639313e-05 0.0023480598146081774 0.0064580958933485215
1002 0.00243594642020852 0.007517544198308241 0.024481594012101742
1006 -0.0006811406077911973 -0.0008729702629206841 0.0021294492554896727
1589 -0.002438667973790198 0.0009658375675049369 0.0069190141451745445
1554 -0.020962019317581477 -0.013376412195131615 0.006931417519927228
1000 0.0033881974912566815 -0.01330304564034344 -0.014123956227517573
1073 -0.005280545685364163 0.011774676328140412 -0.0030826434316012304
2369 0.0036482509395320047 -0.006169292258055429 0.001270615060456721
1074 0.011609083734654297 0.002355266558949927 -0.005417194623392786
2368 -0.006724589604954196 0.0025334594706961093 -0.0067800141066356135
2370 -0.006376749563214122 0.019655392116100633 0.006496098200859073
1288 0.026994897599461967 0.0034323940298301024 -0.0014591267419950186
1284 -0.002400231710495286 -0.0035980563403542423 0.003054687167704378
1005 -0.01538286824398455 -0.0014966914976955008 0.0005080222478632288
1077 -0.008631345651138675 0.008799920782823455 -0.008264294235623137
1078 0.00788246253773011 0.015546588549616651 -0.0052994650222011235
1003 -0.002771737448902285 0.0060607016343680285 -0.014021634524163521
417 0.009115166264672564 0.009643556620228482 -0.006372018274485223
998 -0.001490264303750594 -0.004484964620168922 0.0005006050336459507
994 0.0011699776686332132 0.005015826634856258 -0.0029311872122678145
2633 0.005535909936861371 0.004917783773527735 0.0016078846237584997
995 0.002905623352598525 -0.0011850872560881932 -0.0017740605996001116
1283 0.005549606728512236 0.00259124561922882 0.005791727917342785
999 -0.018518518968085346 0.014457155914725989 0.021624036660494263
2634 -0.002902273865859844 0.02099879693934043 -0.005472561617250806
1281 -0.002651743568356054 -0.0023265388027396256 0.002098408043730139
1280 -0.007183832432632644 0.0008501476950332493 -0.0023232408939901175
2632 0.004059751558933938 0.004256480780448013 0.002621973829739194
1282 0.0038593151732105517 0.005969679303381989 -0.0018154619850774094
993 0.001482106248940638 -0.005658540332602933 0.009864296798059401
990 -0.0006766953483757439 -0.004823691667292316 0.0001182642021905924
1285 0.006198450745871097 -0.02088515851239683 -0.00799283159812848
997 0.0015250175518225456 0.025586227996736634 0.03234925931662831
1111 0.0047316640720590575 -0.018968558493077763 -0.007029364036860734
1289 -0.013474032776071648 -0.009695856115414193 -0.009864408520260997
1552 -0.009860816997252862 -0.015166463859152235 -0.004791705739256846
1553 -0.004782633020126085 0.018118840360218588 -0.012696599823840369
1549 0.00497863696871982 0.0027312801379290705 0.0012528831320862118
996 0.0072363547427478905 0.0006262139376308499 0.023207280998803793
991 0.006089013011005061 -0.0048533085985470155 -0.003446206555071808
1286 0.03954113180263746 -0.02487315026868179 0.006594088997965013
992 -0.004239631207922366 -0.003635224345454137 -0.006042620060707324
1917 0.009720698379022542 0.016994924700961447 -0.012612704998148797
2820 0.007385977326127355 -0.0028182960062459288 0.018203847993250283
2819 0.002328213463134245 0.0032354353932985786 0.0005390574072938302
2818 0.004072219287364101 -0.03505437352033493 -0.020057465726697962
1916 -0.010203385172668175 -0.02440267118709458 -0.010210314794104633
391 -0.026076305453566567 0.011651277107227527 -0.003743931813912321
225 0.0021027953781005524 0.0074589480790456615 -0.004798678914301594
693 0.039762095010775496 -0.0004108669921938843 -0.0031289062402763065
2440 -0.004866465063242558 -0.03390890387058212 -0.003732226088291062
2441 -0.0053759206407215186 -0.00031337519923077176 0.00016479062989382105
695 -0.013412293598650281 -0.0008057099236810203 -0.0020196804473268837
691 -0.006758783650487566 0.006118070972658842 0.0014940443051290764
694 -0.006632839981242745 -0.01627907340819041 -0.015521499459703055
692 -0.002533998370144957 -0.003401572275271386 0.006876048301915904
697 -0.002558544682281487 -0.0011921855724858264 0.0023820153735014346
698 -0.010930789825133928 -0.002509343178386153 0.0029487730158267783
2457 -0.009705777668715544 0.0037549637094437052 0.02720384980162473
2183 -0.0020527697660330576 -0.0030204178677738732 0.001160164203863933
2185 0.01997288429376057 0.006806958012309904 0.039562321210878854
2656 0.01134799199963947 -0.020661860498066828 0.02952395673833291
2657 -0.0005995494668070643 0.0023077312452290553 0.003516077030611156
2180 -0.0005477404041495511 -0.002327382439814089 -0.0004360061652098955
2181 0.0002663882435851725 -0.0017786420339120134 -0.0034302896289456174
1854 -0.013717067597881235 -0.02309441302244926 -0.0010887711730853164
229 0.01661422705290574 0.008569921711920567 -0.004728654046559098
230 -0.0026294720913559275 -0.006298008953167263 0.005255807115488324
701 0.024812144341445033 0.031196639636366996 -0.0006458262289468629
696 0.008705723685661911 -0.0010565806747099037 -0.0036974857167125655
700 0.009931670688793555 0.0033880809347167926 -0.008696198955732906
704 -0.006631877200603567 -0.020035142828872986 -0.0013674044982836964
703 0.0010362155177869464 0.008833505435974729 0.0030412888953609053
699 0.0014075609090661134 -0.006489476867525675 -0.001562437765308083
707 0.008264903978882293 0.0054837559389088455 0.00046532860435825885
702 -0.004117649893111071 -0.002109039518670571 -0.0014926017366018222
706 -0.004644409012538969 -0.0037648834720677977 -0.006122802628307787
705 0.00924171844508529 -0.0047671658911949315 0.0035474324254920254
709 0.00920041993812645 -0.006686953796114673 0.004192692982093697
710 -0.0062897464000680695 0.00143875840152772 -0.0009853403856966148
90 0.00149049282221925 -0.022425026087196813 -0.007258899536087839
2456 0.0019421116870620065 -0.005394930960666342 -0.0038483536511003985
2186 -3.808488936383538e-05 0.003965875904901233 0.003334753327526434
228 0.010900179183800313 0.0012293591624324245 0.016666413830593158
2455 0.022602677808302333 -0.011297685229638855 0.0043956073212365705
87 0.0026022120281813882 -0.00035495173792395544 -0.003767903137793638
92 0.0175380450709651 0.006258429092756149 -0.011403560614559516
390 -0.036768034566902814 -0.0189266454092971 0.0003230723083757078
1798 0.011547451291533497 0.009280952943744498 -0.0005555819856955229
2418 -0.0070137506605494485 -0.010536087339884507 0.002105054518590112
788 0.00043442627334614435 0.00044782941374262876 -0.0018374376802370077
792 0.012096405085372438 0.00990105435382516 0.011483785511360829
787 0.00010830718455575424 0.014471763016456711 0.012232703286527325
2182 5.6674517565349905e-05 0.003886221615522057 0.00912589633031969
793 0.031208851609229087 -0.009787856426369571 -0.004178831968882108
2184 0.0061784676535495625 -0.001468638981146283 0.002887250769637485
2189 0.007343798207686074 -0.001943266924723915 0.005532635896762819
1782 0.004038216228058071 -0.0029537378051416137 0.0010907918550845136
1783 -0.002444800651174 -0.0026663317553356604 -0.000917118752555139
1780 -0.0010666906696897567 -0.004389316577910193 -0.005618588086088874
1797 0.004157334903882339 -0.0007040472341790366 0.010699726528166423
1791 -0.006078747351631016 0.0011172158988934687 0.00016534714077526502
2188 -0.016401018920915892 -0.015560217965631272 0.031411784126618415
533 0.00025911436692647376 0.01859923319016506 0.0016721752828452526
794 -0.00024393047056034024 -0.0012880136807591493 0.0056219018352468
2481 -0.029635972983521164 -0.009274780633905518 -0.008390414392511538
2479 0.0010587129565237685 -0.01246338251747189 0.00037824241382553416
2480 0.0023884774981243317 0.0026379666010656736 0.00470542654424657
799 -0.011028975049684914 -0.0035669824147624395 -0.009234113586022257
1983 -0.009082230471222847 0.0022476105526879654 0.002539742729510876
1786 0.004399426871680922 -0.013553448979253783 -0.028653505559290603
1788 -0.0016464604085825263 0.005200837463866106 0.03075005585064769
1785 -0.0005546550352763703 1.5954050408375018e-05 -0.008152849357137306
1787 -0.002675515186058247 0.0008969131011473927 0.006263413991171822
1784 -0.001214987109928416 0.0045519072568381575 0.0009154546606954798
1781 -0.003795595588329626 0.005951564780630479 -0.00927137068623802
1792 -0.0065121248338421865 -0.006475035868067835 0.008630445150855376
269 0.012861116035186686 -0.0060666855638434975 0.0010379121805716147
539 0.0035313046660406127 0.0051805215715113595 0.002532459615250944
1789 -0.008073574413309892 -0.015900970745750673 -0.008839229724862573
1793 0.004369047887540203 -0.0018942627085980438 0.0037334127721786016
1801 0.010853806679154969 -0.009021062716880508 0.01055172165193941
1790 -0.003255356905793326 -0.0028269832078277597 0.0011678376526854564
1794 0.003996839331056296 -0.0028366798825890465 -0.02123020808905242
1795 0.004136070404508957 -0.006590831727703311 0.021199450657353246
2407 -0.006316690001391275 -0.00391040231564489 -0.016567951660264278
263 -0.010025323309315978 0.0032347162971708143 -0.004926228541037891
742 0.0029892646947913717 0.005712662630554281 -0.002819155478553949
1989 0.006488674946700123 0.005698632149704358 -0.017334618701113757
2746 -0.017796518157715793 0.01901818519541272 -0.00960819537608082
2747 0.001546139778149557 -0.006314525737095817 -0.0036413443075073793
759 -0.008743066301779191 0.00569057566466408 0.006649552647059626
758 0.010730358675239237 0.00795608462749902 0.0004029449993550785
754 0.0022384700944377716 -0.002857157420894012 -0.004355089564646805
1995 -0.01914096792732245 -0.00663492689055123 0.022030276482571567
757 -0.016472525469326177 -0.010374889053192282 0.011528391313717268
1997 0.002059281537049054 -0.0013169481266867746 -0.0004895230671942558
1919 0.011885420200874434 0.014013519121936333 0.0002967543603020546
1996 -0.008342059768806923 0.002150068014684576 0.0022311510345297166
1999 0.007929017746597935 -0.00040639223718023215 -0.00640151844226802
2004 0.018881754669909722 0.017641017790779492 0.0011546373119822916
2002 0.0173806984840232 -0.03134242208475376 -0.007058669906348621
2003 0.0051831867916097354 -0.003129529598401827 -0.009039195033280288
2409 0.017332503030246846 -0.009256993795110134 0.00538215173225727
2408 3.982979686697608e-05 -0.004728937603482904 -0.004168013046683268
2707 0.023988828994764105 -0.0069097675038347 0.009430164833352336
2709 -0.0038348243531270746 -0.013297150590267646 0.009619240613015055
2447 0.0008354833267718412 -0.0050988118110208746 0.00030231880259034145
2446 -0.02025169768461705 0.007312901613975786 -0.00450519731966597
2448 -0.006894498262439638 -0.001390736350429064 -0.01261590952261183
258 -0.013455209052908885 -0.013004910798714282 0.021216673208666912
2445 -0.004246750246594513 -0.0037167544799014225 0.003672387926415456
2853 -0.017156830433186623 0.015396475980275444 0.012447924046388913
2852 0.0007177528288294404 -0.001762883795569347 -0.007560941912514486
2851 -0.012646366656504909 -0.0072161206769104525 -0.027073203790742614
750 0.012085581212183491 -0.008932794860416557 -0.020931331474849314
2854 -0.008939297450384196 0.004376163121021267 0.006575759486763818
745 -0.005894903923520469 0.00415456256708178 -0.00947917872437926
743 0.009658681149783565 0.01531408758217954 -0.0031006011380446973
744 0.0003232706021848487 0.01787312563930955 -0.01515736988324558
738 -0.0018266267054348941 0.00366400129936413 -0.01173893399768322
737 -0.006338667551691925 0.000816754004836994 0.005084241138192935
2727 -0.003590180673923494 -0.00836269712469599 -0.014052843539277472
2726 -0.0036642170263278483 -0.00878947645168053 -0.005131303546520686
2725 0.009195609578180261 -0.011697388820678441 0.009530756744913032
1532 -0.006574224731941619 0.005738586941004749 -0.007626452692307754
739 0.010917113388982491 0.010511675692332282 0.019141244986225082
741 0.024366429008495095 -0.010255298693351882 -0.025111850640126557
740 -0.011700055364933293 -0.002761315324757344 0.003414539806434789
749 -0.0211668986131291 -0.005729059831767958 0.01125391256686121
746 -0.02104256120382767 -0.003348709618344586 -0.02407676441386309
1547 -0.013421092656200125 -0.011404653261389236 -0.0014646081540590345
1915 0.0031196941594579257 0.005775253510183503 0.0006522310523321367
1548 -0.001967413912546227 -0.04676711165377154 -0.015218298384034405
1543 -0.005652753355358594 0.00256407214769741 -0.0064412798453865475
1849 0.004537358201326259 0.0033685935034556084 -0.001555410923767455
2683 -0.0031313079935752913 -0.015393282074913304 0.023985201982558824
2685 -0.014186297191585774 0.005442003663364061 -0.007804757474379706
2684 -0.012192409753124986 -0.0004942020437492444 -0.000603031380270777
1853 0.00981934910061049 -0.007543889965893662 0.008715656150652578
1912 0.0050062353535999795 -0.00038457819916077896 0.0018218334828146135
1913 0.0013678242172489898 0.0017066210496840808 -0.0003882959386051564
1550 -0.01071860010282148 -0.01608043693929287 0.015110243677203667
1914 0.03945918030404806 0.007874529690598469 -0.027557103010350248
1909 -0.00349557967342183 -0.0020113634322127716 -0.006325107312311193
1551 -0.005022760752148152 0.009681110295925173 -0.009048660420884818
1546 0.00798507152882695 -0.005918744079612527 0.0022612561333854165
1906 0.0017669712014509113 0.0003030459510230046 -0.0055700158768394676
1910 0.026381185051033346 -0.023020078634074043 -0.015135385385925511
1530 0.0014937810343883676 0.0017119759001488746 -0.0038069023995625922
1542 0.017908040580944563 0.0014900816744628028 0.005751797686346053
1541 0.002970520403305256 0.017629143801865532 -0.0058753880545934015
1537 0.0027614553700133766 -0.002267497656593874 0.0010095044998472127
1544 0.02277640165965273 0.02021115350616978 -0.004512521021645982
1540 0.0003686435372424821 0.008347892273078158 0.010204922489663381
1534 -0.006680704833528242 0.003444604370293088 0.006284483036952354
1533 0.002582131887876788 -0.004649534555570915 -0.004334917240546202
1536 0.016768115589320752 -0.010279177292317995 -0.013328076023457786
1531 -0.001019089236192353 -0.0017395058806490625 -0.006172757636430077
2364 -0.002491511269516102 -0.005012794555872748 0.0043931964587054844
386 -0.0016561534975959955 0.0007082579096191888 0.006129468623852431
2671 0.003906611175252668 0.009068401043275413 -0.0016388793479698183
383 0.004435486987520257 -0.00034588731665869993 0.0075965772087861335
388 -0.01472086099817197 -0.006864655187027562 -0.0037392559152966483
940 0.013773389741913906 -0.0054634974592663674 -0.0005982921952883343
939 -0.03258749607410273 -0.016268269095930262 0.007567239727492536
389 -0.015991156489289764 0.02689523800637034 0.012659253620683696
942 -0.0018984164225839205 0.00427716297915756 -0.004535083829063339
932 -0.0007305856175013257 0.0028644766334416836 -0.002569696596378171
937 -0.013502359170308346 0.0012421979533036667 -0.011818097971774594
387 0.019881129264093998 -0.015487450586141805 0.002799288560330294
1545 -0.003115796720233277 0.0014311871517862962 0.004745920805842433
935 0.00032160838929367187 0.006378700596247755 -0.007094011090531821
941 0.013180271699023081 -0.015544317150877592 -0.00781421319229755
938 0.0005214518568482057 0.003911613159102248 0.003809293424157651
1538 -0.005132451293665974 -0.01066008273361731 0.00680683555835358
1539 0.003003273007011624 0.015665153112085863 0.010575653602220769
943 -0.020148010875449804 0.01903264740867386 -0.0007263048116307575
936 0.005011691263331654 0.0073642603309927515 -0.006544874395034647
1911 -0.009967008680337421 -0.007213589801832557 -0.015723435858098062
1907 -0.0010530892780520453 0.005576809302704739 -0.003764454491946663
2335 0.006478791790607346 0.006319148269072941 -0.008264285779064252
2594 -0.00017871316069511595 0.0014362272854442177 0.0059520429934413095
222 0.0012249447736077947 -0.006991480199323399 -0.006964070558609541
226 0.02060015374309444 0.013357130889349747 0.006880334284194672
89 -0.0010595840812758091 0.010253085589562422 7.608757813333056e-05
88 -0.0004524793168125178 -0.020661411766963716 -0.007919793021842845
84 -0.0035939321764913547 -0.007334160829527021 0.0058608833223549265
1896 0.00776376021852047 0.006159564695756223 -5.988410367061724e-05
654 0.004791208818673247 -0.00269682190840155 -0.023617614664979043
1901 0.010349339893238177 0.006792058875046899 -0.003276323953764834
708 0.003058785720166583 -0.0023117997147159733 0.005447353512921347
712 -0.004440750431521311 -0.011657692623116351 0.0026720065436660403
713 0.0035793139065150364 0.004138292604364961 0.010041326655136556
1139 -0.01698708442522143 -0.003609057337915514 0.00516572426127174
711 -0.025137667613806224 -0.010969341244934264 0.011279633698762401
2477 -0.0011730705526356397 0.007497255308496887 0.0026931796454907164
2798 -0.0023627227265080953 -0.0010529749283598629 -0.004749723473400008
2799 0.019231906330756762 -0.03543803694030887 0.017040071443324267
2797 0.0011702845737764293 0.027803952649004503 0.0030319727240127013
2476 0.035024369362079824 -0.018215684198713236 0.001608996481052027
2471 -0.0009996817683549572 0.0031235836458778496 -0.0034642153067253874
2472 -0.018186417973835245 0.002954534892121537 -0.010347775790853704
2470 0.008324881249500267 -0.009153876332292366 -0.01538421499860606
2337 0.008579541632896702 -0.011472024249208039 0.028798460714756405
2336 -0.0027344083924828117 -0.00845275109431549 0.00018558127038495418
2276 0.01574792353724667 0.02031205105690571 0.000351861490377906
1900 0.014387117517092905 0.006188427059177702 -0.014039138576982177
220 -0.00043359435240272016 -0.007858126587191271 0.0025466776179798797
2270 -0.017196982610351533 -0.028782374931618088 -0.008490106516254113
2268 0.0010653609985135338 -0.005251228112380641 -0.001380420469434055
2272 0.007677400911499274 0.0016912119690453053 0.012020464816795742
2265 -0.0017443941219429087 0.0030805344534308725 0.008308483192490806
2743 0.007993841336477759 0.0005885609588550601 -0.0018983750026046204
2744 -0.0025049686519093804 -0.00025385631654636416 -0.003130452155365708
227 0.0044895370972908135 0.013577319337929095 -0.007194764452163934
2313 -0.014816413698424359 -0.026599173373693084 -0.022479703539861454
2751 -0.010186216172671835 0.010489645912933818 0.010594485887134688
224 -0.00670380418775405 -0.019500599179918813 -0.003631671130867997
75 -0.001174670131524136 0.008146813668881968 -0.0016743243676507573
79 0.01948645736693015 -0.003271272197871274 -0.022556291289766436
2488 0.0009094183064543697 -0.015040281897323215 -0.019241855240811966
275 0.009199168314830385 -0.0002240674930969197 0.004157880459690134
273 -0.008622082766624694 0.01142163399811085 0.011386584663038858
85 0.01762985740699466 0.0036433515066373297 -0.0028302012649715725
268 0.002525881607755233 -0.0009316988474569607 0.0015266109133963016
265 0.003890019304680273 -0.0034594806305581183 -0.0030396647621636704
81 0.003252359506952693 8.5671655764627e-05 0.005325851658152895
267 0.0052761978294411736 0.015768865723249398 0.005362737010280767
259 -0.007637476287447807 0.0016005804129720432 0.0027203061281170183
262 0.008957313495841815 0.0018922400213301155 -0.0028981861367706058
266 0.006498674613251781 0.002208448925599454 -0.006190073660075513
260 0.018337077700304648 0.009147106231836068 -0.002617771071493461
2489 -0.004287831811158764 -0.0019037491622225643 -0.0017813928074706068
2749 -0.006235476199370721 0.010368735212582516 -0.02140050383254884
276 -0.012566843720125617 -0.04086851252224106 0.01220146087860635
274 -0.008172102660045682 0.0063052859686983 -0.0078006148499396785
271 0.0041163826221153905 0.006162665774142276 -0.002739053228496938
272 -0.002695558727479123 -0.0005656777552239351 0.0006809258847270824
270 -0.004167466950417123 0.001169943205897629 0.0015546061571712693
2745 -0.0021434845387896255 -0.014062839091936334 0.02033490883444548
2750 -0.007390681575262007 -0.0011632755607730153 0.0031386443045607645
2267 -0.00372415322870371 -0.023176094518619614 -0.013447792358077092
2262 0.004195327357636815 -0.005899930837336362 -0.008688763470159651
2261 -0.02739604672883558 0.006984714680280434 0.010825881048016118
83 0.012342365310413932 0.0009787428710831283 0.0029118991397998526
2266 0.009705705981666127 0.009857440095611002 0.018122716181947364
78 -0.0029195324578977547 -0.0038830676262930444 0.0009183133786330838
77 0.0060028477660162135 0.005938669104422263 -0.009016941834700231
71 -0.0015006402821537792 -0.0004438277233499818 -0.0073931111940871135
2668 0.0008759782083278762 -0.0036944395653458048 -0.0014290204867509612
2434 0.0062876187472036835 -0.0028328033920017957 0.0051037256916832766
2400 0.0036629329009769157 -0.006694994117615623 0.016476977286992454
2670 -0.011063735578527112 0.017722574033530284 0.006001942663698795
2669 -0.003150247287559871 -0.007363041749805271 0.0017308603748727857
2398 0.01112295366858058 -0.009120037715358067 -0.0008059262496151025
70 0.001214783483118259 -0.007915914550634194 -0.004843363076207737
2436 -0.01375111985207993 0.010968127702129347 -0.010364769529552615
72 0.02127594195130875 0.020999596189027258 0.013203788490810879
74 0.008375482681924206 -0.0017428525565408282 -0.03446995902010969
2435 -0.0013275604098377301 -0.002515923820249033 0.001032342031451127
264 -0.02398123981000321 -0.027462072137144133 -0.01291937992121919
2399 0.007409359612361716 -0.007488447526449031 -0.00015236526962067454
2393 0.0017084544365375594 0.0014750904814751261 0.005386491792825521
2392 0.003573291556511463 -0.004552145719329459 0.008472977770559071
2394 0.008668875835291856 0.02218258921774771 0.016520349198897503
184 0.018555271797634314 0.01194314875474626 -0.011645220582007402
182 0.008447425166789532 -0.001340136572974678 4.926581143874121e-05
179 0.00120845176934244 -0.0004961701050890259 0.0008112939376588815
176 -0.008263666692826997 0.0042462594090344995 -0.003147872073331647
177 0.013520215040895458 0.0014906674595202196 0.0006610971564637849
2840 0.005425440836684967 -0.005724710970873865 0.0034456578900513976
2841 -0.009232087401311158 -0.020070306836830375 -0.0013444405501162743
1158 -0.003385568042695745 0.0004363622961358812 -0.008415951716073693
155 0.013443449680248966 0.004432740213675618 0.0008712141595055835
2676 0.002673862432573059 -0.018274796324686433 -0.0036217477500244096
1955 0.0004049505605157251 0.009979269952567678 -0.004439912025858202
2444 0.004531383034010979 0.00037342414130309566 0.004177535826632601
261 0.01332669764904376 0.0014393804382159588 -0.0005954506013881447
255 -0.005862794696211077 0.003739703067241322 0.004735307321137195
2307 -0.005090516826604867 -0.0012197138382025563 -0.008197640237745446
2306 0.0001457736420736343 -0.004311902100607014 -0.0028509819031115103
2305 -0.0015330418182740745 -0.0039926722613985435 -0.006749246040658078
254 -0.0018396600676254564 0.0006903670049875476 -0.0020083418386478247
257 -0.009009977891224439 -0.012344895119025897 0.012925928827642066
1957 -0.0034354270797217414 0.0008555125046948854 -0.00020415106553392423
1155 0.0037124941726069515 0.00028146533376214244 -0.0034575496372063496
2839 -0.008469993160824607 -0.0028574214747814027 0.03724645705005755
2674 -0.040566761306777804 -0.00867910303738169 0.036033813590402766
183 -0.0033067399631423935 -0.028216312916445135 0.0046940484503699975
181 0.009841346766646466 -0.007450580916412993 0.012425128764171497
2661 -0.007931873643766003 0.012402626358508166 -0.009052276443204237
256 -0.011199773873591497 -0.017451898153463655 -0.021990142522571074
2660 -0.003110404519538737 -0.002214280408491425 -0.0021925489602008276
2659 -0.013652598859630915 -0.02015925161278014 0.01266660248076879
175 0.008363881869199688 0.006752333383698478 -0.004839386005209122
2675 0.0017798865868755135 0.0003853702826013688 -0.0036066100319092596
161 0.008132799661267395 -0.0023531142918051043 0.004766369706099723
1958 -0.0011736019973704642 0.00341654564358938 -0.003338961318877345
165 -0.015028121217436371 0.006514921242152846 -0.01242022983631299
164 -0.012158032026295703 0.017253310489423544 0.006602683645257587
178 -0.013204398482910103 0.003498205919811941 0.015461873005796812
173 -0.013468396960507868 -0.0012359945484791662 0.008233090981239387
166 -0.011447074946844004 0.01589422780765207 0.028633313430613577
2800 0.00628319479269175 0.013748076834095346 -0.02311544894006208
2439 0.004312821787774833 -0.0026535733029484747 0.010938182504001406
2438 0.003037038505436843 -0.0026658833214018535 0.005451239971079785
172 0.002984855885919676 0.007701395838992077 -0.010511371615923177
171 -0.005277757040329457 0.0008732015056391677 -0.007529717259626048
2801 0.00387853253159633 8.517145740885094e-05 -0.001651787817241385
170 0.012939610615103377 0.0037641775415445397 0.0011941049338604847
169 0.011309397148816439 -0.018626816665351657 -0.009109334659226665
2437 -0.002397325590269651 -0.015601056031976116 -0.019349839300463974
174 0.0008726128738830735 0.0022419729366314695 0.0017108676227646235
167 0.007945497994420184 0.0003425964851338296 -0.00220898483147644
168 0.0002634036125303319 0.000527896627044233 -0.005398201394021956
162 0.0010713065398535052 0.0005078288086670604 0.0014462530032100826
163 0.0025679323069992734 -0.008368706324577648 0.005677141520921633
2490 -0.005376475239046264 0.001387904483149533 -0.009823204320864679
1898 -0.012742186246397154 -0.026817312853931314 -0.022179814295894332
927 0.003855332408545182 -0.007235620104649289 -0.024235799420231983
649 0.010324477684773792 -0.0026661851628762305 -0.0026209962409818066
645 0.004246295516000802 0.005269613556368285 0.0028287734874052
934 -0.013604102111155059 -0.010374527589015409 -0.005073269621720127
1894 0.0028038248196307625 -0.009888045641860306 0.006114309021502147
1893 0.003413057057892532 -0.00893464020274325 -0.0014242952667345584
647 0.022980597943085913 0.0033675557565966017 -0.01766886354154115
2723 -0.0008151774101484659 0.012799780864485567 0.00021499854667974202
2362 -0.001619555302841405 -0.0026375066871030016 0.006437094378033201
2624 0.0014546007507202983 0.0022004957452332547 -0.000165193292697401
1890 -0.003878165946298016 -0.0003685278553631264 0.0026555350165887617
2623 0.009704971120886485 0.011854659268994004 0.009214603545115567
2410 0.007110168786724926 0.009617641510701108 0.004784278852517231
926 -0.005793584945382057 0.0045486666499685 -0.0015982799418305187
1883 0.005872210396979545 0.0006223485824749415 -0.003313793052044892
1889 -0.03449996409512088 0.009191866652793522 0.013809262883387878
2625 0.014613680512554357 0.006192764315128322 -0.009573355055042023
923 -0.02156098467855127 0.008573236704018475 0.016113384114192806
2411 0.005732765885216501 0.007248750278289156 0.004705400655396914
930 0.008849259076742699 -0.005514952121831539 -0.01635818956108995
2724 -0.0004593886147752495 0.005411478467494302 0.004682492468114079
2580 0.002056141008442313 -0.010748150607825937 0.0014055407345949687
1732 0.0016776995348147677 -0.002799949726449872 0.0011680198498344732
2578 -0.02803686379907469 0.002210115487192626 -0.006983881996452439
928 -0.005829483569536789 -0.013362412491959038 -0.007045783050409722
931 0.023467779787355533 -0.010813210099334322 0.006932469352169211
648 0.017017607866879055 0.0007877291404445052 0.012937892633564303
2478 -0.006244228857352925 -0.0059032526704695725 -0.0008402899130714653
924 -0.009604927078873842 -0.004461589969272196 0.017556290583776342
925 0.005772243307746593 0.012137058256662803 0.0014623189205387212
921 -0.0019244365113569146 -0.0005592255273441138 -0.0006459231124592262
1535 0.004787144990440301 -0.008272667338643654 0.006250137206986714
1891 -0.008400808058277715 0.001588845863965638 0.009912617089276446
1892 -0.002921509864684102 -0.01440989385095696 -0.007680532300829722
2363 0.0023507108121497548 -0.0029040517586464967 -0.0008694673717796702
929 0.002138005912113396 -0.0024165574946621252 0.0050695591875705584
933 -0.007757367328682196 -0.035118639106841966 0.013716314295608595
1884 -0.002742151239686498 0.0016839033782818371 0.00438429658826984
1886 -0.006621804008108574 -0.002274128488778386 0.008392424095674322
2722 0.016592813871944254 -0.023206523076564085 -0.005964492691389414
1880 -0.007901418645894668 -0.0066169972108779595 -0.0006884327938511799
1882 0.0020031566966132804 0.002255105266622135 0.0024343650787371765
1885 0.029329813495478318 0.012187405748552278 0.019833995046608842
2802 0.006879750753655151 -0.0023715920826622096 0.019314257304839065
1881 0.012923783813593664 -0.001969143562557037 -0.007415197990360981
922 -0.0027000675184004593 0.004143224875244665 -0.005441887843148975
2579 0.00038215040033191204 -0.001507644981677544 0.0056872362512235194
1887 0.0013087973902504836 0.003046918496852651 0.00102145679210881
1888 -0.005325449851461055 0.01075534653397736 -0.002617524658769748
1502 -0.007710356781470323 0.008128105409485964 -0.00711271659639626
343 0.0033746332406540893 0.005559560114480477 0.0055230511678098625
344 0.011153419126888907 0.0038341076022511385 -0.009972570872893311
340 0.00046231948599698033 0.00027581887906226606 -0.0057805829823820085
2630 -0.002609672943540755 0.00027124224305096313 -0.0025627126201551984
199 0.002429881718836728 -0.0032235257492198074 -0.0028281827521643536
42 -0.01602321183116529 0.03265993326146486 0.02645375378600795
37 -0.006057657673850069 -0.021257029200362276 0.0075732829461761676
204 -0.004218823987032021 -0.008517986313065126 -0.027361885344849044
2629 0.016237376128524748 -0.005184152928140434 -0.0003117040379197865
628 0.030895411055201317 0.014909165926642307 0.012024727066302955
634 -0.011683061067482261 0.001275730274468608 0.017320835887162593
205 0.01639903009334318 0.018520907354938703 -0.0009446135862442226
2631 0.0022709253356951436 0.004698456513491686 -0.007673638829779667
206 0.006796423310876747 0.0009588913099919356 0.02993883615272545
345 -0.02052703001675946 -0.002823237702584917 0.008185004800950994
200 -0.003915842800746291 -0.02561303906708048 -0.003014696476846943
623 0.004671691782794052 0.014612541866312471 0.0005089404829390747
202 -0.006460726130732913 0.007854349130578513 0.002266424460940956
207 -0.008995300367339833 0.024491166685380795 0.017438805204341993
2242 -0.002864806362600535 0.0013409035107288321 0.02342002883925121
2239 0.0007914363803892433 -0.009364614571683806 0.008404881429326263
2238 -0.005678592427175831 0.004769996421468085 -0.007173453014575588
2248 0.015425017384937848 0.017840179204013214 0.013663761302873046
1132 0.0010147242403808177 -0.0030239804143141133 -0.0003042926019337747
32 0.009345938187079515 -0.006058405146686768 -0.007041237568899142
337 -0.003162783783821383 -0.0037566063277356034 0.003999677163706453
36 -0.0001480397626709377 0.0178082385812935 0.006026275269232557
342 -0.017888730921484908 0.005587439766999219 0.0006482347237827887
31 -0.006607335118617925 0.01777927079259809 -0.007790163948746075
341 0.0018842451563344455 -0.032479256866851526 0.00011338227594831297
1499 -0.00531211754664801 0.0006225116711845523 -0.002095114869124888
635 0.0007552001453790564 -0.01708917231731682 -0.0029834350800921196
629 0.006080523918597984 -0.01768164388084391 -0.00816053774390257
196 -0.0004392511817243321 -0.0024786397470367184 0.005571613844125228
642 0.0046608375593017205 0.02741328152419219 0.008772002942046376
2760 -0.023514988526676325 0.003944357416865331 -0.018938205350807022
1503 -0.008078155076082283 0.0016670925557840668 0.004640360526018174
1504 -0.007478589919528593 0.002340329089657265 0.02163302986374746
2244 0.011392265114014997 0.009861478500218422 -0.01657145203621627
2237 -0.0063140425797816365 -0.0004791936087675694 -0.00027407205020601
2234 0.0008437890621040892 -0.0015292734927114721 -0.0019792123064884164
894 0.018805256816613193 0.0023905959480832726 -0.007001996000061086
2241 0.007396729873483862 -0.012487987479659558 -0.00906246433577667
2240 0.005695288838949969 0.0068513905701822544 0.00538767683230494
2245 -0.012540848318369546 -0.017410997515560987 -0.005718294349221997
893 0.006648508679627576 -0.002018523465325642 0.00807815596643446
889 0.006092221107979361 -0.000273254857497206 0.003014766179252596
2236 -0.01623273961219528 0.02897195482981497 0.00851609076624914
2231 -0.007007758718998677 0.004750089157592746 -0.002834154927484709
2235 0.0016499599748120302 -0.0076309106708264025 0.0051615118173870805
2230 -0.008214467855598822 0.0026168623850136162 2.6386938408484302e-05
839 0.006592848542987668 -0.005212306808730445 -0.018604012892391816
69 -0.003934228095868439 0.004600767751584292 -0.015461898834465818
65 -0.00824064815942386 0.004729982163805507 0.02137284781447561
847 0.01809599682325699 0.00869025729378674 0.020264712815314667
841 0.00947461717022234 0.010600114974208319 -0.005523163559582851
64 0.0002576436957483239 0.0006238671543668307 -0.0012088948439911162
67 0.0060038064279574555 0.001549982705205474 0.005713887107632589
844 -0.0032773748822650553 -0.00031339355919156146 0.01660444620545642
840 0.002283458791965524 -0.0060502627428248865 -0.004550297609542416
845 0.0009625844585183063 -0.008605644124852808 -0.00863024037785549
974 -0.0009345469826730857 0.00016978605079182634 0.0007033784263578561
849 0.03446828535130545 0.002071861110595614 -0.011800634659530226
66 0.010114775539503735 -0.003882623515228214 0.007376948704476574
68 -0.0025050494617578365 0.010475107261607011 -0.006472856489843145
61 -0.0021027810623520707 0.008473617103632548 0.0006258486393894533
838 -0.005573183029677213 -0.023164779950410302 -0.0026797747297406796
837 -0.002782949125365279 0.0010952563849834294 0.0011550730946150191
834 0.010189485031120429 -0.004724732597879731 0.0014322610673574339
848 0.006886828431024949 -0.005075616447389294 0.007305319898733862
843 0.0060488169613239 -0.003517166537326292 0.006715769221167398
851 -0.0053276426769158875 0.012119482834429396 -0.01622495040286753
890 -0.017072592838718332 -0.0038303681616171374 0.00038481214460645686
887 -0.025116095979974915 -0.003855697829261338 -0.003798878923087041
886 0.000666274209355569 0.0036805971158254368 0.004778656796759804
883 -0.0052577441969287 0.00548023128190515 0.003452831834124708
888 -0.0012677733327946812 -0.014558753214550588 -0.007935883312477366
459 -0.016750396981146234 -0.007737131799741842 -0.019445253586607144
891 -0.009125027275611167 -0.03579798986981209 0.005815210722084294
842 -0.006395802737090315 0.00888305754274627 -0.0011092305358543352
850 0.004465472507658491 0.004424814818366997 -0.021247417276125242
846 0.0024141677268076384 -0.002647120639278209 -0.0003126769107474034
2232 0.002348405900828918 -0.000613444894316849 0.009313296017509128
2322 -0.019497704732345696 -0.017425810485349708 0.007179603397372594
2509 -0.036566914712646094 -0.000468834168024088 -0.003776541339612432
2247 0.0034443179247583395 -0.015110071296897254 0.007247618058217725
980 -0.011753108369520463 -0.004298420906943195 0.022196510322000488
979 -0.006831075604604245 0.017037791752322208 0.0049199875602369
986 -0.01855086660867116 0.0008097866609212141 0.01397384997605367
976 0.007027474188980045 -0.014997938696984346 0.0005781832280027741
975 0.002780011456685739 0.008678756933997445 0.005066825229843848
1169 -0.008484077690028567 0.022264293961875698 0.014581087621530712
972 -0.00022555798667257387 0.006558628806389202 0.002545545502129174
981 -0.0013564238790651768 -0.002477340956464817 -0.005397747474409775
978 0.005516378644906512 0.002754933675038053 0.0005932028137531377
1165 -0.010130240784159476 -0.004147222257381826 0.007955947978207435
985 -0.0023376464043318927 0.021224687111117104 0.0015845791444335578
982 0.019243254079260676 0.026544086786786023 0.01097500010012491
983 -0.010866093753276473 -0.02494324512434473 0.004421896456711449
984 0.005879086019195654 -0.002790332062187675 0.006359987620741692
989 0.000313904769697547 -0.015946687886300347 -0.003026662490992831
282 0.0020772821219550096 -0.0005988043943741337 0.006711836604844758
286 0.011232563702550128 0.02712274516848242 0.006569337027574843
285 -0.006193934627181877 0.003969801258636197 -0.0006574501999361523
988 0.002244899432785219 0.006591998619758988 0.02288595588346663
288 0.0032909122711078415 0.0015395442127343478 0.0018130004810372954
2868 0.019620476955007425 0.011787917818294722 0.02080202359192439
287 -0.000362480507021917 -0.014432114317911198 0.00932798248598472
293 -0.001460131321570584 -0.036496544613320074 0.0038339044310234578
2866 -0.005517794842033554 0.002805081045994844 -0.0064330297099062725
2867 -0.005953257192675263 -0.0004015664488487705 -0.007093894382490687
292 -0.007795969975232914 0.014395195951490794 -0.004387379677874821
1162 0.0018933418473046925 0.006034954149852376 0.004706473904085941
1173 0.005250103158068072 0.019340457221891354 0.004445935410420976
1168 -0.006246311361004377 -0.0013922180001302595 -0.000457603364558269
1175 0.002695375774683771 -0.0011726697478058783 0.002233837734034528
1171 0.0007272497497581875 -0.0015159618471186807 0.0012849510912150556
1176 0.0053543544914768735 -0.027516918423953242 -0.013650341021730537
987 -0.017169050362184923 -0.02757859153961374 0.03032290846368253
299 -0.0021516336781547112 -0.012200934672675261 0.005289533595227966
294 0.0014629419600246955 -0.008025539523279333 0.000904030601863685
2303 -0.021691416160626538 -0.02104280132633785 -0.004898580442780974
297 -0.005597257479316772 0.024918608117673966 -0.0032779359257866193
1172 -0.007659452226438054 0.017482447860371574 0.009095961422123934
1170 -0.0072880148412896 -0.013229654442188668 0.0028836938151938756
1167 0.002931979700431812 -0.0047221553802130455 2.0701102480318357e-05
1163 0.010263791565629706 -0.029657257000693778 0.0028925954473841466
1161 0.006137907964118735 0.01255903510984857 0.0021769907160889795
2809 -0.01822117517823586 -0.004441863843636857 -0.013893213618395135
2810 0.002320962502746272 0.0027068679878397253 0.0024695407646570956
2811 -0.008219954267540368 0.004660354309542978 0.01576204572933831
1159 0.003261045178949313 0.004130082942766361 0.0065947805857991225
1166 -0.0005814602339087854 -0.0030485793126841802 0.002095255571340691
43 -0.02110570724335653 0.0230338990076058 -0.031404545636176076
38 -0.003135843647360352 -0.0030583925619434597 -0.0005883019225765092
46 0.015717700086867296 -0.0076337054202109894 -0.022521880331519306
630 0.00851251213436104 -0.004384645235697671 -0.0015534198530592087
41 0.007666693149053494 -0.00045467963124726414 0.007044501851781955
641 0.00507744908009224 -0.004479461767316069 0.024214082967621557
291 -0.0008207056771175546 -0.000960235273061079 0.0031839960253400735
2302 0.006185708027888698 0.0023311749962463203 -0.012117974258759419
290 0.00173225151529801 -0.014424475631045292 -0.012619227200466907
2304 -0.0009937034494035208 0.0214723089414945 -0.006516644296595278
2857 0.009663882740641946 -0.004151879435183928 -0.014824883759723136
296 -0.0068052373002977645 -0.021705852166031717 0.012892621276704366
2858 0.004082730180285335 -0.003058570155707902 -0.0003832596852335125
2859 -8.710979912445836e-05 -0.01215317801526724 -0.005652353606574964
2788 0.007064479401587048 -0.008900277417606448 0.005159217264658407
434 -0.0016409787890182134 -0.012945164385917144 -0.028323210277878662
2790 -0.016766131906708857 0.008300354331028364 0.008905311598636757
2789 -0.004638711980017714 0.003714673176584533 0.007088061579871951
432 0.0006059496114627231 0.005821088172002661 -0.0016352746134386269
435 0.0025748876455104833 0.032709734647631605 -0.00944605185262033
429 0.009192076035970777 1.2493771538099507e-05 -0.008269462423314795
437 0.020268187917010946 -0.007136322767989046 0.010152442992786113
436 -0.008179862430385619 0.00015695217299141554 -0.02378598784747683
638 -0.0018310139034205264 -0.0045555388998387005 -0.004283849420152202
633 -0.003112425749505806 -0.0007045047278626641 0.0007241341710076889
2527 -0.006322406162803444 -0.001779733873903433 -0.0016407808140669776
636 -0.001818588168236882 -0.001584417504783221 -0.0005111694284335223
2301 -0.010326544582448192 -0.02070490129114956 0.00409382531967534
39 0.0025783119878941404 -0.005959857183181975 -0.017637938867479677
1805 -0.00391930114086822 -0.005906771670099506 0.003022800911055352
632 0.005151680125644032 0.0012427567906787556 -0.0028648496251346706
431 0.007279484001593174 -0.007800833116535003 0.006416032046591921
35 -0.0009275994704404461 -0.002960744619374981 0.006665046645539656
40 -0.007151563881808209 0.006860814328107843 -0.0035045039530081676
298 -0.00045733517414468024 -0.008263343135515298 -0.005615662878997324
2299 0.0020459100880922216 0.006970079036614291 -0.003846181890623539
2297 -0.007746091371139756 -0.00908478037844259 0.020235327087737648
2296 -0.0006589415110327248 -0.002119818518656155 -0.0034173405098412626
2294 0.001943552814030374 0.002099022396386576 0.029272449189672773
2293 -0.001489989717126704 -0.00041032319959086205 0.015705384647333974
2300 -0.011303615871441202 0.008021264611231297 -0.0010598848810965825
289 -0.02484945723968107 0.0003932426005517866 -0.008407953237881348
640 -0.008103058022188477 -0.006833790157834917 -0.02127563038698996
1807 -0.002416642751153149 0.0006051741352198071 -0.004075191617313352
428 0.0003737917181078992 -0.024856368783085465 0.015955467840279746
453 0.007125975626623026 0.0113364955861178 0.004631217542439626
339 0.008662906094071842 -0.015959348720319913 0.002742175450779404
28 0.0023210636805087175 -0.020968497078777935 -0.006407804188578746
2359 0.025936471520670128 -0.014068736429169525 -0.009574714195741246
338 -0.00018713978710973127 -0.009390126077853719 0.0006899688182891262
334 0.005771025479233527 -0.0017687409852936982 0.005719150309792959
335 0.00277766755888777 0.011332273098136432 0.010731165014939629
331 -0.009363533551643335 -0.00040803296044320523 0.0018955716318144777
333 -0.01308508754641595 0.025710502877153533 0.027733283821044924
328 0.004331307998492616 0.0013548097239836627 -0.0014772525795036706
332 -0.001249213836981503 0.014144635173674093 0.0043853117764964585
324 0.0029868935498307443 -0.0031341911259236232 -0.008520383091887452
30 -0.003307123788639369 -0.006216690883611867 -0.0011303635944752515
26 -0.00951736837870021 -0.00046234294863058996 -0.003072085121277653
25 -0.005792330115552785 0.0014449877352463252 0.006538796093808419
330 -0.012961735818793722 0.014537033694501414 -0.024445911882946637
329 0.04058541790353176 0.03721132373523223 0.010155834119745473
327 -0.005547511934737682 0.0007205000095654347 -0.010544796819626182
336 -0.00836775278752317 -0.000621394546154292 -0.021725508187239867
2543 -0.0037207787549462428 -0.003983418250020775 5.3953093728515275e-05
29 0.0012884787916078793 0.000708463220738846 -0.0013659896404426186
2842 0.0021324863817846124 0.0038470291530410044 -0.0031649640525519425
34 -0.0007699261176694395 -0.008333000146617852 0.012144679991024454
24 0.0020527067028864392 -0.003552688623376588 -0.0008013931382160109
2544 0.00732585623227976 0.0031202404667568517 0.009062187707614845
2327 0.0003014527603463563 -0.008654964783507055 -0.00035961302026771286
2360 -0.007853561355425129 -0.002337950355351852 0.0031769333721307362
2567 0.006720764666998187 0.003295487291670523 0.0033812828310198616
2566 0.002073502403523193 -0.016860088251310985 0.0006978290322982204
323 -0.008169996454293149 0.0035562826253602597 -0.006465518681314905
2568 0.0031465831732544964 0.004629068322013038 -0.0010691796083424677
2542 -0.01171992250790276 0.005313696850558341 0.010169861796801386
326 0.0018321522917700299 0.0214318937029955 0.007422836624344627
1558 -0.0002011888725548079 -0.0004797318547462683 0.006482678681481882
1555 -0.004461640966883929 -0.0057566813504581725 0.0025075415985300626
1557 -0.0005262893915042811 0.0016054641283998045 0.007462220741189432
325 0.004446307223373225 -0.011426352651744461 0.005128715792014173
2310 0.01567294418334308 0.019544026490030033 -0.022049251714145915
901 0.012323481294076986 -0.01000726595257806 -0.01065150304901754
900 -0.006720520358028857 0.018417881448645455 -0.009111822904424952
2309 -0.002617489635701199 0.0025595358754747248 -0.003943616855454181
2308 -0.0036030583536075527 -0.006743647509813817 0.0005513666093468056
1561 0.006561314761351452 -0.005343383126455042 0.0041220816140251845
2326 0.026327316728638608 0.018533773938806633 -0.014899822577623392
2843 0.0010827633358500978 0.0023884921782721465 -0.004505905469767321
2346 0.00964638576595361 -0.011745040813011993 -0.009858032593272786
27 0.01633470012686727 -0.014529261144642848 0.009548637357596439
2361 -0.007915683493690142 0.015767982366735864 0.018170422688330076
884 0.0022201542815969383 -0.000352893026533646 -0.0037796692771645485
880 -0.002293034453833967 0.009268052737493615 0.0024416890984709735
885 -0.015143949632186637 -0.028342635705525546 0.000670911592687551
458 0.0076859283472954214 -0.002460639810101975 0.004676980543076023
460 0.008392672244622834 -0.0009673349803327052 -0.016134849889433943
455 0.0004623934090547635 0.004194044890345527 -0.005707725444918897
881 -0.004986529346532295 0.019268295652393633 0.013481160366292832
876 0.006507604015300522 0.0030672606693633044 0.004392837913269612
875 -0.011402648261323641 0.0053556526940616465 -0.005760922862216463
879 -0.00635055652828437 0.009061123392368628 -0.009582546564113125
877 -0.0005862795170849624 -0.03287022508995085 -0.015166075659345527
878 -0.004595507833263332 -0.004026113418889892 0.0025721382138352545
882 -0.004429351843565469 -0.0009875569781868832 -0.008443644535734847
2694 0.0016244999825212058 0.005008595190499314 0.012039338697354674
1408 -0.002144181861860782 0.0018183747793226784 -0.0020850856667113914
2328 -0.006923600678770082 0.0015138772586077555 -0.0050023494836612505
2860 -0.0018885369075521546 -0.017712718162055375 -0.00954345706961082
1413 0.002570840494060676 0.008313849542066556 0.006790896432806105
2615 -0.004943524354323127 0.003603132327427285 -0.003106210459672676
1414 0.010904486881978741 -0.0007157388909596574 0.015018371846677023
1405 0.005417537542188963 -0.0045488215512980495 0.005145897505864089
1407 0.0025834088883068427 -0.0023490963252232122 0.003304814111260287
1406 -0.00014023086419673103 0.0033292820443099297 0.0024404665658971174
1409 -0.004645079198526358 0.0014592949811524434 0.0035929001846363214
2512 0.0014156155896635147 0.021726423785638816 -0.008786590686614063
2614 -0.006106040933208614 -0.0010451931944694508 -0.0053907707808832465
1410 0.0047012046235975725 -0.0007769093686728555 -0.010887810363609822
1411 0.004596143540697289 0.009598064745810845 0.01330145367457111
2616 -0.0006983822817685152 0.005326323983474198 -0.010639625858777124
2513 0.003385513562177465 -0.0021864184097976393 -0.0018440726697565107
2692 -0.0030757824757417437 -0.003998458162577064 0.006439154573664405
2693 0.000837281745104522 -0.006055854550329723 0.0021474766518327325
2862 0.002394289224661843 0.008014212185354466 -0.0184763714237551
2540 0.002094882758793535 0.0007949198614164628 -0.004748406551736217
2861 0.0005079468645880398 -0.00546943153310689 0.0033537141454084746
2197 0.0035809491368550155 0.00018735867271850445 -0.002430090232257254
2201 0.019868622863705644 0.003637094555872239 0.0034339557922669936
800 -0.005849172409770922 -0.004653120781154456 0.002503771155101456
805 -0.010524207442635389 0.023521168986857452 -0.004080526493266508
8 -0.012759290022265975 0.02018066993825834 0.007330308769832666
2 -0.0029136540290381156 -0.0004730399487728534 0.0012500314169588097
6 0.008658079130665396 -0.00556604485645596 0.003619051403334925
11 -0.007933066523423647 -0.012071766590220348 -0.004292079608188436
1 0.001440334856259846 0.007635370260862133 0.004175930440945208
3 -0.006325195486299414 0.005110901538134759 0.01997185771694117
4 0.01173974012813112 0.0009133023207876733 -0.008380363696492872
10 0.007896521529462288 -0.004684515129616885 0.004155290195803701
804 -0.012594405861777382 -0.001470549425821746 0.023523898087110928
2514 -0.004931609097687416 -0.001544686804576353 -0.015609168428013102
1416 0.019060934942199695 0.01366007328855235 0.0024867490193744702
797 -0.0016959977741541467 -0.011036376390198365 0.001481123623305151
1179 -0.017176699299467694 -0.014311289760102963 -0.0059842136769372375
1353 0.009892380139378666 -0.008812224379211213 0.008040921030155872
1174 0.0038095032211650803 -0.004239804191820263 0.0027293773242343914
1177 -0.00813234313438669 0.01825763345475127 0.020581318571249348
1178 -0.002737362158031025 -0.0257510385736885 -0.007580489015061267
1354 -7.842908233540336e-05 -0.0032675644566666075 0.009815009486545586
1349 -0.0015153548568237502 0.011690064358445922 4.9974182594603506e-05
1352 0.003543711190333863 0.0025095825178671092 -0.012452175012061691
1127 0.0031532710067577697 0.009652512270254713 0.014558632766345473
1118 0.005018341326153103 -0.0017129351473811481 0.00450994726303457
1122 0.006904095071112505 -0.00011699247780904889 -0.012879823302183308
567 -0.00140060361098602 0.0009156115922756537 0.005040957926044941
1123 -0.013280665751012876 -0.010554488335010156 0.005855463996143004
572 0.0038385011598290808 0.0032359734720855187 -0.010858936802041487
575 0.010540363631057141 0.007004057538906554 -0.0023256472034665168
570 0.0071847118034628525 0.00497479653881471 0.00030238276921394007
573 0.02023113285812616 0.015269100008345214 0.010280057002573364
1351 -0.008428263271327724 -0.0016143794364148023 0.013910622518678382
17 0.002494124736849609 0.006718256737908652 -0.02664197494147922
1345 0.0026293664750710894 -0.025295290219605623 -0.009252015897933456
1124 0.003215603331742849 0.00013197714967011005 0.0033150333227490716
1121 0.007047665891576056 -0.0004521983601519527 0.0035234946151996593
1126 0.013585232327467252 -0.014280026187210837 -0.006353737169550135
1346 0.0032313177369209817 0.0046885241402798905 0.0023974512338266964
1350 0.00631253649993942 0.03432557122140907 0.019511675084761784
1129 0.011682794058991317 -0.002119680971664531 0.001021575573622857
1128 -0.0023018263676555383 -0.007382775012007708 0.021951338225458028
1125 0.004825410036808643 0.008872505503500121 -0.028508857411526374
1035 0.00041402021448490485 -0.012998515639591382 -0.016543138580859852
1925 -0.016100220974232853 0.026331518377005095 -0.008413731849053335
1922 -0.0053184429468003756 -0.02258637753646061 -0.02005160769628963
1918 0.0013667548673342404 0.0054056772273308245 0.00032210243783486434
1108 -0.0002873586045274269 0.007660484506640865 0.0018256069182427369
2283 -0.0032552012085782546 -0.0023999502636646904 0.0006224598590558988
571 0.0020500071668806087 -0.010754752636036863 0.008768144568273002
1115 -0.0012627589688490655 -0.0030766488898474787 0.006988398754027262
1120 -0.007503846775169841 -0.01859934055447468 0.0014230439443061371
1116 0.007531495483892769 -0.006256581497093379 -0.006083507959356347
2295 -0.01998181989935922 -0.004894279906375802 -0.0020300327081887097
2290 -0.0040302881583861305 -0.002959750524527119 -0.003724680281500919
1112 0.002076489928194017 -0.003900366714205127 0.004946878074743853
1106 -0.004816161261435646 0.0022736574261605614 -0.0023066182880139684
33 0.007115360386333241 -0.0015844470426746506 -0.009318873287029013
2298 0.01018514201578141 0.01148032908828311 0.014214588340444579
1109 0.0028324912703283187 0.0001963791780643724 0.0034324929981190484
1114 -0.0024549370058751627 -0.01925777814555868 0.005044767084964521
2291 -0.008060548926973669 0.0010286738769845955 2.243894918041175e-05
2287 -0.0030484596448272843 0.0038068823453818075 -0.006281288606698494
2288 -0.007608447208549196 -0.012966003939003419 -0.018048075465201638
2292 0.008369477165443895 -0.024278114624396118 -0.01734013823885742
2289 0.014730584556763012 0.01780481161005147 -0.00010218891549911152
2284 0.00047909448584474687 0.0006059300008565447 -0.0032745542745027585
2281 -0.0028683168982275497 0.0004293583630289546 0.00018171750853141212
2286 0.02509169978264646 -0.002376444553534172 0.010533716225847065
2280 0.002682379936612508 -0.007523876078487483 0.00620273983223127
2285 0.01620657971551699 0.0133110940848036 -0.013049046454316385
1110 0.03107811194285299 0.007759738939264645 0.0031343892077628933
1113 -0.012110547412256164 -0.0007026322017561618 -0.0013190614095937138
1117 0.006792790213235894 -0.021620254376397603 -0.001027242712757343
1107 0.0033219099495501434 0.007508375325816405 0.002448817855792568
1105 0.0033822900491830335 0.0013315594218137365 0.0048614161066118594
902 -0.0014386566546239564 0.009022541133768465 -0.007534364383609888
2282 0.0059539829446373 -5.6819389864685605e-05 0.0052366113675917664
1119 0.0074331431435382 -0.0058516275770809185 0.007452112994624522
1032 -0.016431245521442855 0.02175106904878348 0.011627676206088323
1028 0.00900838189554668 0.007806685319062279 0.0046838830566534855
1024 -0.007946508449584415 0.0029003738527352708 -0.004036936850346884
1027 0.002717164764208487 0.0017670311882241419 -0.0007058965648032212
1029 -0.015527281727084547 0.00812703848480938 -0.0007001331057138628
1017 0.0019356548057927736 -0.018788682574288573 -0.0008498788759896171
1018 -0.00210471717107717 0.0028938725148133886 -0.0019822181012789175
1022 -0.027092338960682638 -0.007448790441383744 -0.03929760028428074
1013 -0.0007007781551687006 -0.0028842188550251367 -0.0017839555937267466
1021 -0.002430634406181834 -0.005730602616417018 -0.0022995685517235094
1026 -0.016166199504833976 -0.01949744792723741 0.008406659422878663
1020 -0.018809723596678367 -0.016502844985435066 0.004610307536172658
1014 -0.006309735881480395 -0.0037668774933342975 0.0011098289218136024
1015 0.020976768504544826 -0.005759998632820953 -0.0072038875871971424
565 0.013308682829290428 0.011074959532223155 0.0037788693013934157
1016 0.018941661607720903 -0.003327084400619059 -0.008468917574933166
1023 0.011343627331179646 0.009126353927524021 -0.00785169686012432
2590 0.029698609433852965 -0.012082835843421583 0.021934589184656617
2619 0.011648400847452906 -0.02048753176167148 0.007073622349567461
2635 0.0020308661236209864 -0.013651853387138946 0.007823020685714699
898 -0.003920455608690342 0.002648958569400207 0.0010237309793820499
2636 0.0014166615739468996 -0.0003607260962924532 0.006884427851815845
1560 -0.007273849216639717 0.005887529810590487 -0.0025438989518489327
1556 0.010473709424725149 -0.002446058725379092 -0.0034438980344789123
1566 0.002424200703228507 0.0052751389051610776 0.008787232649019233
1559 0.006162376502020248 0.0016856289790222138 0.0037759278348648397
1564 0.002599939235336777 -0.013898352021656452 0.005649350149134521
899 0.0004674681948588586 -0.006790100618296258 0.0014435514746745672
907 -0.003412591325486977 0.012958979736477994 0.004001083932246179
903 -0.006407203757897066 -0.002570353178904671 0.003400984767533096
905 0.010929935785929677 0.008182962665658412 0.008141345502329405
1562 0.0033541697317661006 -0.006131690329616573 -0.0007448459143501335
1567 -0.01642389129074831 -0.0018556091614313184 -0.001170873922148855
1563 0.006980770860575445 0.017012333855408967 0.015003380756464983
2539 -0.009234793447107467 -0.0158645258308224 -0.0071804370113696045
2198 0.012509995304873097 0.022248699707049575 0.02017274059507215
2192 -0.005284693183330982 0.011022652571462637 -0.0014651562438139107
688 0.0012919539854377624 0.0036321533497298514 -0.001741542103877148
1573 -0.014490418643308451 0.0005081961595271006 -0.010554319291132111
1578 -0.011024350605135808 0.021503789204977555 -0.0078048763172421706
1572 0.00844337052077405 0.004103161100077718 -0.033363494202457156
1568 0.00585454825697191 0.004556585729714078 -0.002894761990806683
1565 -0.006769194363443124 0.006883533420291584 0.0015255929863364878
1575 -0.003604613705173061 0.007396878929531295 -0.0009121391615871777
1569 -0.005173056369495199 0.006745698022963796 0.007789685358330439
906 -0.0042266645626309095 0.0021647765810190772 0.0022977727552972753
911 -0.008165513502060016 0.013989581902158287 0.009327712594117353
1570 0.0189445291531043 0.01874764812097991 0.006883568470753138
917 -0.017836267880608873 -0.027463275727624293 0.00816743817301424
1571 0.0022657182559710004 -0.005698776795530584 -0.001109877468893028
913 0.0016438208080035608 0.007257628641809179 -0.00832459702813182
909 0.0015352490587356269 0.006505012533165565 -0.00806831456473609
1574 -0.0006527140905684795 0.00015690409252656416 -0.004610598318249962
912 -0.0034318026546657932 -0.007560024100021395 0.0075054405161043515
920 -0.004008502510448245 0.019121684732473894 -0.010448454200852934
1577 -0.01400760918960077 -0.005597134019815782 0.006182013321483042
689 -0.006998345739792183 -0.00831130704212478 -0.01935808066138885
915 0.004230213359910596 0.006253460168290226 -0.003928793567471752
2618 5.393076357277679e-05 -0.007613759896793157 -0.0024113349073767165
918 0.004345763411824092 0.004593897276734564 0.019151911170396094
1576 -0.002878570610461423 0.0006481806245408858 0.010880086379363359
2177 0.018851840323989632 0.007739849470012067 0.0024814159451277064
685 -0.0003734992014891105 0.003198330190290514 -0.0006945413028116784
690 -0.0336160805397446 0.013753628526542109 -0.0004053855280919527
2178 -0.013104266815919596 0.019787835347606697 -0.0059077092523554765
686 -0.018961478861163908 -0.014065867484117155 0.0039001378859845354
2637 0.004780585908528385 -0.013898944016342065 0.0009295909709043904
2617 0.00789687754592096 -0.011142201129097072 0.021057563335740867
2200 0.018306455399694287 -0.008900981811397382 0.021644507006082458
2196 0.0017293495979300634 -0.0059450342897330415 -0.007629873135436361
2541 -0.0033933241886920772 0.007814189697445484 -0.004290617669344128
2193 -0.0073137476929019665 0.0034052430018733275 0.00033701338652174397
2194 0.002763585441495324 0.0075486831334471965 -0.02061581139891027
2199 0.0028952263438833813 -0.005631890174718578 -0.003683873057343596
2204 0.010812320044612859 0.00041158690284657395 -0.012377004314441602
2203 -0.001691908471164587 -0.009608802579988012 -0.007872743591722527
2202 0.007452646765655867 -0.0042508624757149165 -0.0009339173147067142
2190 -0.0036619602022263074 -0.0005552754664107451 0.007545760372638058
2195 -0.012206984511075509 0.00470098068912368 -0.025772230847938893
2187 -0.006474957756061179 -0.002276166682230926 0.0008844712051969746
1804 -0.013000905938919042 0.007849578090555684 -0.00814859334481369
7 -0.01440943906779801 -0.00345520134222592 0.0020828258305610825
14 0.014484062227577796 0.002408876445911697 -0.026105354591680067
801 0.007138331405186444 -0.017428226654029075 0.001754418812554303
2174 0.0022990096702512753 -0.0056236849094033455 -0.001045667181449907
682 -0.0077851927326089915 -0.012933100037981293 -0.0003911490255836338
2179 0.0007975593307159069 -0.006695097055103293 -0.001671529002997852
2171 0.0022060184103737234 0.005801791876442672 0.003244812680264148
2175 0.004143653782262231 0.009010793699442248 -0.0025768352039728013
2173 0.018397123095320128 0.00040621419263888624 0.0041045393760845185
2168 -8.529652761413832e-05 0.0008559445953189288 0.011583224932067104
680 -0.012926040442231378 -0.011211089540538956 -0.009498235553774066
2169 -0.010425054959870042 -0.005073088493115212 -0.01901807676089846
676 0.0038478578899018407 -0.0008757089146477101 -0.009255691086149804
2165 0.006728626557521325 0.003949220458270555 -0.004964267412472277
2172 -0.011201148884794426 -0.005969604924114334 -0.019698695211728248
2176 0.004383026573486435 0.01578568869492464 0.006577652244995266
679 0.0013764798545460846 -0.0012892070479327623 -0.0030613540237489985
673 -0.00169070920707107 0.008791253346195241 0.003094889972894841
684 -0.012506378562842218 0.00376192648296968 -0.004356274461117318
678 -0.01882815328599398 0.002426134322653939 -0.003589087564879174
677 -0.008579366447590246 0.008490493059233353 -0.024111717841060754
1799 0.004487060911039919 0.002479041945510005 0.0006611321652129472
1802 -0.0020704166620893532 -0.031204551642819447 0.006225170930256793
1803 0.015013974439194925 0.006610135701218646 0.008671073647753474
1977 0.0012763162826921746 0.03385347129623027 0.03278020055579422
1971 0.0038860232153790923 -0.0013944747213947822 -0.004504941206082751
1975 0.02753676459698781 -0.032915040768689306 -0.009455919659661695
1976 0.02168969093998973 0.0025491035343581494 0.014459290537914136
1974 0.00038834739006017333 -0.005862920532907988 0.0015656829532959635
1979 -0.006444208259035733 0.008389750814012218 -0.0006902931881802156
1978 0.003977289192507456 0.00497265576430323 -0.029706446531043987
670 0.0067793284058858755 -0.005222106454738912 0.0046170034488214945
798 -0.005430498417185488 0.008359627080553461 0.00058186802530462
1800 0.03861295449013036 -0.01664055122114673 -0.0017041675348675532
683 -0.011713583670683125 -0.013963272100769242 -0.009160362486370059
1796 0.00781803965130926 -0.005468762295151069 -0.00155893407176607
2191 0.002899869662453084 0.007432623905950606 -0.029810079491422264
756 0.031825000848225905 0.018596698099063058 -0.004337224018741811
755 -0.006336261320257892 0.005718783211983633 -0.014720271790307169
9 -0.0036011948564507322 -0.0023220790645547143 0.006849117527757099
13 -0.007489581892605163 0.003659677899635431 0.008476685457611577
20 -0.003973080238373728 -0.006560473251977305 -0.0008698708027961086
16 0.005127918402536097 0.01706727145113248 0.002578023421490964
12 -0.0005816307093952711 0.004055168279299852 0.0011889598505490893
22 -0.021285166094690104 -0.010882599737366076 -0.003399314820061041
21 0.011836372942184474 -0.0042814803011986475 -0.006050936654084516
15 0.004124804718850347 0.004428349667108313 -0.00027904179204004184
18 -0.0003922907220617138 0.005274028982251762 0.002813271091811572
1926 -0.002200065150382269 -0.0036794143304427515 -0.009959899008258128
19 -0.0004189636500309688 -0.0142346434024693 0.0024741234578277726
1030 0.0009031926328288349 -0.0041878491868350964 0.007138257443630219
23 -0.006156180775059261 0.019435239881689312 -0.003401610572258964
1921 0.0021754212553427364 0.010508401767242586 -0.0030975382998466956
1033 0.018003199291028164 0.007794413786113573 0.0018343670563345832
1929 0.0009352168625446283 -0.004589781432648185 -0.02101455406195224
1927 0.035610531583834155 0.004476182476475879 0.02325431048590397
1924 -0.007290647327172102 0.0023527115939239655 -0.005257867200489279
1034 -0.012278293041729418 0.032363855140319114 0.01601448767526177
1928 0.011163355360271212 0.008399108747091903 0.011069115194224167
1967 0.00302697970344529 0.0020121004525016683 -0.008241388027706157
1973 -0.025490493896705275 -0.007231768915454176 -0.008120429316116184
1968 0.0039138680596143465 -0.0018346877804756366 -0.0012356513674069293
1972 -0.004932234523662963 -0.03323161108722231 0.0036614718733029746
780 -0.002820600977345594 0.0015813614788408449 -0.004736740527973016
1395 -0.0003464250189201829 -0.010105943054857871 0.004450805369029532
774 0.001366495379148934 -0.0029628949909206097 0.0006414118936665075
779 -0.006852949792349898 0.0006184515480587693 0.013085067737466321
1401 0.0008414725086389305 -0.0010259648369781971 0.0013591070744126282
778 -0.00019123565664631804 -0.014572183735345249 0.00963509744665349
1400 0.004947758135966515 0.010345439147954256 -0.008977209707282672
1396 -0.003598781170935102 9.137249403130192e-05 0.008350202622524007
1399 0.0019942692472522646 0.002564403632153214 0.0004526861288988431
753 0.007087087461188019 -0.013694256125778388 0.0026360693384463777
1391 -0.004229659355388711 0.029592405917901167 0.02415878310448162
1390 0.0012667945912950185 0.0021568254455494786 -0.005564673066286865
1387 -0.0015589047950734878 -0.0035188196848008457 0.005003131344040476
1393 0.0006574147094442335 -0.0030634195536117736 -0.0036722537634164966
1397 0.015602080104142697 -0.012383530163504896 0.018863548359693335
1398 -0.006154122800661892 -0.007223577740632033 -0.002544724955651027
1392 -0.005502296546238574 0.013759867869944143 -0.012160624372145715
747 -0.007499140183028825 0.0035774648548010718 0.0013273817000493944
1403 -0.0386999346559721 -0.007011880898801211 0.006292894858350267
1402 0.005563158514909772 0.00722005559943746 -0.005759885975045763
748 0.009933175483351485 -0.0028413122250617556 0.002589301398903632
752 0.013153301716302081 0.0014383888230255068 -0.012536388141240367
751 -0.001425387641461627 0.005741091831707816 -0.008445313580594076
1031 -0.00037494221950616467 0.0026466324910173374 -0.014270737726533353
1025 -0.006273368857673522 -0.0024374795344148828 0.0146167874731169
1019 0.013370255936452616 0.0012992894413989204 0.0300764860434744
2715 -1.3465211334532103e-05 -0.00426139009120876 0.004570601304959042
2714 -0.0029709916338191704 -0.0024033966247245008 -0.0013389751856889354
1908 0.007469044956159128 0.0005744225414302789 0.0017695920969308355
904 0.002260739246738227 -0.007612968751830344 0.006937225777984279
2713 0.007100349896411377 0.001905735408780047 -0.00885859804002335
2612 -0.001746719268012376 -0.001253566470891031 -0.006568222684791373
2611 -0.007061691456818609 0.01501833474684264 0.021958574436838112
2569 -0.005177552829504811 -0.01096896589399383 -0.004196055905266961
2571 -0.009299719035456558 -0.019866008672612234 -0.017244439751475802
2570 -0.0033073380282341025 0.006724606678238043 -0.006029615921352911
2613 -0.0007756826888151064 -0.0031613861863311237 -0.005045135167223262
1404 -0.008918504967641546 0.009663796844572713 0.01357938335885428
1394 -0.0005415921854626166 0.005324787806094269 -0.006649911018661975
2374 -0.00672407995250414 -0.006156908010095575 -0.013640466374493152
2731 -0.03168124195197889 0.02834770922498035 -0.013711485401487285
2376 -0.027993227139370924 0.001343958268427192 0.0028769048835486513
2375 0.0020010308364613156 0.0019233140269338791 -0.005198040605386758
1042 0.01570190012307175 -0.014419760076073613 -0.0006856989333129147
1037 0.0019518142446443084 -0.002377932566621708 -0.0018053313741566634
1044 -0.001863102345718903 4.628196277422432e-05 -0.008893381072216999
1038 0.03170040607602793 0.01841290059606412 -0.018475089597386717
1036 -0.0030000360177506813 -0.004896329645644455 -0.0055055823562829235
1041 0.006983898841303139 -0.004220968031085629 0.0009980888368731895
1046 -0.005220137884993316 -0.008371880932186535 0.002220669557330738
1052 0.011720353757081473 0.0027891607581834446 -0.001989273704989038
1048 -0.0018613678701522934 0.004177269341763658 0.023648084255727078
1047 0.003918055661831329 -0.000346621110083437 0.0014177999855174304
1051 -0.004704502984697433 0.015939712102650543 0.015144314916873639
2572 -0.004712503067721053 -0.022753600906913314 -0.016841617933195573
2732 0.0025982891126688002 -0.0015393816751809535 -0.0003311423737228267
1045 -0.008195434566313251 0.020601667892589447 0.011522096267518248
1039 0.00600673727807276 -0.02740827948823467 -0.02541407373608208
1049 -0.027874194085751775 -0.002139119018288324 -0.011330473356971921
1040 -0.003321047683082319 -0.0022724307890970817 -0.016637235579130244
1043 0.00534618396292493 0.003053154617033526 -0.01275972928320002
1388 -0.0027211924979501957 -0.006656604797364723 -0.0017247214540008203
1905 0.004214175045424616 -0.006197762545747964 0.0006862606634438331
2733 0.004549618796619179 0.0016183229853741295 -0.01175060078108842
2672 -0.003016791049012692 -0.0009053899389568213 -0.0036061506562711215
1920 0.03427699479712656 -0.007004361454317218 -0.01015816079970625
2574 -0.0035594332477507195 0.0026717115384888774 0.0021631320396875756
2573 -0.0019612241211502254 0.0011144993986256524 0.007734823013710077
2312 0.00027641950344146546 0.004752583641604755 0.0030868203044199867
2535 0.008390540623066255 -0.004749648030817896 0.015975068811395262
624 0.0016739017368326027 0.013796197738467594 -0.006412148852377816
1579 0.0038848848749521037 -0.0009828365717180097 0.005630293664300052
1322 -0.015205321307713645 -0.0042953166839626135 0.003158872661737707
1316 0.0037848117445441727 0.010555811247509324 0.0001791377413364219
223 -0.020183440805610634 0.02793592024539831 0.0031079737768311367
219 -0.0008421881273444993 0.0030334044272369676 -0.007822431801599267
622 -0.00039990430286283146 0.0011494410330356206 -0.006351777135383698
2666 -2.1859871292027756e-05 -0.001518614544346578 0.0006800955847264045
1329 -0.006225123998727161 0.012641637923802617 -0.005187722975910931
1327 -0.004608741050554148 0.003129916111239835 -0.0004706110705020325
1324 -0.003310815260159398 -0.002009056477545522 -0.005135907126035953
1323 -0.005231177166150219 0.0043946755810472015 -0.0045673722518847085
1328 -0.0073435871539948615 -0.009384975479091546 -0.005606382390249072
1318 0.0028152763912885985 0.0003768449463013671 -0.0025665220573422637
1321 0.0005142013828903783 0.0049482608629227735 0.002115083021190981
1315 0.00178851675070708 -0.0071684900134746585 0.0038631238193582522
1325 -0.0023794437308578727 -0.006868555461311468 -0.017826821886927864
1326 -0.009133685811515848 0.002952158613103934 0.005235281938643693
2874 -0.012829385373456716 -0.004694961564205152 -0.007482213321268242
2667 -0.0065470394630212135 -0.0005436009957578422 0.0038177484176949465
1319 -0.01573194007361621 -0.007694137230907854 0.0016955022671446968
2665 0.014368510835674746 -0.007575887147932177 -0.015771497425003472
626 0.003855548145879885 0.0031734863090867858 0.0029403636899614813
2768 0.0035264940510205756 -0.005373724119249537 0.0024459850531076974
2767 -0.007520932572419386 -0.004987162901412856 0.003451283600681973
2873 -0.0034829266169839968 -0.004902920916609774 0.002496517238786061
1320 -0.007928506611834687 0.001484539708457392 0.0082973756817966
2759 0.002698893755637528 0.0005662715984865013 0.0006369380810027688
1312 -0.00024317404704668317 0.005674166918365744 0.009882067495013127
216 -0.00547600840425461 -0.00017411029192845065 0.003326539778913735
1317 -0.0013111456394290747 -0.0027652378507187735 0.0009972866235230411
2769 -0.0023901906131984737 0.016156703835292784 0.003499106193934541
215 -0.0038614993745978055 0.009175038298394379 -0.00969914275612574
2593 -0.015024881596694923 0.017762306803657275 0.013499856152917638
217 0.016825711950178547 -0.02168349179982187 0.004266695819692646
221 0.0028902103047352165 0.023246971791951267 -0.006004982231252549
2872 -0.008974034767363203 0.011650050237969195 0.025508751569614276
1945 0.00044373592694734707 0.008962166796854328 0.0007334722106964664
625 -0.003414531237572183 0.016276394264550985 -0.0036550720022966257
2311 -0.030637409012808856 -0.002305631923013615 0.014534883234183366
2170 -0.007226819478244278 0.011636299511199264 0.006866414442692136
2162 -0.002776043095455463 -0.006660452371758025 0.007665693914192859
2166 -0.005233332754845319 0.003727934488138793 -0.014123456987926584
2167 0.020660576368838522 -0.008746675886211476 0.0008444506187509406
2163 -0.009678894650887903 -0.003583159369412348 -0.000916223005059953
2159 -0.0065717076817311745 -0.0002050688591018218 -0.005669937712724562
2603 -0.008708254796204845 0.0015181898977103645 -0.0011237973702174426
214 0.009432135170764373 -0.012685191064978299 -0.012005328987153207
2758 -0.01261302584564555 -0.017371075565515294 0.013120705282357146
209 -0.0032717550953560767 0.005248058015021911 -0.00483644808034585
213 0.006214026009757166 -0.0015877047137731984 0.00871952249746562
2551 0.0017920302500869592 -0.004310220190777185 0.0063363322101098185
2233 -0.003042056938670118 -0.008176743001797418 -0.002472470622948828
2565 -0.024238468617890765 -0.0007943359705827537 -0.02797412511445044
2321 0.00011268703148395523 0.004787354777832544 -0.00033741942230983715
210 0.0003040603989863849 0.00025107534492054505 -0.005925242045828844
208 0.0006212310696375353 1.781857066953829e-05 0.004805153341695501
211 0.016012811885269318 -0.011135077165567329 0.0027891035802412255
2607 0.007700514046707242 -0.018319176315391303 -0.02096450140279482
212 -0.01587743598388279 -0.029233982671464293 -0.0052507429451723086
2552 -0.002373276263189982 -0.0013371645622467269 0.0020342360753350525
2553 -0.005199612122879755 -0.020344374801229023 -0.0122592401328378
2158 -9.285844876385981e-05 0.0037406606475447256 -0.0008113451427258923
2507 0.008698201863731133 -0.003549550220821081 -8.877399051654266e-05
2508 0.005622771991055695 0.0028521445091180056 -0.017948852143478432
2164 -0.015395910229763709 0.016158273557698707 0.0014523170299619308
218 0.004439394847634977 -0.004071670343188014 -0.013434351770147707
1313 0.001812175491119824 -0.010561234587379793 -0.003671238018958054
1309 0.006362200573887131 0.0013414832361301227 0.00531492684268937
2506 -0.011574153648043569 0.016900190926300317 0.00038133786855361633
973 -0.006161877784844062 -0.00042909009708603157 -0.005243321775040209
2320 -0.007995852791012757 0.0060927970218631455 -0.007879914615745704
2564 -0.0004833438930495323 0.001994549492106852 -0.004681262358171925
2563 0.03281986443072207 -0.0012464257317569359 -0.018160099981200117
2155 -0.005877991745208219 -0.0007424009319094986 -0.0065500552278547255
2160 -0.00593848051490999 -0.002262947408037407 0.000230964312928049
2157 0.0014872122024244287 0.001652280744192729 -0.010990183407323974
2156 -0.0002587781209044281 0.0013095805064864093 -0.0002701097164227121
2161 -0.0039006276267059404 0.017265603865246247 -0.0002451494679028797
2605 -0.002768551497164075 0.010208712208615774 -0.01393715426046428
2518 -0.015225074013896283 -0.005535487357961016 0.010549035749777436
2519 0.003913123194391201 0.0016481594005782762 -0.0033644929524960384
969 -0.00829891373695186 0.011687465391813137 -0.018901655483372613
2520 0.01800248304683173 0.026980924860725324 0.03903354346701242
2606 -0.0015978521933675436 0.006007327370174544 -0.0029846420202526455
2604 -0.025024089912109228 0.006275891379936363 0.03382038844709175
1314 0.01343247532782083 0.011395639902971395 -0.01816028561969064
2498 -0.002567339435989544 0.005566680441151037 -0.0029567706650212586
2497 -0.0016033659471226909 -0.0029688922830966103 -0.0027736455945236932
977 0.023221437395765616 0.020443112245329652 -0.011167798591278963
278 0.0013891039024906304 -0.002350231702591169 -0.009904882464694304
1969 -0.019361297020166836 0.0012032035525462099 0.0147955017449012
1962 -0.0009655706361370052 -0.0016656583013707868 -0.0066020622585680755
1965 -0.0017608994992258634 -0.0019341782387349907 0.0036645441111098995
1966 -0.010587274301606362 0.0018075396253134678 -0.0005249559767646895
1970 0.0030715410885336445 0.007959542060266698 -0.00530520285041726
1961 -0.01377473551705155 -0.009679880729704063 0.01142991281021135
2120 0.006528069772976836 0.0030174514807145805 -0.0007391548739930178
968 0.0017415521232582434 0.0021879869967667428 -0.0008494663890234739
967 -0.00814205071794704 0.005161800041959928 0.003393486326763559
1963 0.0019005090387177411 0.014663238843681025 0.0050546304734632565
1959 0.005656410342957757 0.007989244316198046 0.0011274513260833405
1964 0.015781124280340925 -0.0011705115067564803 0.011469182116067959
971 -0.02100723598780775 -0.0036596067435213753 0.001596226913588136
970 -0.007588364181386736 -0.011177919248324116 -0.0010498998228394942
1157 0.0010740335251969502 -0.008145977875374041 -0.0012807410696445388
2602 0.0020128487317859654 -0.02323036304526821 0.002746509557408675
2700 0.005225991764671768 -0.006867160270040923 0.0012599801472765405
2107 -0.004143808427430595 -0.010776722374320211 -0.0011201026627437583
2108 0.0034629909865553886 0.006191166960243827 -0.004604770749039352
2105 -0.0008919963574412858 -0.0007426742345585391 -0.0033491954914074726
1956 0.0025471891933905623 0.0027582274463559295 -0.0012871253448148057
1960 0.0005197927806466824 0.002266834582764059 -0.0236785986533762
2106 0.00508500948615881 0.0009466026409619389 0.000913121860425881
2111 -0.004601674490582996 -0.011337056824366568 -0.0023296001523609488
2626 -0.004357159027314167 -0.005856485516933517 -0.0029073950755638166
2627 0.00426130093820982 0.006465861063771441 -0.0015705828050723845
283 0.005873780790876192 0.020855324881620407 -0.015450627256561617
281 0.0065449205784189135 -0.020176777026111335 0.007066434378637999
279 0.0004784692794364629 -0.014858832410219376 0.0013036118239569024
2699 0.006812886589996834 -0.0058173233388633646 -0.0021383341960830365
2698 -0.0007823956822226641 -0.0025257209967212983 -0.006604405489849473
2119 0.02589207549637716 -0.026774522450073866 -0.003111179769603464
2110 -0.00925204757695801 0.005344506055342789 0.002385959055762665
2113 -0.011839654192205524 -0.021501959756169798 -0.007202061578674265
277 -0.003843367143967138 0.0012167940042764034 0.0038957031939133697
2109 -7.528700869537152e-05 -0.0007428281559279603 0.0029015455227394404
280 0.010691894906066866 0.011596052112609416 0.0023882613708333974
2112 0.0063388461611933004 0.0016491251907032325 -0.006483771772004145
2114 -0.00984888014369566 0.007821261834877965 -0.011774173202049126
2117 -0.007971524386379 -0.00356788751854253 0.014642606084773784
2116 0.011271712659493246 -0.017226678162144047 -0.01275412752199271
2115 -0.0003953651040351954 0.0020639971267575187 0.0011010691759200792
2628 0.006201715208971314 -0.008923473028818633 -0.004045752161902519
1091 -0.018896692334228717 -0.029131686452352864 -0.014517970710307722
2776 -0.010271514909180506 -0.022279068552492936 0.012127983156524377
2528 0.004710452118606103 -0.004568099077425336 0.0005094413905792097
627 -0.0007006875264290681 0.0014828800546913237 0.006571099954590416
2529 0.021331461782067112 0.02031692250229156 0.016167288190686278
1808 9.777820167372329e-05 -0.0024791304343547956 0.009980962823219903
2128 0.010759927118075288 -0.00561437824497982 0.008422170366951719
2534 -0.0014933492925056618 -0.003199883294978638 -0.0023439314208768087
2673 0.014223531433186961 0.016418011268867456 -0.0146658623111417
2333 -0.005207002485916667 -0.0074425651011205 -0.0012555342676342728
2332 0.008620413431891101 -0.025116003021990303 -0.01566545456632378
2777 -0.006960402629580915 0.006004744521255061 0.003736157731697479
284 -0.0029242999735488266 0.007419289711204118 0.008986287858954943
2334 -0.0006612884836131692 0.0004002892330949182 -0.0019143184714041522
2814 0.011375827570970774 0.0024748032540176847 0.0007652037479366875
631 0.006437904707085828 -0.0019619686890851888 -0.008572423705444318
637 0.01041557734943537 -0.004415846538561739 -0.005084998157196316
2813 -0.005860570147972085 0.00046183914934664895 -0.0047228503748343205
2533 0.005005755399785625 -0.0016911960694011813 -0.00911604351183479
1938 0.0003730499017579043 -0.0036511807651641317 -0.009345235571741752
1935 -0.011915755545118202 -0.0025047118709282967 0.010153679636782343
2812 0.013697435824338711 0.01297289492586487 0.003773173741598
1942 0.006973443587801915 -0.00046540239007270207 -0.01234254315186691
1936 -0.0026584609782909553 -0.0002655071268600831 0.015796345446771488
1932 0.006211768496337775 -0.003142928778797536 -0.0042940502001400935
1930 0.0016878764938637082 4.0151917731608395e-05 0.0019141206764190651
1939 0.008741496589947228 -0.0019750079125452763 -0.007369476591278044
1931 0.0014267976915479186 -0.00038330670636658727 -0.0070620039688710995
1934 0.006180181103289369 -0.0010628356431045794 -0.0019508276913895227
1937 -0.002494334644116439 0.0004925627880168983 -0.004930120714748652
1941 -0.005128218487482859 -0.006965761048880642 -0.008985180114325801
1940 -0.0030576258860262216 -0.003116303387551932 0.0030236728920554554
1944 -0.010984342582602008 -0.010417906314204011 -0.020890547175218353
1933 0.0027693253870130744 -0.004463527617100851 0.0021746653892614274
1948 -0.00439182912204041 -0.0014285595922846014 -0.012788874764164659
1943 -0.002259717236577253 0.0014822531990963395 -0.0016635549981249013
1947 0.004589917986439273 -0.004256543080825304 -0.028760975008823454
1811 -0.007764642999229786 -0.011398845203504458 0.019108225101079523
2778 0.0011179044388740982 0.001214962153323286 -0.0011853777070390055
1810 0.0024235606155808124 -0.012635424672232375 -0.009876935721148335
1806 0.0013573237097987806 0.0003338343682155388 -0.004236459180363239
2129 -0.003379203780425904 -0.007501554812118949 -0.00846937942842874
2124 -0.002243844742626534 0.0026551781706971667 0.009615105673437527
2126 -0.025890308562739398 0.017338932460941453 0.008714136641728846
2412 0.006395327904071227 0.006183773061467952 0.005976514379399888
895 -0.00024851701380033085 0.0038873529017364418 -0.02425865002419092
896 -0.019140658965862846 0.007548168163875474 0.019793296964596703
198 0.0050395349098452 -0.007761938623276137 -0.0007881340487416004
203 -0.01850143957114448 -0.0070288935333580075 -0.0009120883042001256
193 0.0027307771378449115 -0.0006553325223531309 0.001148417425175397
197 0.021231097264531786 0.009873883527366026 -0.0002828657306238534
201 -0.008440287580168824 0.009649566198632647 -0.003649567197653716
518 -0.0032345543858334352 -0.0019055297921629474 0.003960247890784214
522 0.012748320685675177 0.020011915198373975 0.02134469449421183
520 0.0011533963330666868 -0.0014850491723087085 0.006499000238965964
515 0.0027652708039296097 -0.0017527579230116783 0.0027292277709969094
521 0.0038256527290638177 0.002126268783467413 -0.0040444530425074315
1528 0.007850663631307314 -0.0038714890973091396 -0.0009777048589405337
526 0.01343257363659842 -0.0026146172979691607 -0.012854631191619307
1524 0.0037286806949337736 0.009246814593912245 -0.0011070361346154894
195 -0.00397405454710692 0.005406627601944185 0.00739880457272039
190 -0.0008710987518227119 -0.0006744827993535034 0.007497442596788671
523 0.007820765426216958 -0.0118163967130064 0.000594860612213179
519 0.015078379213248094 0.02355736731693266 0.019588772509338378
516 0.011014892556903402 -0.012891148326095269 -0.004912968744339925
528 0.0001368547409888047 0.013777782375503053 -0.0036897562988401707
1529 0.007479914429693668 -0.00988965313536342 -0.008896153831879796
514 -0.00901062404082142 0.004948248986103003 0.003944344587581116
1525 0.010753109729893996 0.003741969101464741 0.011824333331814903
2397 0.017909189119479363 0.016067983660081313 -0.006286120133687845
1527 -0.003362238456975043 0.00595612910354399 -0.0019747153967475334
2395 0.006312639455985664 0.0059495542503131445 -0.0017580223423922427
1521 0.001618187392422224 -0.002473739503929916 -0.001050890482698609
1526 0.002426847446035982 -0.00884845758624502 -0.0006976434160706562
2396 0.0043918916551673745 0.0076163265955364115 -0.001155503075343184
1523 0.01749204378508092 -0.00880809744607975 -0.008080200288199536
194 0.008058971030959492 0.0005497688550436587 0.007738577945079129
191 0.009906353987781056 -0.011588051060330878 -0.005182796646886654
186 0.0014402306595764488 -0.0007560405758260252 0.0013465727778007675
192 0.0036837864065526666 -0.016875230288338913 -0.008974140180820133
525 -0.016430185374805565 0.028945865988283057 0.0026763516909443378
524 0.01134133304194729 -0.0022686930261814034 -0.009242936970720357
892 0.005020161472286323 -0.004274349731146199 0.0017129390135193635
2139 0.02494003016441169 -0.0061363809167233425 -0.0003125193395476258
2133 0.0019862888974155482 -0.0028882171050734393 -0.0030010107081654847
1518 0.003062569434584009 -0.004730370796170817 0.003476156864095116
1522 0.010099713481935264 -0.0014564276877328352 0.005702102027116397
897 0.009096112417114216 0.005935658866758661 -0.0014736745504420295
60 -0.008198927878645639 -0.005937990911928284 0.03730603555705034
2386 -0.015371790423469077 -0.01068988990121179 -0.013840530418198226
2388 0.010311480096226944 0.004138143918509162 -0.007391163614904932
59 0.012064983819021454 0.0014170282760568652 -0.016410789891258052
52 -0.0011593612781941212 0.0015382134418136485 0.0016008752613021278
55 -0.008672651679576593 -0.002327129783117259 0.00456644833022861
53 0.0014582304894094386 -0.016227745222640016 -0.002458197649625363
48 0.0027994184911607632 -0.0015428480141475164 0.007178938809595355
2387 -0.0005174552638132344 -0.003075238679228503 -0.0008739370006669324
57 0.01814656017249673 -0.0029901152094663794 0.033491952192896204
49 0.009345864651801514 -0.00596896151749664 -0.006093178619970943
56 -0.024417332439639557 -0.00039310899807232566 0.02370902837531211
47 0.0008708374878961736 -0.00871799117302891 -0.0002979203662378078
50 -0.00039323720122667665 -0.009361802018851818 -0.011784049738252466
2130 0.004077957799582206 0.00022599391652409456 0.0011342613051876765
51 0.008978961262345677 -0.0037424863308079485 -0.00793064106399681
54 -0.019617723215855427 0.0029772189997760217 -0.011384567443918388
62 0.007819827321616719 0.012859337487399647 -0.006584685584920523
2142 -0.000650085449137683 -0.01080832831112934 0.010068314481695675
2151 -0.004970165187164792 0.008909070465818467 0.01741069603418048
58 0.0019824323292620787 0.006647073402259956 -0.00267167978837483
2144 0.004637218828135361 0.005009900813817141 -0.01654680797468207
63 -0.00099920031259178 0.00426678775288692 0.010628534033974782
2135 -0.018151484478496828 0.0075507291434758796 0.001860666026332601
2140 0.0018931671357391446 -0.0032500716039353867 -0.0059212730443453845
2143 -0.004080299759851331 0.004140981991624634 0.0004525679016063741
2131 0.00033228290052918544 0.00034849464442744584 0.0028493870718338302
2146 0.0030164072929761343 -0.0023133275092022563 0.0019623834185574424
2134 -0.000996361292802214 0.0036860552313532067 0.005301497543173566
2137 -0.009884420844554256 0.0009959862164414543 -0.004264790469509973
2145 0.011108344641207173 0.0014503380053158255 -0.003258616440670831
2141 -0.021331665851464114 0.006053424348024662 0.007448550234671587
2148 -0.010802333082898312 0.0016283202851012893 -0.004753976542841199
2138 0.004535370299565268 -0.00618835746295021 0.01460567978647616
2147 -0.009786761445214424 0.003349430197654286 0.014635841868323814
2149 0.0032985422022280358 0.00044288274308887696 -0.0009845623168282759
2152 -0.027956700408699554 0.0014497222393637264 -0.009070602425219568
2153 -0.013249323478742154 0.009998480634922103 0.00672513698668602
1515 -0.0013690915458765848 -0.004937145736551058 0.004183874048441181
1520 -0.009026704348664302 -0.006479408500381171 0.009325267268967931
1516 0.015220968184153433 0.007230956790204471 -0.011685519680018625
1512 0.0043395793838984726 -0.0018787790243532663 -0.000422937375988289
1517 -0.00046234073312713137 0.010429512383415343 0.00808053755647166
2150 0.002445670540534384 -0.0014977995061407892 0.007103536086669044
2608 -0.0054607788701944064 -0.0008195135898768584 -0.023555237232937624
136 -0.007763599222041496 -0.0020939395502925797 0.003442950443553143
2154 -0.0009888857173582356 0.006957318003898308 0.010731091153385516
1101 -0.009486837310811715 0.017250026290168568 0.01356325357547251
1096 -0.003293684191443365 -0.0007621381997198107 0.0031558816486034766
1100 -0.014461431626500905 0.0025319502284809918 -0.004974387373532814
1097 0.012767266530328576 -0.003817263997640581 0.013173841524927198
1093 -0.0039281366242437 -0.00014017995986271802 0.00559593706743705
1104 0.005815770533808911 -0.0031050569455098264 0.014334680120320114
134 0.007744844907059832 0.005185562267952985 -0.007239279836953606
127 0.0005481941327456851 -0.0009361572617815521 0.00012119853274437941
1099 -0.0041366784254671185 0.0019263516368502051 -0.009632028486387011
1103 0.004787461488420882 -0.035900936658901934 -0.012893062298132345
1829 0.01786748532469649 0.0163444499137914 0.001795397867646945
1102 -0.0024625680664691956 -0.0003038415933513394 -0.01207828230874914
130 -0.002296725511061615 0.00039155372935532846 -0.002507251632745163
2711 -0.0033624272470522184 0.002733895655003823 -0.005093408369866458
124 -0.004073941450936368 -0.004455636388999394 0.0038485497750553495
128 -0.003895635915168778 0.007594662212820409 -0.004220431521786499
1827 0.02280182762407058 -0.015401555073278972 -0.009803255633480279
1828 0.004051420186659355 0.003299299457806557 -0.0018776128602204275
1824 0.004189622066042771 0.0030678978883531566 -0.0021821045947134072
2226 0.002807646692126423 0.0018836917702735204 -0.030254136428101548
2053 0.007670900799370753 0.008275135470562838 -0.0216531310701345
129 0.004486662244142687 0.0014476338460924143 0.014840432862630573
121 0.003046815611376903 0.0003415001942706192 0.004534700419690854
135 -0.011060695602242668 0.00232245922613144 0.0025694305685539905
2710 -0.015669840287207387 -0.02432485002869856 0.00502950711682297
1823 -0.005114151614089975 0.002795824291074249 -0.023509412630786274
1098 0.0021689851690646256 0.004632322761910364 0.0017991521708646714
133 -0.006213991472426355 -0.0012788504839019751 0.00482585257828681
138 -0.00582245299919694 0.025319922508055134 0.006752675410326847
2224 -0.004031169891819918 -0.0014043146042419408 -0.00345433385798243
2221 0.005340144080339416 0.006350631908224941 0.0034227533139623008
2228 -0.013795284656603003 -0.002182075900374638 -0.012548785210631009
2225 0.03270846741731768 0.011138885639017732 -0.005295414479367753
2227 0.009904124328005538 0.0017362912234230245 -0.009901138855912234
2229 -0.01144268949708569 -0.002453930362865963 -0.01948683834800905
2222 0.0008077690937384352 -0.004338468178489276 -0.0016004773272399913
126 0.014965700179246871 -0.007271715724427715 -0.013484202987872765
132 -0.004513089206228853 -0.003123729224609146 -0.007335576854433632
44 -0.016036507501415772 -0.016743078995708566 -0.02411892996005879
116 0.00023538930539251333 -0.0017079877146671436 0.0008134247423164622
1261 0.006081936799275446 -0.009830015377259844 -0.012755917978989739
45 -0.00904645559777614 0.02150754242676263 -0.009002125483028684
119 -0.0021810344175851692 -0.0041658020164725435 0.016325531289793457
512 9.800743905598707e-05 0.00876643326153478 0.001239242519406492
2712 -0.011435790404181224 -0.01331011411856784 -0.013319120507178674
2558 0.007055890358755395 -9.080332092121021e-05 -0.003404463136351023
117 -0.00699434884880721 -0.0022052208067648692 -0.0016841405828873122
122 0.011473327969172907 0.01767955961548593 -0.005278050360868565
2559 -0.011947285011657595 0.018494112874083143 -0.02432437670067378
2557 -0.011765871513620681 -0.014646302456951877 0.003225784309675088
2220 0.007707923000215657 0.0017016732957813325 0.004075628478626338
2214 -0.02144166683014132 0.00395456572085695 -0.015798238740840374
517 0.015087454831791662 -0.012287800070821777 0.013062065820839295
2358 0.005339570695245524 -0.012469915174430106 0.0026980319423208538
2356 -0.008501275692886542 0.01710166805104639 -0.008343676655861686
2357 -0.006038318133569877 0.006608091351241351 0.0028608166636873967
2485 -0.012710995724569022 0.02085567749830805 0.0022849184131590087
2486 -0.0013654639502224417 -0.000286452512146274 0.003453609679868704
2487 -0.006538667674636262 -0.002035980726022057 -0.004835375135922911
513 0.015624767641197263 0.00666574719045637 0.008181633793565716
1255 0.0013141759791885082 0.0002491779963304571 -0.004650081922594024
1258 -0.006321382687598794 0.005830627979583809 -0.004035035194737443
509 0.001986806125163529 0.0060886323345205 -0.03998634345321189
508 -0.0008802583614811284 -0.002635653364856026 0.001009632177401189
507 -0.0029010150035432085 -0.0012687326237961357 -0.0018720958413782859
2219 0.01620347855532557 -0.03551538191052882 -0.008694692392266322
2213 -0.014868419123982431 0.013817270697580293 -0.003153164615585568
120 -0.0006009915769520857 0.004256471661147921 0.009881609153867219
1263 0.01894276623583466 -0.02721289769452346 0.014777689987886677
1256 -0.0073682072435544525 0.006204492706617288 0.000452318651679596
2218 -0.0018195998357706448 -0.002769073494670396 -0.0012791927809567458
123 0.02167829549373803 0.0023253581319537114 0.0013049026513604046
1260 0.0002022980582025846 -0.010444393239846247 -0.011352793450087424
2215 0.0009702838944429343 0.0012673217362141071 0.002314869744094406
510 0.0024640214183551047 -0.005212455097708791 0.010239890607385678
511 -0.004428651133988317 -0.0064501213500947705 -0.005260813204525218
2008 0.00254152223488535 0.0005377696197644588 -0.0008170492081394336
2209 0.006521418682194455 0.007648283965359307 -0.005387449759378911
2212 -1.8165099345618578e-05 -0.002810667759223963 -0.0071962679221792185
2208 -0.004281940408571254 0.0037701150681269937 -0.003121871702376561
639 -0.0024082566381207105 0.010143166023993276 -0.004329126297720715
643 0.01688523963548415 -0.00355019906026689 0.006827583020345729
1464 -0.007895566075335241 0.012997695269988707 -0.02648680584679456
403 0.0017932754635147704 0.0036939453312023296 -0.0051746497213727835
1465 0.0013036139378731469 -5.101664784436186e-06 0.005964482062281315
2465 -0.004997919986033292 -0.003460683915342379 -0.0032300640011621294
2466 -0.005168475723699585 -0.007036499400876621 -0.0030379175866989488
187 0.011838148468506036 0.0010390960742908619 0.005900262644089665
402 -0.00220522293886446 -0.003222194776152039 0.00956130654303138
2464 -0.01351791455447353 0.0005289156277422302 -0.0015486707663179135
185 0.011496513064873386 -0.009391012307620092 -0.003427892681091213
1459 -0.005066435187836496 0.003763487028451261 -0.005398464047990951
2383 0.0034508293968438593 0.012697641784579742 0.018850344533442694
1466 0.006021238884396277 0.0080651416103309 -0.021844364974770644
1455 0.00010794492603339487 0.00220234466118048 0.0001462592871431221
1457 -0.0002885272221230124 0.004886981513473952 0.0005132011774712702
189 0.04469982308883906 -0.003374301285810497 0.0074671293791570975
188 -0.008182489023472881 0.01441556478646855 -0.018208634284526713
1458 0.003000297927005771 -0.0032029636982902395 -0.0023504679240942926
1456 0.0031580981209817305 -0.0037061358016747424 -0.0028465869352413803
2469 -0.012282043657999012 0.004260887312804365 -0.001909266169619167
1463 -0.0069806499859996355 0.006006886800946676 -0.017031502025514705
1461 -0.0005122725972044733 -0.007449166453543585 -0.02502756032435264
395 -0.005875656886373349 0.014728333287249712 -0.016481138827051007
2844 -0.0038649991455030094 0.00890555343636753 -0.005896205944741756
392 -0.0035162040359363353 -0.0007012149589389549 -0.000460718530255364
401 0.002814721611949398 -0.010019046225730029 0.009366753908514016
397 0.0007949491391606283 -0.006847498954756237 0.006718253289744664
1460 -0.015215861848593713 0.004646860018411027 0.009955869956556968
2468 -0.00031014641177704017 0.0035331010717188026 0.004437993019108123
2384 -0.0025487680809990762 0.0020559355144769195 -0.004041173673466221
1470 0.0028585013425477465 -0.008072036267613566 0.008914163202184596
2385 0.004082188672643097 -0.016180129881038403 0.0001490169225369786
2329 -4.807900817172705e-05 0.005114817367868794 0.005126691400903381
1462 -0.005922105402816045 0.003347228569045006 0.004238884099027988
1207 0.006919894993032028 -0.0012697050082622781 0.005070943622756816
2467 0.014646988832442604 0.020940009482292805 -0.008127579432866475
1205 0.0044060529016207535 -0.0038217247937372286 -0.0032141249881382783
1206 -0.005017036265232259 0.006846659743636084 0.006069706646003436
1210 0.00850090864921957 0.009382941282729216 0.0005061155973407218
310 0.0020644279139725896 0.01660549435030772 0.003996976850222273
1211 -0.0032367407767186296 -0.01712268148848242 0.025406389071091016
1214 0.013658485264985785 0.01724845592156955 0.013220808490157313
1208 0.0018067420369954799 -0.00184046809441188 0.0002954305475753591
1209 -0.005802048234553066 0.0012934786481605348 -0.0001258353698028225
1213 -0.004468065732567731 0.00868989723893092 0.010155676265141363
316 0.016127934399798205 -0.023547211019757357 0.014588180890719076
407 -0.0029014757077366615 0.0008554927066328713 -0.016455662081947504
305 0.0062080711131325345 -0.004170163734216725 0.004414464314202722
304 0.015516541845299428 -0.0016776233629260794 -0.033294600993768686
309 -0.00022432116164041688 0.011649383072940105 0.025442167338237492
2330 -0.0003221681046833781 0.002028628479345702 0.0025197256426330696
1508 -0.0027955506097457924 0.007190628148449387 0.003842775226275652
1620 -0.016518013804293283 0.01605230013096254 -0.0057432608451035184
1514 0.01998424168389421 0.005249716192211857 -0.015958707350218627
1511 -0.022190659266357278 0.019537870837528018 -0.025590920418133562
1519 0.011955998310109402 0.005186202156803178 -0.004156266595493469
1509 0.004423532860830326 -0.007951974875774214 -0.004817208395695339
1506 -0.002339843582251685 0.0027524920818869187 -0.0017645051749885662
2331 -0.0007812088173377241 0.0021649576891158793 0.003184132816566485
1505 0.0033074970081078546 -0.004438389014116178 -0.004322089251498335
1513 0.012067365223599802 -0.007666591736901657 0.0015840218519997996
1507 0.008259579167031156 0.0015766226556252997 -0.0039039293311291354
2737 0.007078280788870322 -0.005093970085813146 0.0025177060189826117
1510 -0.013679932156630539 0.03460809550026866 0.012959073606078968
2739 0.013540588356376629 0.018415980388190086 0.0036595969238775367
2738 0.0021746428310867533 -0.0018729342131386646 -0.005401293978721196
2430 -0.002211289639948447 -0.007492675235831838 -0.003562885765586433
1615 9.408410925958862e-05 -0.0020724059939879616 -0.004685342855310211
1626 -0.014278820927868642 0.01651811107884496 0.004528948520203778
1625 0.013097257454592743 -0.016810491380845984 -0.007165111664886185
1628 0.007063274144012255 -0.013832096163699318 0.02382751878485737
1442 -0.017806457459938432 0.03289113011091713 -0.007781197498639106
1624 -0.00857398548528635 0.005053267881509428 0.005177564742282318
1448 -0.01600345568794704 0.01849352558494512 -0.00103113867812572
1621 0.0034521405063932735 -0.0011510140087122344 -0.0004552141877484252
1618 0.012430828245597098 0.0018890565950659224 0.004994826679344591
301 0.005136474078100193 -0.0002303423732893342 0.009493628763776234
1619 -0.014839721169975357 0.011126867351177853 0.0018493267815342606
300 0.002620357892214267 -0.004681553511730052 -0.0017955625223146999
1435 -0.028869878673888925 0.037486232369711506 -0.003550004882946077
2429 0.004958260164918282 -0.002714523126829305 0.0011131056651034375
302 -0.015094929649840338 0.008843665218307283 -0.012006903866199401
303 0.028647654800823277 0.004741713781755219 -0.001099196458000428
2428 0.022360611542856915 -0.03352712295206215 0.01716563658351865
307 0.0016111309924126383 0.013112824680823965 0.011148279352820405
1610 -0.015317370135287348 -0.01993265086454643 0.011554050300681209
1606 -0.0064595563276356105 0.004042155719739293 0.011500777679020663
1433 0.0014065765352585056 -0.003440115513377405 -0.0029948150158843065
1436 0.024396502473332884 0.011829580473208179 -0.005247719496006422
1431 -0.002248946822285944 -0.0019962308957616596 -0.0023197895110254993
1611 0.006149513699652036 0.000511507345404651 -0.04111162911870825
5 -0.02951902909524077 0.011588739479016152 -0.031109262167573443
1441 -0.006228856659948411 -0.0215128704662832 -0.01534624494298164
1437 0.0019364153693763155 -2.7246446484199774e-05 0.009690728674019199
1439 -0.00866556308221061 -0.0008271827285349033 0.024429047123671364
1434 0.002347639203537539 0.0038517032987245513 -0.0010191027087186992
1438 -0.016437899181486342 -0.001684618480084301 -0.013992931706733276
1613 -0.005633203880980568 0.0098316150082613 -0.003975716822674742
1623 -0.008479453761821083 0.024551843609920437 0.024259629947093436
574 0.013853116481694941 -0.016134111172341266 0.011281437734498943
1344 0.00827614526706618 -0.01384604463446198 0.024627742702184898
2028 -0.013787862533015342 -0.014959923540158581 -0.01911120567938572
1440 0.007888921110095596 -0.0055117068035475565 -0.00140271409848362
1444 0.009113198459018576 -0.0002511681514872285 -0.00018987477141792138
1447 0.011697777565752465 -0.007568922660178337 -0.0024487335473890736
1443 0.0026223263398466715 -0.0035372776263684416 -0.002659565032374329
1451 -0.007657576367943182 0.008504213498487465 0.006660821662465593
1446 0.0001276350395672915 -0.006578915906021197 -0.005279561526714084
1454 0.014185003359841427 0.03197291793762886 0.006517722385398662
1449 -0.0047806657191913895 -0.006175188174363669 -0.0038548968242487084
1450 -0.011714441317155532 0.007733525763856985 -0.005306942850073742
1453 0.00285821252431491 -0.014154064607366686 0.006608928705037439
1629 -0.008055175993401687 0.003582993263368999 -0.021118248964224574
2024 0.0004447108534325966 -0.0034801381305587923 -0.002619443494841902
2018 -0.003374405152672319 0.004503680129612375 0.0058700147535828695
2020 0.003234835043284087 -0.003439789267983161 0.0030418742814390383
1452 -0.0015876907159069196 -0.01223790570394789 -0.023790206681014052
2029 -0.002059472325087562 -0.0010214440524737428 -0.0015578603692063962
2019 -0.015748385131051493 0.0005317137875882642 0.013164234027310349
2015 -0.004413414357702095 -0.001800086813975303 -0.0001295356481399114
2223 0.007348855839209787 -0.0056694078947694794 0.014926173850733866
2023 0.00406981428297143 0.002786716779509679 0.007477408126195191
2021 -0.008508077330727691 -0.0008086807873164188 0.009543548706465383
2027 -0.0058667164689437485 -0.005260811212776425 0.012926327701855653
1343 0.003713708630749936 0.003698700803484711 -0.0023845151196957236
1347 0.006530752569720948 0.009377835923362636 0.005341156852995112
246 -0.011778138241189832 -0.005708465839461775 0.005526714130150548
1445 -0.0004698900676318314 0.0030195842835054523 -0.015796938201346356
247 -0.032465426325842324 0.023085241512891857 0.022835039448441754
242 -0.0013998988181393064 0.00046404417840626246 0.00793771777460426
245 0.0001412505860920217 -0.0010567721927609765 0.0008014838814362448
249 0.0022466482433974914 0.0038568239518477297 0.0012810831137401726
1340 -0.0015133167381383443 0.0007759683919616589 0.008738519534107874
1348 -0.0007004040156366898 -0.010634643225032336 -0.005765752640067728
735 0.006631529895309336 -0.0019163405321878243 -0.00688199542071153
736 -0.005597806347763564 0.011593251170484356 0.023274099859428587
250 0.021422195422044075 0.014951721549858105 -0.008400789784319261
1342 -0.008840458223464501 0.003661427636961034 0.0021708997372535833
731 0.001690003911798682 -0.005594690163626934 0.005739886465728181
732 -0.0005839131852650727 0.011285372720803991 0.0113999948256844
734 0.010723326689340496 0.00738283799398764 -0.010554890909643297
728 0.004845308186703758 0.004361377911892577 0.0029966286091935466
725 -0.006448970221066446 0.007626849608588939 0.00708604318867575
730 -0.013187657966212353 -0.006131354171453576 0.0027416645742452898
729 -0.0014345147840855571 0.006585012434323149 -0.016880112520606224
2025 -0.00775885946361894 -0.001110005535815263 0.024455617185544107
2462 0.0032308901751784734 -7.015726271207566e-07 -0.005206161379881315
2406 -0.0013461606006702485 -0.0062624840601488195 -0.013433760666764057
404 0.0022213495714776526 -0.011299126355599598 -0.0023395359439674626
399 -0.0261281534558095 -0.010821039111688968 -0.0038932960326346967
394 0.013151628784019247 0.0031516251941071734 -0.012189952801276426
396 0.019024189393015558 -0.032491613311866265 -0.011324015314784261
2016 -0.00677720351642804 0.014717119599808124 -0.05644890573242435
2017 0.02099653683523463 0.0027742320865508947 0.012278526896816912
2012 -0.005126829709442737 -0.009392799632647516 -0.00449352675375225
2014 -0.001253209396636827 -0.001824100529338304 -0.008776370993298845
568 0.009326090462549085 -0.00819984876540198 0.00047611919861056875
2210 0.0014981143711852208 0.0026304302599888434 0.0022279703677687097
2206 -0.005166200062448636 -0.006453585600283408 -0.0024705002002867573
569 0.01342914869387096 0.018904128374714353 -0.0014609434454623275
564 -0.001971020408106797 0.004659802621456187 -0.004494925833056876
393 2.8594464705054095e-05 -0.0014484988317937807 -0.0019966379016414745
2207 -0.004440094115574088 -0.002448170949932334 -0.0016279393240978082
2216 -0.009050032172138558 -0.021648775442166944 -0.01253773753160243
2010 0.00013463624257284965 0.01895081816046811 -0.0129393268409046
2211 0.016688856094744655 -0.007741988537418441 0.017685114065455067
2011 -0.020043069587235094 0.010974026976244214 0.0004724418863192811
2217 0.01655762179188708 -8.081555740438206e-05 -0.002138514759770368
2205 -0.0021486431810511615 -0.006640614813080923 -0.006665737454385979
2005 -0.00032418828437147704 0.010370295956782478 -0.004370760308245759
2007 -0.004078520604474903 -0.002390520085029067 0.0055768974061841114
2701 -0.009935574127885422 -0.005924680000198108 -0.004131603656814758
2009 -0.003709469600042961 0.009932600462973873 0.0009842370248527325
2006 -0.0035525992466808863 0.006740870387729421 0.001536400030259922
563 0.0006319812483369768 -0.0025248526041292832 -0.006160716289585163
2702 -0.0015440752891049527 -0.0038127959404194245 -0.0009275700677299919
398 0.006601636702468167 -0.01704952904601917 0.010865750137554255
562 -0.02269981795611593 -0.004106303175752314 -0.01805381905037171
2013 -0.003823217917735018 0.013340999525963652 -0.00837419843816152
2461 0.013754114167629387 0.0009964789002123624 -0.006199884241208413
2703 -0.008720872233943605 0.011165192563989198 -0.002155957792251787
405 -0.0046248122356656535 0.01897203995409025 0.0029294965898366836
400 -0.004205099831534199 -0.0006577722249361174 -0.00788212485602224
733 -0.000745863233282376 -0.010048876454720237 -0.019054023660784555
726 -0.000998922867370779 -0.00021427838221806778 0.028086188260495443
566 -0.001146217039296069 -0.004064324063623627 0.00044596081717985923
561 0.009099163449717751 0.0034438793826076044 0.0008408623695812567
558 -0.0022093026591272344 -0.004873611100621716 -0.0025246764226440053
2587 -0.006295879920905502 0.010813832777898266 -0.0012383623760238896
559 -0.0005707713145593691 0.00682758451101356 0.0005542181325941945
2589 -0.02122699823573133 0.00617391115682564 -0.005443434528750334
2588 0.00014152854976135737 0.0029194631424753065 -0.004131174259050963
560 0.004500702071876811 -0.001366364532980805 -0.028305772695226702
554 -0.0068625780706494605 -0.005804467898598525 -0.0034152636125226355
557 0.0005243931966812766 0.003123101758837368 0.00978930784898387
553 -0.004393154184771545 -0.002741168914048716 0.0010336901808727
556 0.016272037069872427 0.013822118083912378 0.012603659382594497
555 -0.01916144037772293 0.0011620400044568926 0.010075076954726215
2662 0.017149855189797242 0.010004475865775374 0.03830328166320023
2663 0.0026577828477051977 -0.003691994678558347 0.00024530168181399146
2405 -0.0045902080049008255 -0.00010010915032733234 0.0038803846630227424
908 0.009436007118717782 -0.004368151307644492 0.002740202883932428
411 -0.03933006298024644 0.008260568709134244 0.007100313000929512
910 -0.021328690174381718 -0.03291759603542735 0.0045052227644934145
916 0.005737111174429501 -0.0011946722678106007 0.008448068890053886
914 0.006775177205914626 0.027434849115605234 -0.0027852944549987156
687 -0.009478412150904773 0.008814371988939383 -0.004274358808516819
315 0.0015264319410675318 -0.02485490143411709 -0.015051942060951515
2601 0.018329800317134663 0.008981755781175863 0.0018311399904740921
2599 0.0003597989059602733 0.004450387394852404 -0.003423854144323526
314 0.004869063136608324 0.0046046397164071756 0.0003818851864668264
2600 0.0036957811252260548 0.0005784637932449638 -0.0015464208769010012
1212 -0.0060705231099522335 -0.00010627808633456684 0.0031388650635125427
1217 -0.004479076467375431 0.013441742576199883 0.009493622664667965
1216 -0.0039489153643455 0.0037446834918972148 0.021459784909253696
1220 -0.012391611424531247 -0.00044909864254686585 0.0005517284996165076
1215 -0.007600880075186382 -0.00140147708856869 0.00032341309429347726
1219 -0.0050098985721494195 0.0034224919412705053 0.012765072539242804
311 0.001746887318850892 -0.0007732787161486922 -0.001907071007565903
312 -0.007536359812816012 0.003067462196810877 0.008904686907744016
308 -4.574529319337086e-05 0.0045310265564805175 0.0050674874686466
319 0.01751126627691411 0.0032673966378928597 -0.01426758270540932
306 0.016703880669358556 -0.003959305102923405 0.0008292710174037665
320 0.009458909516753225 -0.0047099627365920944 -0.002013182636929587
358 0.008415267024724359 -0.0017157739510516928 0.023616811602892415
2830 -0.012780483669440517 0.0271569652795885 -0.03025447299155993
919 -0.00027052882967873486 0.008369842993887298 -0.00011223208344356042
1218 -0.0016692120953336604 -0.0033828307687729623 0.001612068937362403
1221 0.005820690652735768 -0.0017910638453580456 0.00023666043045372646
1228 0.008590829799382423 0.004293847262087411 0.0014697423751836585
1224 0.007086985453985836 0.004210870229606273 0.0022440449031202467
353 0.008479248771964041 0.009476981765087376 -0.003953467070357251
1225 0.0026974530708842744 0.001436488027125681 0.02486348845338425
1223 0.0015580985835984672 0.012223106834891329 0.011293115216278793
1226 0.006011208557177406 -0.009227984371827614 -0.0032979283125712236
352 0.0005749184205681618 -0.01796255800977551 -0.029724829267687918
354 -0.0053821383542872045 -0.0024558129101433083 0.0006745044601581426
347 -0.006575459326075447 -0.00595726470352494 0.0008406009300809023
2831 0.005817378363076231 0.0024715601262726623 0.004356149750547285
1229 0.014510001007611222 -0.014963913046553387 -0.009640213465354515
359 -0.005125877669763033 0.010887718732440599 0.008643783280984764
351 -0.00502159890846489 0.0018513979936880414 0.0006757684622454429
2832 0.00614142709102898 0.003622715973088164 0.0005537365393448919
349 0.025346875343432704 0.0010965030120729947 -0.007060741209785211
346 0.001607232056055855 0.004747357771169965 -0.005450847185314503
356 -0.00392524183262931 -0.028126856613721735 -0.017019025685696965
317 0.008369571875296996 -0.0006336331929633446 -0.0012182942998913782
1222 0.0034623138896562257 -0.023215257271096686 -0.035840820166076676
321 0.0033525331419192663 -0.010516757569178975 0.006632062611828067
2522 -0.0024135652026244007 0.003676745361704002 0.0016127107323788928
2521 -0.021247645863904638 0.018926382017386997 -0.020647216680125834
681 -0.007765842103968064 0.03505520996803943 -0.013374385432888715
313 0.009484027450522773 -0.009067293174609286 -0.015686937636837525
1605 -0.009553909516990448 0.0005399188647638015 0.005567050476416634
2523 -0.011623891614068755 -0.0022483761406623427 0.002967758237602196
2770 -0.004518609613929252 0.00204737875198401 0.01745187640378355
2772 0.00014577033602632478 0.01067617444302386 -0.000729151822425452
2771 -0.009510174714293596 0.005826383610338349 -0.00016432956083814644
2381 0.00693762306883876 0.001589940867474242 -0.0057887278307625365
2382 -0.007275861519645943 -0.005842253602125215 -0.010303651518387628
1608 0.0009894026995138417 -0.005455135228134169 -0.0020276854337639397
2380 0.011982338396071015 0.012479465685262281 -0.005815007227402365
1430 -0.00521872405828913 0.006078574014078192 -0.004139598145375233
2848 0.00713346542063931 0.01736693384036275 0.011831504658258723
2433 0.007390430561238693 0.024109231950038418 -0.02237805706428164
2390 -0.00061268433870653 0.0005446930949476956 0.0004437296563847996
2391 0.006406003017780352 -0.00768310837237144 0.010152649365716979
2849 -0.0005073559030872254 0.0033198343378972733 -0.0001419416812583894
1432 -0.0003856926268964426 0.00017694185610961507 -0.005362947633006067
855 -0.005707320448182071 0.02180806344121516 -0.0024881567340695097
853 0.0034292085355387297 0.0013996709886377346 0.0007195786393475848
852 0.004646778093169672 -5.1731769706743285e-05 0.008021022551120815
859 0.004882806039192714 -0.00822837002683136 -0.007845398265268456
858 -0.010599732872353424 -0.010337621806762079 -0.0023490260497910174
857 -0.004118634951945284 -0.002653681189160616 4.595911646605909e-05
854 0.008596060271495879 -0.012756619738384144 0.01043652955721179
669 -0.00345164073584199 0.005725099758745949 -0.002469117575262765
2762 -0.004810495868409056 -0.002384149216361008 -0.0036334681078208837
350 0.009932554974829422 0.006011851961100854 0.0035840264470041387
348 -0.02429803305142886 -0.009841386062113863 0.017591783295873513
2432 -0.0002653742665161825 0.0027522074546507762 -0.00949811794138722
2459 -0.0033185881375794144 -0.007120881462655026 3.432364734647099e-05
2431 0.005212510402578369 0.035598118461200284 -0.00797429587752571
2460 0.018999707553524293 0.0051457174723330695 -0.020670498205723337
2761 -0.007321463649699675 0.009246076004331933 0.0010108523205439746
2644 -0.028725354344941362 -0.020848052067886723 0.00934284376353677
2763 -0.011906610245513585 -0.01141948718377048 0.024541599733180437
2458 0.0039465222440380355 -0.00859422285688859 0.012313555617950793
675 -0.01637685180858039 -0.0020548978514493164 -0.0087608805695068
861 -0.0022775920626092495 0.0022352797575182722 -0.010313209570519196
668 -0.0028712598172326753 -0.0020250215963312705 -0.0006438667063047534
2850 0.027486083107337585 -0.03619987181933987 0.018063853538254904
672 -0.004349905075919225 -0.0017742342750769514 0.001154395248408488
856 -0.03288173287105078 -0.02316280007499377 -0.01834061323700195
2645 0.0023699180453741766 -0.007915757450849664 -0.0010635998820570395
2646 0.0011560521624709155 -0.00470931791663749 -0.0020709980249984457
2783 0.005226131908944015 0.004682716378102502 -0.0006327738459037653
2784 0.0030352285485496615 -0.013282955283048624 0.013922916810160741
671 -0.01512811062936454 -0.013480159922028952 0.014402653776621225
2402 0.005282585848996703 -0.0074939285322366 -0.00023467277932573289
2782 -0.003800731526757402 -0.004962764406506391 0.00563650894187525
484 -0.00815024316508758 0.006674506179440489 0.0032840273567433425
488 -0.01790684829722039 0.004977102755604528 0.008718950487902938
2582 0.002049140648146833 0.0017380524900350157 0.006637631528307676
1341 -0.014288047636140031 -0.02527231978909955 -0.029379429920548785
251 0.0027738586128865255 0.007678887784185984 0.003576726223106763
1339 0.0266447411803814 -0.006838656565261784 -0.011151310325793687
2389 -0.00046745845938703473 0.016997286063848933 -0.018395363210750183
862 -0.008501068359784914 -0.009981865858649326 -0.018256312530192626
1332 -0.002506750231406789 0.0018383920710054516 0.004635486255618331
1330 -0.0040625068971470325 0.003041959032399861 -0.004270322071627659
1337 -0.010697068447184654 0.0035986798370606166 0.003361386195473371
248 -0.0008654884069373638 0.0053306056891695465 0.001742523634944345
723 0.018097804057270725 0.019836552851412385 0.014347509060649943
1331 0.004515717950764614 0.005806702130609674 -0.0041511456255488065
253 0.009149576296858464 0.0002494885901384158 0.01257921873544119
1338 -0.005852263852280122 0.011849153932717545 -0.016332662679613197
1334 -0.0011679200302523597 0.001208068500785867 0.006806280501153379
1335 -0.010671176241834585 -0.010022065931736759 -0.007565481218197613
777 -0.0020936061397324925 -0.0013476077791054236 -0.003851389555388091
782 -0.005626971288824046 0.014696385392056905 -0.029986246182332955
781 -0.01061375330733472 -0.0012010289283677078 -0.0015362340308683066
2401 0.01040696147014403 0.0013063461444062113 0.008461765583207596
1333 -0.003529502460820559 -0.00011163942173214644 -0.003566096777678911
2403 -0.025450508972817244 0.018334462076155973 -0.0033285965815990034
2752 0.01660129413113755 -0.007549631456607404 -0.005095079786013394
2753 0.0024701273344748995 0.0047753020393456495 0.0005528751908809263
2420 0.0012048043801504654 0.00790819529020551 0.0030272311040182385
775 0.00599372015210946 -0.0050920980378615244 -0.0027456561974539507
771 -2.9671943157539758e-06 0.002320194622284539 -0.006410581476931877
1336 0.018144623604548698 -0.005639357712473791 0.000983425827385182
2754 -1.4772245476513437e-05 -0.0024260370495226393 -0.013412552475155864
772 -0.013124203716973079 -0.008356226462682382 -0.013896771140005898
773 -0.02562487135780698 -0.012597952049869687 -0.006538510610325707
768 -0.006354631652848133 -0.003040118175438009 0.001201978327667102
764 0.03175779173885442 0.02555063593588837 0.021218651338417653
761 0.0006088107462747128 0.002684340062929045 -0.0014925423424939
760 -0.001758337913039945 0.00769916097255989 0.003095299098703925
765 0.0006361750745054361 0.0001463453142666248 0.004983237853480589
766 -0.006021301635386232 0.03160931604897023 -0.0011411016784163622
767 -0.003915460666307208 -0.0029824078290730666 0.010985282735401164
769 -0.008298086379539634 0.014956943015432543 -0.007687496709731449
763 0.012845317889365578 0.013747558872428865 0.012819599083801276
486 0.001534780810096438 0.00423667269649736 0.014145313292100562
770 -0.008831788741095858 -0.0005770112968776516 -0.006005317339115097
762 -0.003868309548111705 -0.0068605313777185305 -0.00920409790926598
1385 0.02467456764367709 -0.0007417763930259386 0.01928674676138673
2583 -0.000535971037742272 0.0023089811810972413 0.01965561084326367
1757 0.0017887719691278303 -0.004294338793235354 -0.001957749560571647
717 0.0022003723791895638 -0.0038951183631614995 -0.0022865297645009806
714 0.006785912933958329 0.0053740491843470226 -0.003837436843518855
716 -0.01780633367788345 0.0339377775890419 0.0046882618062917365
1761 0.01248734813682743 0.001537169511888155 0.003482233364031348
722 -0.0037854582804651028 -0.002286778793345357 -0.004506740856603049
724 -0.008881192881510796 0.00983261423136289 0.006519690859390372
719 0.0021610102417196813 0.0017125865611652003 0.0006816136918343071
727 -0.013342716090282241 -0.00984440973177406 -0.009905040413028284
1386 0.022207325430170576 -0.004758247515906543 -0.0004969014752947136
721 -0.02318422508461618 -0.011181578502578261 -0.009771082615391963
715 0.0047125167819922036 -0.0015088420043392228 -0.001553872419338365
2650 0.010534942079019222 0.0006982437029190235 0.0003374435076263432
2664 0.014628301078451806 -0.0013322612115909394 -0.0009767807795717045
720 0.01410622384571818 0.01802184588437669 -0.022892790841863873
2651 -0.0014348665734896285 0.001775252344203278 0.0008276204363469207
2652 -0.0022209156673643747 -0.003169670341374646 -0.010683473505889574
1382 0.0009170607436401789 0.0018819888638617359 -0.001855245328324686
2869 0.026291512084401447 -0.015336138597613107 0.00803426706715596
2870 0.004947772568883167 -0.0003588616625624993 0.0011845975849773113
2871 0.0026348680159392745 -0.010047405366193645 -0.004544488855643319
2756 -0.006247821427202437 -0.00487434035174514 0.0009452300353150604
1227 0.010993984717639637 0.016039409714071234 0.012131284736854592
1389 -0.007719186967431938 0.010494560754588442 -0.009554904332458909
1381 0.001176981428146371 0.001574513595477 -0.008140405464515691
1384 -0.00129073265816325 0.0071878064305906115 -0.0035887580881944076
2127 0.0157195576547868 -0.01610970118063829 0.002973729625858657
1057 0.006667386019248997 -0.01704929054289701 0.014367400153731244
1050 -0.006913598058771866 0.000558197202559764 0.004261115474488424
1054 -0.006257489970821432 0.021616250673836896 0.010580245766779073
1380 0.0023914132563748838 0.002051600862495188 -0.004738347028797737
2474 -0.0022470168222874357 0.002187439576992759 -0.001238741704235599
2755 0.000799983348351387 -0.02342171116309291 -0.008033778781674335
1383 0.005349812101717507 -0.006364849980575555 -0.002947686789277873
2757 -0.014255603536719097 -0.026139394794311047 0.01607065529791733
2475 0.006419986084350609 -0.005923263368621172 0.008123590539022044
1055 -0.020690263480386065 0.0075176865206697365 -0.004423106337770787
2061 0.004893799225035648 -0.02175475615447796 0.000826562608802211
1056 0.006349392116091491 -0.0028251489753555463 -0.005573443835787824
2058 0.0024580717184470484 0.0010830832002717491 0.007641634041722513
2473 -0.009582593880028575 -0.005322693059499162 0.0009619638639380722
1053 0.0018191224456997582 -0.008565465657703726 -0.004869804922917992
1058 0.008224962152455466 0.019429466739661554 -0.014654741721998593
1253 -0.026231824608022456 0.011372707061449747 -0.025560598901650515
2060 0.026035470679888668 0.0051171110499530536 -0.0026876916476467347
2056 -0.0009675401716859632 -0.0005282325790726536 -0.00847905582272864
2103 -0.00028707658014038234 -0.005833979427071088 0.00011402492603265817
2102 0.03000175398772268 0.0034031525273941913 -0.01268424640053017
2104 0.004411016857367462 0.01922155826106999 0.0021179086973301883
2099 -0.000958511580581825 -0.004327821513331756 0.006139340413123015
355 0.026741887283321077 -0.004444506751513347 -0.006991335443559661
1311 -0.007715957354177427 -0.005747138971394196 0.0006639021918606424
1310 -0.000505931603433903 -0.013138658527888763 -0.01213847488223242
1306 0.00364784840861368 -0.005242349844984799 0.0016174620766839125
1277 0.0002382986481435098 -0.003137377463062171 0.00686774889604395
1279 -0.007564915988503612 -0.013590800454061478 -0.007131868218126324
527 0.004454125817370925 0.01096089585908478 -0.011544253184026288
529 0.010914594215720207 -0.0008263407430543338 -0.006336642262324077
2088 -0.008368512915512353 0.013446864069439356 0.0056075735240223345
1274 0.002426961511298017 -0.005544541624880833 0.004272817613707569
1278 -0.009765861696953426 -0.0001663568241481858 -0.006984741036449647
2101 0.0038753644505284427 0.011105012058646417 0.005051933843791991
2100 -0.016511200195155194 -0.022630003266649924 0.004240302759341522
2085 -0.006079498159672279 -0.016319598602609123 -0.009762291801442202
2098 -0.0012696466629722254 -0.011635870287087966 -0.01856581461948036
2097 0.006322203417534279 -0.010991455233939157 0.0042820947165524295
2096 -0.003540871759593896 0.0016619606742614317 0.0024726858951730104
2093 0.0011306900243935943 -0.00789964089897601 -0.001436358666544093
2095 0.0018417361843431686 -0.004539278040740903 0.00327895994295475
2084 -0.0024595017428076116 -0.004661003931412884 0.0037940062406034486
2094 -0.017356318186516694 -0.01130156351838777 -0.008095953187833129
2091 -0.029012530882137247 -0.020659002517367412 -0.001066311225313791
2092 -0.007779176206592192 0.003540959907164558 -0.013303946515102038
2087 -0.0029434681334186657 0.006543315286267202 0.0010673255170179307
2090 0.0006506223307248663 -0.003927258364627653 0.001327104807186132
2086 -0.026559746111812072 0.035525533082624905 0.008561251353366876
2642 -0.005864496917934543 -0.0003840387510160098 0.0018863912848973712
2643 -0.009908534261079831 -0.0018478458561756656 0.0017632899563279738
2641 0.004822321095280417 0.01569659802592882 -0.025575229470773772
2081 0.004309362688013235 -0.0026635923836806183 0.00013259244619620838
2089 -0.013367880374377781 -0.012403188872054872 -0.0090300966984995
2083 0.0036572913979644813 0.003086930786182191 0.0031459552248491044
2080 -0.00461545038314263 0.0008098838547788415 -0.006346462215574202
2132 0.0014324363616691818 -0.007004367280941967 0.0020288696939235844
496 0.017790007324358408 0.02034570561039966 0.0036460620467157266
674 -0.024537109834992805 0.0016646203808344372 0.009486030224633275
2794 -0.012491184172170594 0.018289044630281737 -0.011315949816895364
2795 -0.005549337687929417 0.006531441892431582 0.0012418331132669986
1307 -0.0037395704412175766 -0.0018583679367280472 -0.0015686354183751085
2796 -0.0026317999405772083 0.021394274547586193 0.037191731239714663
1305 0.0021698823531009206 -0.003485657480518242 0.013362460097480874
2033 0.0013193248367904247 0.0035733726436287063 -0.0013152169582517916
2035 0.012367131153930924 0.0010284958121001774 -0.013521385352027087
2030 -0.0002817705893385027 0.0007528490133431718 0.004275012642530073
2032 -0.002401128159726488 -0.007208357111059751 -0.0030894712759679094
813 -0.0072972080493763 7.5198740085490505e-06 0.0032094649384497437
2082 0.0003959631804496626 -0.003059076857527778 0.0025062621413241303
2835 0.0200945180035846 0.01389004575076249 -0.00930576254296624
2325 -0.021405204084908324 0.003394574879182579 -0.00626839228560188
2499 -0.003427769643586948 -0.010053102887398848 -0.007736334756246362
2324 -0.0024864630498782213 0.0015446939877900544 -0.0033211485589333214
2323 -0.011023363606704651 -0.0010455000526157247 -0.027363126895423775
2847 -0.0019186841131771078 0.010063591081876764 0.0001907095268636855
806 0.002904953428346202 -0.00452684482277938 -0.0030893359590198756
809 0.010597967098172345 -0.019848583549785147 0.004444263544273384
810 0.009949152792424207 0.016391649922607963 -0.016723666547226308
1308 -0.0036300416811483184 0.00026216699586018694 0.0024194886629006537
2834 -8.832282935894406e-05 0.006135367113592297 -0.0022465401380239083
2845 0.003990451818813452 0.007365163677293032 0.015259210469761472
2833 0.011626687666226636 -0.010212618654907149 0.004274935874195893
2846 -0.002611445468531226 0.0004309136995315096 -0.008641287935700489
2680 -0.019475617550768213 -0.022823488018178257 -0.003950219715401759
2681 0.0038928350165021073 0.004056776840109125 -0.0003006628478514779
2682 -0.014173487346641624 -0.0003762946101488228 -0.015022884393796971
808 -0.01440123081123596 -0.015703063182198898 0.015256847189614654
2136 -0.005002434508341038 -0.0033214459903945946 0.024948341688197193
2503 -0.02328543891253709 0.005168099151030496 0.009807364365370596
2031 -0.0006687456704785124 0.0023273044810308494 -0.005239209160040715
2505 -0.009152440644427764 -0.0076648331212851 -0.005605506199175648
2504 -0.0009061714827468642 -0.0025767283686964084 -0.0035534678214580876
2036 0.0038191477660700357 -0.00432798145020429 0.013940011844717782
2042 -0.0019447775003492876 0.009553798396210787 -0.0012125995883073308
2034 -0.0026509546913996576 -0.000795225161071741 -0.001980086306193384
1089 -0.005333061886188771 -0.024564409306876672 -0.0038808826738896593
2037 -0.002412186236108475 -0.0006894914977566478 0.0010090510149431552
2038 0.028537659766799048 0.00870153279644165 -0.0030253483110421185
1088 -0.00042233781210336796 0.01935207840799097 -0.004281293231511827
2044 -0.011870941376988579 -0.002836251367935538 8.665281519000896e-06
485 -0.00014423980639078932 0.002970401830609567 0.0071405002511581534
1822 -0.009352922006711421 -0.007708524970336807 -0.0033972063093883967
490 -0.0036486364345475687 0.00833101861331174 0.010956527697818413
2421 -0.005207004376250365 0.01888143933316942 -0.00679821781272883
2419 -0.003930627680714597 -0.004450825082940937 -0.0009876042841786
2048 -0.017098145237407953 0.01757495146506665 0.019052932084546125
776 0.0021611483202072677 -0.002821664174902365 0.00513423291793844
1232 0.006573165412689224 -0.0012670122396238144 -0.0006422943613540966
1233 -0.001330235134166914 -0.002162990381545142 0.0025105830182682366
1230 3.371675246374426e-05 0.0007940295300330427 -0.004507228184763665
2045 0.02738784156994628 0.005079340176236713 0.004783559161404859
1095 -0.018249940687526448 -0.025451363422290065 0.003034716640232497
1084 -0.002206389273508952 -0.01980261060935629 -0.0003728261062218847
2052 0.015244407374384292 -0.014095540080374284 -0.027859845736052855
2041 -0.005702327484730037 -0.007814133125660443 -0.00411739226391998
2040 0.008611658269762035 -0.0017661872686882787 0.006783800231843566
1094 -0.007638933307517978 -0.004882017959610077 -0.013648798763588816
1083 -0.006024228912506287 -0.0022618969383599394 -0.002954952151501053
2039 0.00012183902406927352 -0.0032262233289747934 0.012881404191115024
2049 0.0030698108347125166 0.005007015765668969 -0.002137672823082776
1090 -0.001848273689392328 0.0005386847796136629 -0.01120635688118375
1086 0.010635628042009229 -0.009579591572169047 -0.000909958040435632
2046 0.0016387830590828688 -0.0055051794863250104 -0.0009772944945552733
2043 -0.005753049673296949 0.0002799899865260723 7.666320529613246e-05
2047 -0.03816354471071573 -0.017791138904984804 0.006012181645722035
1087 0.006929522632233246 0.007134287571520881 -0.005887146805458928
1092 0.00912090614826824 -0.0001549187694004833 -0.00953162587974683
1082 0.002522782877636368 -0.003113382052946288 0.00032238820042342195
1085 0.009818867342560385 0.020067523756083092 -0.011814486512047974
1238 0.001329601954378435 0.012800769523379314 0.014106139702183296
1817 0.019141440555707104 0.007053709363765183 -0.002543757584570862
1815 -0.007849782089240843 -0.004698300500823098 0.001483161581352994
2123 -0.0008672827043329368 -0.00832058981614466 0.02122014206748364
2118 0.004926037586475093 0.004658730182394043 -0.00050026755341096
2122 0.02704038834054638 -0.012863636963093084 -0.003919938730026352
2050 0.0012780801939093454 0.012209029375574096 0.011880943787148901
2054 0.012595284404687693 -0.004543627521632928 0.007120831054668486
1818 -0.0022256553245809476 0.0021349818945667763 -0.008273425680159124
1821 -0.0007234950242535012 0.0023671144180106426 -0.005229866470087144
2315 -0.006943079530279518 0.0037107882327128494 -0.006966457854621334
2316 0.005349347231387781 0.003975378012373549 -0.008389805126345826
2314 0.00591881533615364 -0.011624216590059652 0.003107783876810316
1826 -0.007625009735424309 0.00453745248077909 -0.01587296212639358
1234 -0.005682863652721439 0.0032245981826281938 0.006839760773018308
1231 0.0018112025844325185 -0.00048272702042545507 0.0028926519505841457
1825 -0.00883239927280991 -0.01948221472807646 0.0015391426172778949
1820 0.005616568993250677 -0.02027243155892729 0.013523425178087588
1235 0.03151100673933202 0.01682807158305302 0.011138011298891741
1236 0.0007569759636744688 0.016928144397841273 0.012083049361764705
2051 0.006125778038981365 -0.0006517667266625663 -0.002294483636736723
1809 -0.0011150779801983657 -0.0030035908290240074 0.007373540160854235
1244 -0.0037918890305767227 -0.01972268880889568 -0.0170160278576547
1271 -0.00367790216594721 -0.0004973318880517819 0.00653626683716016
1270 -0.013979130983626046 -0.011344138037371918 -0.0055852885450398335
1273 0.02298963092632206 -0.001774555076259921 -0.003849115327542063
1814 -0.0005549554315882445 -0.02255094935949976 -0.012158554061197096
1268 0.001968958192800024 0.004441389249219205 -0.008678535683584461
1264 0.004002416333645929 0.0066627271202443 0.0006820799944504977
1250 -0.02903355323871973 0.007926745365031037 0.0028588519431330226
1240 -0.0007525045105394733 0.004738458596266665 0.0005286035918112446
1251 -0.006641568342580538 -0.0013486149902678492 -0.027910334329742475
1242 -0.015321490072713781 0.004273511180418111 -0.016507398772909392
1252 0.010472680424357965 0.01396393072052922 -0.00992963136173359
1248 0.008993258393576014 -0.012133069724376522 0.021944035346132033
1249 0.009773524898349064 0.004544759519784871 -0.006763304514218563
1946 -0.0004282325266030714 -0.001096972882907052 -0.0004661818131451652
1254 0.001489858814013265 -0.004701804600629179 -0.009436675875888619
1813 0.02299799956933313 -0.006774929274474134 0.021450303377900944
1237 0.005758188356559865 -0.007369983578114132 -0.003016781956618769
1812 0.0020695091484735453 -0.0015442882664530148 0.005559103139369648
1241 0.011414460192817888 -0.011772129502544899 -0.005269450006763294
1819 -0.004034459961990278 -0.0030335638022916038 -0.001949478743265179
1266 0.02699459931528937 0.027066617089341927 -0.003180802517699805
1239 -0.014305540239905127 0.006162483227591929 0.007992041035740588
1816 -0.015139910024168004 -0.012967873330329545 0.02717617334713406
2121 -0.0036816688392365057 0.0005483501924493136 -0.0027064902702141976
2125 -0.0343286902929039 0.002924318300261019 0.007295500910303677
1247 -0.023685160359009517 0.01368603958513963 0.005864901159527293
1259 0.0026880163342929892 0.0005988255926571894 0.001497317051583933
1267 0.0057332140650449 0.0030721289321192363 0.016347475130676813
644 -0.0043201977656798125 0.008881158574153338 -0.008382973817841852
1245 0.015535070332585336 -0.0011731875749261982 0.0055953292858559175
1262 0.0041088707590525575 -0.0011901218958353774 0.009114636946678521
1269 -0.008690933077480076 -0.009613418352139164 0.00035878237046353076
1272 -0.008186491077883782 0.010625500451437018 0.00636137137319382
1265 -0.003599186005359627 -0.012232593314521588 -0.0028427611542164596
1246 -0.002008665884463459 -0.00322719491717286 -0.000956288994075359
1953 -0.0017727691871288922 0.005403806517777251 -0.0009329847427630605
1954 -0.013012151452437136 -0.023031687885024323 -0.016909098415064962
1949 -0.0009857200852971878 -0.0032206321257022908 0.000921771578076362
1951 0.0026992303915847225 0.0007287689465159439 0.0006839981014771042
1950 0.005991555766307844 -0.004025450011459567 0.02227283566513523
1243 -0.005374607644852438 -0.0003492068365903377 -0.004560350931093687
1952 0.005941977407266146 -0.007106738012383951 -0.002084026777398094

Bonds

1 3 616 613
2 4 1153 1149
3 7 2378 2377
4 7 2379 2378
5 4 1647 1643
6 3 1149 1146
7 4 1154 1149
8 4 619 616
9 4 1150 1146
10 3 613 610
11 4 618 613
12 4 621 616
13 3 1640 1637
14 3 1646 1643
15 4 1645 1640
16 3 1146 1143
17 4 1151 1146
18 3 1649 1646
19 4 617 613
20 4 620 616
21 4 1654 1649
22 4 1152 1149
23 4 614 610
24 4 1639 1634
25 3 610 607
26 4 615 610
27 4 1651 1646
28 7 2547 2546
29 3 1643 1640
30 3 1637 1634
31 4 1641 1637
32 4 655 650
33 4 1648 1643
34 3 1634 1631
35 4 1635 1631
36 4 612 607
37 2 603 599
38 3 604 600
39 2 602 599
40 4 608 604
41 3 607 604
42 4 609 604
43 1 600 599
44 4 606 600
45 4 611 607
46 2 463 461
47 4 468 462
48 4 605 600
49 2 464 461
50 1 462 461
51 4 1860 1856
52 2 601 599
53 4 467 462
54 7 2655 2654
55 7 2654 2653
56 6 1708 1705
57 7 2318 2317
58 7 2319 2318
59 7 2424 2423
60 6 1707 1705
61 7 2781 2780
62 6 1857 1855
63 4 1866 1862
64 5 1856 1855
65 4 1861 1856
66 6 1632 1630
67 6 1633 1630
68 7 2610 2609
69 7 2423 2422
70 7 2780 2779
71 7 2865 2864
72 7 2864 2863
73 4 1711 1706
74 5 1706 1705
75 4 1710 1706
76 4 146 140
77 3 1709 1706
78 7 2687 2686
79 3 147 144
80 3 153 150
81 7 2808 2807
82 7 2807 2806
83 7 2688 2687
84 4 99 94
85 4 100 94
86 4 105 101
87 3 98 94
88 4 152 147
89 4 158 153
90 3 101 98
91 3 150 147
92 1 94 93
93 4 106 101
94 4 154 150
95 7 2696 2695
96 4 157 153
97 7 2741 2740
98 7 2742 2741
99 7 2585 2584
100 4 125 121
101 7 2721 2720
102 6 1183 1180
103 7 2720 2719
104 4 1713 1709
105 4 148 144
106 2 142 139
107 2 141 139
108 3 144 140
109 4 151 147
110 4 131 127
111 4 137 133
112 4 1653 1649
113 4 652 646
114 4 103 98
115 7 2697 2696
116 2 97 93
117 4 102 98
118 6 1182 1180
119 2 96 93
120 2 95 93
121 7 2792 2791
122 7 2793 2792
123 7 2342 2341
124 7 2343 2342
125 6 1583 1580
126 7 2526 2525
127 7 2525 2524
128 7 2825 2824
129 7 2453 2452
130 7 2454 2453
131 2 118 116
132 6 1358 1355
133 7 2826 2825
134 7 2339 2338
135 6 1257 1255
136 7 2340 2339
137 4 1588 1584
138 7 2450 2449
139 4 1585 1581
140 4 1011 1007
141 5 1581 1580
142 7 2451 2450
143 3 1584 1581
144 4 1652 1649
145 4 1873 1868
146 4 1879 1874
147 4 1875 1871
148 4 1877 1874
149 7 2546 2545
150 4 1878 1874
151 3 1874 1871
152 3 1871 1868
153 4 1204 1199
154 4 1872 1868
155 4 1876 1871
156 3 1868 1865
157 4 598 593
158 4 597 593
159 3 593 590
160 4 1202 1199
161 4 596 593
162 4 1467 1462
163 4 1753 1749
164 4 1473 1468
165 4 592 587
166 3 1865 1862
167 4 1869 1865
168 3 1468 1465
169 4 1867 1862
170 3 1199 1196
171 4 1203 1199
172 4 1689 1684
173 4 594 590
174 4 1691 1687
175 3 1687 1684
176 4 1692 1687
177 4 591 587
178 3 590 587
179 4 595 590
180 3 587 584
181 4 1694 1690
182 4 589 584
183 3 1690 1687
184 4 1698 1693
185 4 408 403
186 4 585 581
187 3 584 581
188 3 581 577
189 4 1850 1846
190 4 1472 1468
191 4 1469 1465
192 4 1864 1859
193 3 1862 1859
194 4 1476 1471
195 3 1859 1856
196 4 1479 1474
197 4 1477 1474
198 4 1863 1859
199 3 1474 1471
200 4 1478 1474
201 7 2705 2704
202 3 1471 1468
203 4 1622 1618
204 7 2706 2705
205 6 1858 1855
206 7 2373 2372
207 2 235 231
208 7 2372 2371
209 2 233 231
210 4 1475 1471
211 4 588 584
212 4 586 581
213 4 1614 1609
214 2 578 576
215 7 2348 2347
216 7 2349 2348
217 7 2648 2647
218 1 577 576
219 3 1612 1609
220 4 1616 1612
221 7 2502 2501
222 7 2501 2500
223 7 2367 2366
224 7 2366 2365
225 4 240 236
226 4 1617 1612
227 3 1609 1606
228 4 1627 1624
229 7 2586 2585
230 7 2639 2638
231 4 241 236
232 7 2538 2537
233 7 2640 2639
234 2 234 231
235 6 1657 1655
236 7 2537 2536
237 4 237 232
238 6 1658 1655
239 1 232 231
240 3 236 232
241 4 2026 2021
242 2 1062 1059
243 4 1066 1060
244 2 1063 1059
245 2 1061 1059
246 1 1060 1059
247 4 1068 1064
248 3 1064 1060
249 4 1069 1064
250 4 1065 1060
251 3 1067 1064
252 4 2022 2018
253 4 243 239
254 4 244 239
255 4 238 232
256 3 239 236
257 7 2352 2351
258 7 2351 2350
259 7 2550 2549
260 7 2576 2575
261 7 2577 2576
262 6 1833 1830
263 4 252 248
264 4 1071 1067
265 4 1072 1067
266 5 1181 1180
267 4 1185 1181
268 4 1186 1181
269 3 1070 1067
270 4 1189 1184
271 4 1010 1007
272 4 1012 1007
273 4 1008 1004
274 3 1007 1004
275 3 1004 1001
276 4 1009 1004
277 4 1201 1196
278 3 1196 1193
279 4 1188 1184
280 3 1184 1181
281 4 1197 1193
282 4 1192 1187
283 4 1194 1190
284 3 1187 1184
285 3 1193 1190
286 3 1190 1187
287 4 1195 1190
288 4 1191 1187
289 4 1080 1076
290 3 1076 1073
291 4 1079 1076
292 4 1081 1076
293 4 1200 1196
294 4 1198 1193
295 4 1836 1831
296 4 1838 1834
297 5 1831 1830
298 4 1835 1831
299 3 1834 1831
300 4 1844 1840
301 4 1839 1834
302 3 1837 1834
303 3 1840 1837
304 4 1845 1840
305 4 1842 1837
306 3 1846 1843
307 4 1851 1846
308 7 2463 2462
309 4 318 314
310 3 406 403
311 4 1695 1690
312 4 1697 1693
313 3 1693 1690
314 3 1696 1693
315 4 1700 1696
316 4 1704 1699
317 3 409 406
318 4 414 409
319 4 412 409
320 4 1701 1696
321 4 1702 1699
322 3 1699 1696
323 4 1703 1699
324 4 2072 2068
325 3 2071 2068
326 4 2076 2071
327 4 2069 2065
328 3 2068 2065
329 3 2074 2071
330 4 2079 2074
331 4 2077 2074
332 3 2065 2062
333 4 2078 2074
334 4 2075 2071
335 4 2073 2068
336 4 364 360
337 4 91 87
338 4 827 823
339 7 2417 2416
340 7 2354 2353
341 4 826 823
342 4 362 357
343 4 2070 2065
344 4 2063 2059
345 4 322 317
346 7 2427 2426
347 4 582 577
348 4 583 577
349 7 2649 2648
350 7 2828 2827
351 7 2786 2785
352 6 1607 1605
353 7 2787 2786
354 2 579 576
355 2 534 530
356 4 865 860
357 1 531 530
358 4 536 531
359 3 860 857
360 4 871 866
361 2 532 530
362 7 2355 2354
363 7 2829 2828
364 7 2621 2620
365 7 2876 2875
366 7 2877 2876
367 7 2730 2729
368 7 2729 2728
369 7 2622 2621
370 4 540 535
371 4 546 541
372 7 2426 2425
373 3 541 538
374 4 545 541
375 4 502 498
376 4 500 495
377 3 535 531
378 3 538 535
379 4 499 495
380 3 495 492
381 4 542 538
382 4 867 863
383 4 549 544
384 3 544 541
385 4 537 531
386 4 543 538
387 7 2736 2735
388 7 2735 2734
389 3 866 863
390 4 870 866
391 4 872 869
392 4 864 860
393 7 2748 2747
394 7 2549 2548
395 7 2496 2495
396 7 2805 2804
397 7 2804 2803
398 7 2774 2773
399 7 2775 2774
400 7 2495 2494
401 3 489 485
402 2 487 484
403 3 863 860
404 4 874 869
405 4 868 863
406 4 873 869
407 3 869 866
408 4 493 489
409 7 2492 2491
410 7 2879 2878
411 5 1756 1755
412 7 2493 2492
413 7 2556 2555
414 7 2555 2554
415 7 2816 2815
416 6 1758 1755
417 7 2817 2816
418 4 1760 1756
419 7 2880 2879
420 7 2708 2707
421 7 2856 2855
422 7 2855 2854
423 4 494 489
424 4 413 409
425 2 718 714
426 6 1832 1830
427 4 1852 1849
428 4 1848 1843
429 3 1843 1840
430 4 1847 1843
431 4 1841 1837
432 7 2691 2690
433 7 2690 2689
434 2 371 369
435 4 375 370
436 4 410 406
437 4 2067 2062
438 4 1763 1759
439 3 1759 1756
440 2 372 369
441 3 1762 1759
442 4 376 370
443 4 1766 1762
444 3 2059 2056
445 4 379 374
446 4 385 380
447 1 370 369
448 4 382 377
449 4 381 377
450 3 2062 2059
451 2 373 369
452 6 2057 2055
453 4 378 374
454 3 374 370
455 3 377 374
456 3 380 377
457 4 384 380
458 4 2066 2062
459 4 1767 1762
460 4 1773 1768
461 4 2064 2059
462 4 1650 1646
463 4 365 360
464 3 357 354
465 3 360 357
466 4 366 363
467 4 368 363
468 3 363 360
469 3 823 820
470 4 1644 1640
471 4 1642 1637
472 3 659 656
473 4 663 659
474 4 657 653
475 4 367 363
476 4 660 656
477 3 653 650
478 4 667 662
479 4 666 662
480 3 662 659
481 4 665 662
482 3 656 653
483 4 661 656
484 4 2279 2274
485 4 2278 2274
486 3 2274 2271
487 4 2275 2271
488 3 650 646
489 4 1902 1899
490 4 1638 1634
491 4 821 817
492 4 1636 1631
493 5 1631 1630
494 4 824 820
495 4 822 817
496 3 817 814
497 4 825 820
498 3 820 817
499 4 1904 1899
500 4 1903 1899
501 4 664 659
502 3 1899 1896
503 4 361 357
504 3 2271 2268
505 4 2277 2274
506 4 2273 2268
507 7 2532 2531
508 1 807 806
509 4 828 823
510 4 548 544
511 4 86 81
512 4 503 498
513 3 492 489
514 3 498 495
515 3 547 544
516 4 551 547
517 4 550 547
518 7 2415 2414
519 4 819 814
520 3 811 807
521 4 818 814
522 3 814 811
523 7 2516 2515
524 7 2517 2516
525 4 812 807
526 4 816 811
527 4 80 75
528 4 82 78
529 4 76 71
530 4 504 501
531 7 2414 2413
532 7 2598 2597
533 7 2597 2596
534 3 501 498
535 4 505 501
536 7 2531 2530
537 4 506 501
538 4 552 547
539 2 73 70
540 4 497 492
541 7 2609 2608
542 4 815 811
543 4 491 485
544 4 1714 1709
545 4 1727 1724
546 4 1379 1374
547 4 1716 1712
548 4 1717 1712
549 4 1719 1715
550 3 1724 1721
551 4 1720 1715
552 3 1712 1709
553 3 1715 1712
554 3 1718 1715
555 4 1729 1724
556 4 1728 1724
557 4 1726 1721
558 3 1721 1718
559 4 1723 1718
560 4 1722 1718
561 4 1725 1721
562 4 180 176
563 3 156 153
564 4 159 156
565 3 104 101
566 4 111 107
567 4 109 104
568 4 113 110
569 3 107 104
570 3 110 107
571 4 1377 1374
572 3 1374 1371
573 4 108 104
574 4 1378 1374
575 3 1371 1368
576 4 1376 1371
577 4 1375 1371
578 4 115 110
579 4 112 107
580 4 114 110
581 4 1764 1759
582 4 1769 1765
583 3 1768 1765
584 3 1765 1762
585 4 1772 1768
586 4 1777 1774
587 4 1770 1765
588 4 160 156
589 4 1373 1368
590 3 1368 1365
591 3 1365 1362
592 4 1370 1365
593 4 1369 1365
594 4 1372 1368
595 4 1779 1774
596 4 1775 1771
597 4 658 653
598 4 1364 1359
599 3 1774 1771
600 4 1778 1774
601 4 1366 1362
602 3 1362 1359
603 4 1367 1362
604 4 1363 1359
605 3 1771 1768
606 4 1776 1771
607 4 1361 1356
608 3 1359 1356
609 5 1356 1355
610 4 1360 1356
611 6 1357 1355
612 4 1276 1271
613 4 1895 1890
614 4 1897 1893
615 4 1275 1271
616 4 1750 1746
617 4 474 469
618 7 2595 2594
619 3 1496 1493
620 4 1501 1496
621 4 1500 1496
622 4 1747 1743
623 4 1148 1143
624 3 1143 1140
625 4 1141 1137
626 5 1131 1130
627 3 1140 1137
628 4 1145 1140
629 3 1137 1134
630 4 1142 1137
631 4 1136 1131
632 4 1147 1143
633 3 1134 1131
634 4 1742 1737
635 3 1743 1740
636 4 1748 1743
637 4 1144 1140
638 4 1138 1134
639 3 1740 1737
640 4 1744 1740
641 4 1497 1493
642 3 1493 1490
643 4 1751 1746
644 3 1746 1743
645 4 651 646
646 1 646 645
647 4 479 475
648 4 473 469
649 4 2253 2249
650 4 2252 2249
651 3 475 472
652 4 1498 1493
653 3 2249 2246
654 4 2254 2249
655 4 1495 1490
656 3 1490 1487
657 4 1494 1490
658 4 1491 1487
659 3 1487 1484
660 4 480 475
661 3 478 475
662 4 1135 1131
663 6 1133 1130
664 4 2269 2265
665 3 2243 2240
666 4 2251 2246
667 2 465 461
668 3 2246 2243
669 4 835 830
670 3 466 462
671 3 469 466
672 4 471 466
673 4 2263 2259
674 4 470 466
675 6 2258 2255
676 4 477 472
677 3 472 469
678 4 2260 2256
679 4 2250 2246
680 4 1427 1424
681 4 476 472
682 3 1424 1421
683 4 1426 1421
684 4 2264 2259
685 3 2259 2256
686 5 2256 2255
687 1 830 829
688 6 2257 2255
689 4 836 830
690 7 2822 2821
691 7 2823 2822
692 4 1429 1424
693 2 831 829
694 2 832 829
695 3 1421 1418
696 3 1418 1415
697 4 482 478
698 4 1422 1418
699 7 2511 2510
700 7 2510 2509
701 2 833 829
702 1 140 139
703 4 1160 1156
704 4 1164 1159
705 2 143 139
706 4 145 140
707 4 149 144
708 4 1679 1674
709 4 1677 1674
710 4 1678 1674
711 3 1674 1671
712 4 964 961
713 3 961 958
714 4 963 958
715 4 966 961
716 3 958 955
717 4 965 961
718 4 962 958
719 3 955 952
720 4 957 952
721 4 1672 1668
722 4 1675 1671
723 4 1676 1671
724 4 1670 1665
725 3 1671 1668
726 4 1673 1668
727 3 1668 1665
728 4 1603 1599
729 3 1599 1596
730 4 1604 1599
731 4 1602 1599
732 4 1598 1593
733 3 1593 1590
734 4 1594 1590
735 3 1596 1593
736 4 1597 1593
737 3 1590 1587
738 5 1156 1155
739 3 423 420
740 4 427 423
741 3 426 423
742 4 1741 1737
743 3 1737 1734
744 4 1735 1731
745 4 1745 1740
746 4 959 955
747 4 960 955
748 4 956 952
749 3 952 949
750 3 420 416
751 4 1592 1587
752 4 1739 1734
753 4 953 949
754 3 949 945
755 4 951 945
756 6 1582 1580
757 3 1734 1731
758 5 1731 1730
759 2 946 944
760 4 1736 1731
761 4 954 949
762 2 947 944
763 4 1738 1734
764 1 945 944
765 2 948 944
766 7 2561 2560
767 6 1733 1730
768 7 2562 2561
769 4 425 420
770 4 421 416
771 4 950 945
772 4 295 291
773 3 1587 1584
774 4 1591 1587
775 4 422 416
776 2 419 415
777 1 416 415
778 4 1586 1581
779 4 424 420
780 2 418 415
781 4 430 426
782 4 433 429
783 7 2718 2717
784 4 1870 1865
785 4 1686 1681
786 3 1684 1681
787 4 457 452
788 4 1754 1749
789 3 1749 1746
790 4 1752 1749
791 4 1489 1484
792 4 481 478
793 4 1492 1487
794 4 1488 1484
795 4 1486 1481
796 5 1481 1480
797 4 1485 1481
798 6 1483 1480
799 3 1484 1481
800 6 1482 1480
801 4 445 439
802 4 447 443
803 7 2717 2716
804 4 451 446
805 3 443 439
806 5 1681 1680
807 4 1685 1681
808 7 2592 2591
809 4 1688 1684
810 7 2345 2344
811 6 1682 1680
812 7 2679 2678
813 7 2678 2677
814 6 1683 1680
815 2 441 438
816 2 440 438
817 7 2658 2657
818 2 442 438
819 7 2442 2441
820 1 439 438
821 4 444 439
822 7 2591 2590
823 4 803 800
824 7 2765 2764
825 7 2766 2765
826 4 456 452
827 4 1428 1424
828 4 1425 1421
829 4 483 478
830 7 2483 2482
831 7 2484 2483
832 3 446 443
833 4 450 446
834 7 2838 2837
835 3 1415 1412
836 4 1419 1415
837 4 1423 1418
838 4 1417 1412
839 2 580 576
840 4 448 443
841 7 2837 2836
842 2 785 783
843 4 796 791
844 1 784 783
845 4 790 784
846 4 789 784
847 2 786 783
848 3 791 788
849 6 1982 1980
850 4 1986 1981
851 4 802 797
852 4 795 791
853 4 1420 1415
854 3 1412 1409
855 4 454 449
856 3 449 446
857 3 452 449
858 4 1075 1070
859 4 1304 1299
860 4 1923 1918
861 5 1656 1655
862 4 1669 1665
863 3 1665 1662
864 3 1659 1656
865 3 1662 1659
866 4 1667 1662
867 4 1666 1662
868 4 1600 1596
869 4 1601 1596
870 4 1661 1656
871 4 1300 1296
872 4 1664 1659
873 3 1296 1293
874 4 1663 1659
875 4 1294 1290
876 3 1290 1287
877 3 1293 1290
878 4 1298 1293
879 4 1292 1287
880 3 1287 1284
881 4 1295 1290
882 4 1301 1296
883 4 1595 1590
884 4 1302 1299
885 4 1660 1656
886 3 1299 1296
887 5 1981 1980
888 4 1985 1981
889 4 1988 1984
890 4 1992 1987
891 3 1987 1984
892 4 1991 1987
893 3 1984 1981
894 4 1994 1990
895 3 1990 1987
896 4 1297 1293
897 4 1291 1287
898 4 1998 1993
899 4 2001 1996
900 3 1993 1990
901 4 2000 1996
902 4 1303 1299
903 3 1001 998
904 4 1002 998
905 4 1006 1001
906 4 1589 1584
907 4 1554 1549
908 4 1000 995
909 3 1073 1070
910 7 2369 2368
911 4 1074 1070
912 7 2370 2369
913 4 1288 1284
914 3 1284 1281
915 4 1005 1001
916 4 1077 1073
917 4 1078 1073
918 4 1003 998
919 2 417 415
920 3 998 995
921 2 994 990
922 7 2633 2632
923 3 995 991
924 6 1283 1280
925 4 999 995
926 7 2634 2633
927 5 1281 1280
928 6 1282 1280
929 2 993 990
930 4 1285 1281
931 4 997 991
932 4 1111 1106
933 4 1289 1284
934 4 1552 1549
935 4 1553 1549
936 3 1549 1546
937 4 996 991
938 1 991 990
939 4 1286 1281
940 2 992 990
941 4 1917 1912
942 7 2820 2819
943 7 2819 2818
944 4 1916 1912
945 4 391 386
946 3 225 222
947 2 693 691
948 7 2441 2440
949 2 695 691
950 2 694 691
951 1 692 691
952 4 697 692
953 4 698 692
954 7 2457 2456
955 6 2183 2180
956 4 2185 2181
957 7 2657 2656
958 5 2181 2180
959 4 1854 1849
960 4 229 225
961 4 230 225
962 4 701 696
963 3 696 692
964 4 700 696
965 4 704 699
966 4 703 699
967 3 699 696
968 4 707 702
969 3 702 699
970 4 706 702
971 3 705 702
972 4 709 705
973 4 710 705
974 4 90 87
975 7 2456 2455
976 4 2186 2181
977 4 228 225
978 3 87 84
979 4 92 87
980 4 390 386
981 4 1798 1793
982 7 2418 2417
983 3 788 784
984 4 792 788
985 2 787 783
986 6 2182 2180
987 4 793 788
988 3 2184 2181
989 4 2189 2184
990 6 1782 1780
991 6 1783 1780
992 4 1797 1793
993 4 1791 1787
994 4 2188 2184
995 2 533 530
996 3 794 791
997 7 2481 2480
998 7 2480 2479
999 4 799 794
1000 6 1983 1980
1001 4 1786 1781
1002 4 1788 1784
1003 4 1785 1781
1004 3 1787 1784
1005 3 1784 1781
1006 5 1781 1780
1007 4 1792 1787
1008 4 269 265
1009 4 539 535
1010 4 1789 1784
1011 3 1793 1790
1012 4 1801 1796
1013 3 1790 1787
1014 4 1794 1790
1015 4 1795 1790
1016 4 263 259
1017 3 742 738
1018 4 1989 1984
1019 7 2747 2746
1020 4 759 754
1021 4 758 754
1022 3 754 751
1023 4 1995 1990
1024 4 757 754
1025 4 1997 1993
1026 4 1919 1915
1027 3 1996 1993
1028 3 1999 1996
1029 4 2004 1999
1030 4 2002 1999
1031 4 2003 1999
1032 7 2409 2408
1033 7 2408 2407
1034 7 2709 2708
1035 7 2447 2446
1036 7 2448 2447
1037 2 258 254
1038 7 2445 2444
1039 7 2853 2852
1040 7 2852 2851
1041 4 750 745
1042 3 745 742
1043 4 743 738
1044 4 744 738
1045 1 738 737
1046 7 2727 2726
1047 7 2726 2725
1048 6 1532 1530
1049 2 739 737
1050 2 741 737
1051 2 740 737
1052 4 749 745
1053 4 746 742
1054 4 1547 1543
1055 3 1915 1912
1056 4 1548 1543
1057 3 1543 1540
1058 3 1849 1846
1059 7 2685 2684
1060 7 2684 2683
1061 4 1853 1849
1062 3 1912 1909
1063 4 1913 1909
1064 4 1550 1546
1065 4 1914 1909
1066 3 1909 1906
1067 4 1551 1546
1068 3 1546 1543
1069 5 1906 1905
1070 4 1910 1906
1071 4 1542 1537
1072 4 1541 1537
1073 3 1537 1534
1074 4 1544 1540
1075 3 1540 1537
1076 3 1534 1531
1077 6 1533 1530
1078 4 1536 1531
1079 5 1531 1530
1080 7 2364 2363
1081 3 386 383
1082 3 383 380
1083 4 388 383
1084 4 940 935
1085 4 939 935
1086 4 389 386
1087 4 942 938
1088 3 932 929
1089 4 937 932
1090 4 387 383
1091 4 1545 1540
1092 3 935 932
1093 4 941 938
1094 3 938 935
1095 4 1538 1534
1096 4 1539 1534
1097 4 943 938
1098 4 936 932
1099 4 1911 1906
1100 6 1907 1905
1101 7 2594 2593
1102 3 222 219
1103 4 226 222
1104 4 89 84
1105 4 88 84
1106 3 84 81
1107 3 1896 1893
1108 4 654 650
1109 4 1901 1896
1110 3 708 705
1111 4 712 708
1112 4 713 708
1113 4 1139 1134
1114 4 711 708
1115 7 2477 2476
1116 7 2798 2797
1117 7 2799 2798
1118 7 2471 2470
1119 7 2472 2471
1120 7 2337 2336
1121 7 2336 2335
1122 4 2276 2271
1123 4 1900 1896
1124 4 220 216
1125 4 2270 2265
1126 3 2268 2265
1127 4 2272 2268
1128 3 2265 2262
1129 7 2744 2743
1130 4 227 222
1131 7 2313 2312
1132 7 2751 2750
1133 4 224 219
1134 3 75 71
1135 4 79 75
1136 4 275 271
1137 4 273 268
1138 4 85 81
1139 3 268 265
1140 3 265 262
1141 3 81 78
1142 4 267 262
1143 3 259 255
1144 3 262 259
1145 4 266 262
1146 4 260 255
1147 7 2489 2488
1148 4 276 271
1149 4 274 271
1150 3 271 268
1151 4 272 268
1152 4 270 265
1153 7 2745 2744
1154 7 2750 2749
1155 4 2267 2262
1156 3 2262 2259
1157 4 2261 2256
1158 4 83 78
1159 4 2266 2262
1160 3 78 75
1161 4 77 71
1162 1 71 70
1163 7 2400 2399
1164 7 2670 2669
1165 7 2669 2668
1166 7 2436 2435
1167 2 72 70
1168 2 74 70
1169 7 2435 2434
1170 4 264 259
1171 7 2399 2398
1172 7 2393 2392
1173 7 2394 2393
1174 4 184 179
1175 4 182 179
1176 3 179 176
1177 3 176 173
1178 4 177 173
1179 7 2840 2839
1180 7 2841 2840
1181 6 1158 1155
1182 4 155 150
1183 7 2676 2675
1184 7 2444 2443
1185 4 261 255
1186 1 255 254
1187 7 2307 2306
1188 7 2306 2305
1189 2 257 254
1190 6 1957 1955
1191 4 183 179
1192 4 181 176
1193 7 2661 2660
1194 2 256 254
1195 7 2660 2659
1196 4 175 170
1197 7 2675 2674
1198 4 161 156
1199 6 1958 1955
1200 2 165 162
1201 2 164 162
1202 4 178 173
1203 3 173 170
1204 2 166 162
1205 7 2439 2438
1206 7 2438 2437
1207 4 172 167
1208 4 171 167
1209 7 2801 2800
1210 3 170 167
1211 4 169 163
1212 4 174 170
1213 3 167 163
1214 4 168 163
1215 1 163 162
1216 7 2490 2489
1217 4 1898 1893
1218 4 927 922
1219 2 649 645
1220 4 934 929
1221 4 1894 1890
1222 3 1893 1890
1223 2 647 645
1224 7 2723 2722
1225 7 2624 2623
1226 3 1890 1887
1227 3 926 922
1228 6 1883 1880
1229 4 1889 1884
1230 7 2625 2624
1231 2 923 921
1232 7 2411 2410
1233 4 930 926
1234 7 2724 2723
1235 7 2580 2579
1236 6 1732 1730
1237 4 928 922
1238 4 931 926
1239 2 648 645
1240 7 2478 2477
1241 2 924 921
1242 2 925 921
1243 4 1535 1531
1244 4 1891 1887
1245 4 1892 1887
1246 7 2363 2362
1247 3 929 926
1248 4 933 929
1249 3 1884 1881
1250 4 1886 1881
1251 6 1882 1880
1252 4 1885 1881
1253 7 2802 2801
1254 5 1881 1880
1255 1 922 921
1256 7 2579 2578
1257 3 1887 1884
1258 4 1888 1884
1259 4 1502 1499
1260 4 343 340
1261 4 344 340
1262 3 340 337
1263 7 2630 2629
1264 3 199 196
1265 4 42 38
1266 4 37 32
1267 4 204 199
1268 4 628 623
1269 4 634 630
1270 4 205 202
1271 7 2631 2630
1272 4 206 202
1273 4 345 340
1274 4 200 196
1275 1 623 622
1276 3 202 199
1277 4 207 202
1278 4 2242 2237
1279 4 2239 2234
1280 4 2238 2234
1281 4 2248 2243
1282 6 1132 1130
1283 3 32 29
1284 3 337 334
1285 4 36 32
1286 4 342 337
1287 4 31 25
1288 4 341 337
1289 3 1499 1496
1290 4 635 630
1291 4 629 623
1292 3 196 193
1293 4 642 639
1294 7 2760 2759
1295 4 1503 1499
1296 4 1504 1499
1297 4 2244 2240
1298 3 2237 2234
1299 3 2234 2231
1300 4 894 889
1301 4 2241 2237
1302 3 2240 2237
1303 4 2245 2240
1304 4 893 889
1305 3 889 886
1306 4 2236 2231
1307 5 2231 2230
1308 4 2235 2231
1309 4 839 834
1310 4 69 64
1311 4 65 61
1312 4 847 843
1313 4 841 837
1314 3 64 61
1315 4 67 64
1316 4 844 840
1317 3 840 837
1318 4 845 840
1319 4 974 968
1320 4 849 846
1321 4 66 61
1322 4 68 64
1323 3 61 58
1324 4 838 834
1325 3 837 834
1326 3 834 830
1327 4 848 843
1328 3 843 840
1329 4 851 846
1330 4 890 886
1331 4 887 883
1332 3 886 883
1333 3 883 880
1334 4 888 883
1335 4 459 455
1336 4 891 886
1337 4 842 837
1338 4 850 846
1339 3 846 843
1340 6 2232 2230
1341 7 2322 2321
1342 4 2247 2243
1343 4 980 975
1344 4 979 975
1345 4 986 981
1346 4 976 972
1347 3 975 972
1348 4 1169 1165
1349 3 972 968
1350 3 981 978
1351 3 978 975
1352 3 1165 1162
1353 4 985 981
1354 4 982 978
1355 4 983 978
1356 3 984 981
1357 4 989 984
1358 3 282 278
1359 4 286 282
1360 3 285 282
1361 4 988 984
1362 3 288 285
1363 7 2868 2867
1364 4 287 282
1365 4 293 288
1366 7 2867 2866
1367 4 292 288
1368 3 1162 1159
1369 4 1173 1168
1370 3 1168 1165
1371 4 1175 1171
1372 3 1171 1168
1373 4 1176 1171
1374 4 987 984
1375 4 299 294
1376 3 294 291
1377 4 2303 2299
1378 4 297 294
1379 4 1172 1168
1380 4 1170 1165
1381 4 1167 1162
1382 4 1163 1159
1383 4 1161 1156
1384 7 2810 2809
1385 7 2811 2810
1386 3 1159 1156
1387 4 1166 1162
1388 4 43 38
1389 3 38 35
1390 4 46 41
1391 3 630 627
1392 3 41 38
1393 4 641 636
1394 3 291 288
1395 4 2302 2299
1396 4 290 285
1397 4 2304 2299
1398 4 296 291
1399 7 2858 2857
1400 7 2859 2858
1401 4 434 429
1402 7 2790 2789
1403 7 2789 2788
1404 3 432 429
1405 4 435 432
1406 3 429 426
1407 4 437 432
1408 4 436 432
1409 4 638 633
1410 3 633 630
1411 3 636 633
1412 4 2301 2296
1413 4 39 35
1414 4 632 627
1415 4 431 426
1416 3 35 32
1417 4 40 35
1418 4 298 294
1419 3 2299 2296
1420 4 2297 2293
1421 3 2296 2293
1422 4 2294 2290
1423 3 2293 2290
1424 4 2300 2296
1425 4 289 285
1426 4 640 636
1427 6 1807 1805
1428 4 428 423
1429 4 453 449
1430 4 339 334
1431 2 28 24
1432 4 338 334
1433 3 334 331
1434 4 335 331
1435 3 331 328
1436 4 333 328
1437 3 328 324
1438 4 332 328
1439 1 324 323
1440 4 30 25
1441 2 26 24
1442 1 25 24
1443 4 330 324
1444 4 329 324
1445 2 327 323
1446 4 336 331
1447 7 2543 2542
1448 3 29 25
1449 4 34 29
1450 7 2544 2543
1451 7 2327 2326
1452 7 2360 2359
1453 7 2567 2566
1454 7 2568 2567
1455 2 326 323
1456 6 1558 1555
1457 6 1557 1555
1458 2 325 323
1459 7 2310 2309
1460 2 901 898
1461 2 900 898
1462 7 2309 2308
1463 4 1561 1556
1464 7 2843 2842
1465 7 2346 2345
1466 2 27 24
1467 7 2361 2360
1468 4 884 880
1469 3 880 876
1470 4 885 880
1471 4 458 455
1472 4 460 455
1473 3 455 452
1474 4 881 876
1475 1 876 875
1476 2 879 875
1477 2 877 875
1478 2 878 875
1479 4 882 876
1480 7 2694 2693
1481 6 1408 1405
1482 7 2328 2327
1483 4 1413 1409
1484 7 2615 2614
1485 4 1414 1409
1486 6 1407 1405
1487 5 1406 1405
1488 3 1409 1406
1489 4 1410 1406
1490 4 1411 1406
1491 7 2616 2615
1492 7 2513 2512
1493 7 2693 2692
1494 7 2862 2861
1495 7 2540 2539
1496 7 2861 2860
1497 4 2197 2193
1498 4 2201 2196
1499 3 800 797
1500 4 805 800
1501 4 8 2
1502 1 2 1
1503 3 6 2
1504 4 11 6
1505 2 3 1
1506 2 4 1
1507 4 10 6
1508 4 804 800
1509 7 2514 2513
1510 4 1416 1412
1511 3 797 794
1512 4 1179 1174
1513 4 1353 1349
1514 3 1174 1171
1515 4 1177 1174
1516 4 1178 1174
1517 4 1354 1349
1518 3 1349 1346
1519 4 1352 1349
1520 4 1127 1124
1521 3 1118 1115
1522 4 1122 1118
1523 3 567 564
1524 4 1123 1118
1525 4 572 567
1526 4 575 570
1527 3 570 567
1528 4 573 570
1529 4 1351 1346
1530 4 17 12
1531 4 1345 1340
1532 3 1124 1121
1533 3 1121 1118
1534 4 1126 1121
1535 3 1346 1343
1536 4 1350 1346
1537 4 1129 1124
1538 4 1128 1124
1539 4 1125 1121
1540 4 1035 1030
1541 4 1925 1921
1542 4 1922 1918
1543 3 1918 1915
1544 6 1108 1105
1545 6 2283 2280
1546 4 571 567
1547 3 1115 1112
1548 4 1120 1115
1549 4 1116 1112
1550 4 2295 2290
1551 3 2290 2287
1552 3 1112 1109
1553 5 1106 1105
1554 4 33 29
1555 4 2298 2293
1556 3 1109 1106
1557 4 1114 1109
1558 4 2291 2287
1559 3 2287 2284
1560 4 2288 2284
1561 4 2292 2287
1562 4 2289 2284
1563 3 2284 2281
1564 5 2281 2280
1565 4 2286 2281
1566 4 2285 2281
1567 4 1110 1106
1568 4 1113 1109
1569 4 1117 1112
1570 6 1107 1105
1571 2 902 898
1572 6 2282 2280
1573 4 1119 1115
1574 4 1032 1027
1575 4 1028 1024
1576 3 1024 1021
1577 3 1027 1024
1578 4 1029 1024
1579 2 1017 1013
1580 3 1018 1014
1581 4 1022 1018
1582 3 1021 1018
1583 4 1026 1021
1584 4 1020 1014
1585 1 1014 1013
1586 2 1015 1013
1587 4 565 561
1588 2 1016 1013
1589 4 1023 1018
1590 7 2619 2618
1591 7 2636 2635
1592 4 1560 1556
1593 5 1556 1555
1594 4 1566 1562
1595 3 1559 1556
1596 4 1564 1559
1597 1 899 898
1598 4 907 903
1599 3 903 899
1600 4 905 899
1601 3 1562 1559
1602 4 1567 1562
1603 4 1563 1559
1604 4 2198 2193
1605 4 2192 2187
1606 4 688 685
1607 4 1573 1568
1608 4 1578 1574
1609 4 1572 1568
1610 3 1568 1565
1611 3 1565 1562
1612 4 1575 1571
1613 4 1569 1565
1614 3 906 903
1615 4 911 906
1616 4 1570 1565
1617 4 917 912
1618 3 1571 1568
1619 4 913 909
1620 3 909 906
1621 3 1574 1571
1622 3 912 909
1623 4 920 915
1624 4 1577 1574
1625 4 689 685
1626 3 915 912
1627 7 2618 2617
1628 4 918 915
1629 4 1576 1571
1630 4 2177 2174
1631 3 685 682
1632 4 690 685
1633 4 2178 2174
1634 4 686 682
1635 7 2637 2636
1636 4 2200 2196
1637 3 2196 2193
1638 7 2541 2540
1639 3 2193 2190
1640 4 2194 2190
1641 3 2199 2196
1642 4 2204 2199
1643 4 2203 2199
1644 4 2202 2199
1645 3 2190 2187
1646 4 2195 2190
1647 3 2187 2184
1648 4 1804 1799
1649 4 7 2
1650 4 14 9
1651 4 801 797
1652 3 2174 2171
1653 3 682 679
1654 4 2179 2174
1655 3 2171 2168
1656 4 2175 2171
1657 4 2173 2168
1658 3 2168 2165
1659 4 680 676
1660 4 2169 2165
1661 3 676 673
1662 3 2165 2162
1663 4 2172 2168
1664 4 2176 2171
1665 3 679 676
1666 3 673 669
1667 4 684 679
1668 4 678 673
1669 4 677 673
1670 3 1799 1796
1671 4 1802 1799
1672 4 1803 1799
1673 4 1977 1974
1674 3 1971 1968
1675 4 1975 1971
1676 4 1976 1971
1677 3 1974 1971
1678 4 1979 1974
1679 4 1978 1974
1680 2 670 668
1681 4 798 794
1682 4 1800 1796
1683 4 683 679
1684 3 1796 1793
1685 4 2191 2187
1686 4 756 751
1687 4 755 751
1688 3 9 6
1689 4 13 9
1690 4 20 15
1691 4 16 12
1692 3 12 9
1693 4 22 18
1694 4 21 18
1695 3 15 12
1696 3 18 15
1697 4 1926 1921
1698 4 19 15
1699 3 1030 1027
1700 4 23 18
1701 3 1921 1918
1702 4 1033 1030
1703 4 1929 1924
1704 4 1927 1924
1705 3 1924 1921
1706 4 1034 1030
1707 4 1928 1924
1708 4 1967 1962
1709 4 1973 1968
1710 3 1968 1965
1711 4 1972 1968
1712 4 780 777
1713 4 1395 1390
1714 3 774 771
1715 4 779 774
1716 4 1401 1396
1717 4 778 774
1718 4 1400 1396
1719 3 1396 1393
1720 3 1399 1396
1721 4 753 748
1722 4 1391 1387
1723 3 1390 1387
1724 3 1387 1384
1725 3 1393 1390
1726 4 1397 1393
1727 4 1398 1393
1728 4 1392 1387
1729 4 747 742
1730 4 1403 1399
1731 4 1402 1399
1732 3 748 745
1733 4 752 748
1734 3 751 748
1735 4 1031 1027
1736 4 1025 1021
1737 4 1019 1014
1738 7 2715 2714
1739 7 2714 2713
1740 6 1908 1905
1741 4 904 899
1742 7 2612 2611
1743 7 2571 2570
1744 7 2570 2569
1745 7 2613 2612
1746 4 1404 1399
1747 4 1394 1390
1748 7 2376 2375
1749 7 2375 2374
1750 4 1042 1037
1751 1 1037 1036
1752 3 1044 1041
1753 2 1038 1036
1754 3 1041 1037
1755 4 1046 1041
1756 4 1052 1047
1757 4 1048 1044
1758 3 1047 1044
1759 4 1051 1047
1760 7 2732 2731
1761 4 1045 1041
1762 2 1039 1036
1763 4 1049 1044
1764 2 1040 1036
1765 4 1043 1037
1766 4 1388 1384
1767 7 2733 2732
1768 7 2672 2671
1769 4 1920 1915
1770 7 2574 2573
1771 7 2573 2572
1772 7 2312 2311
1773 7 2535 2534
1774 2 624 622
1775 4 1579 1574
1776 4 1322 1318
1777 4 1316 1312
1778 4 223 219
1779 3 219 216
1780 7 2666 2665
1781 4 1329 1324
1782 4 1327 1324
1783 3 1324 1321
1784 4 1323 1318
1785 4 1328 1324
1786 3 1318 1315
1787 3 1321 1318
1788 3 1315 1312
1789 4 1325 1321
1790 4 1326 1321
1791 7 2874 2873
1792 7 2667 2666
1793 4 1319 1315
1794 2 626 622
1795 7 2768 2767
1796 7 2873 2872
1797 4 1320 1315
1798 7 2759 2758
1799 3 1312 1309
1800 3 216 213
1801 4 1317 1312
1802 7 2769 2768
1803 4 215 209
1804 4 217 213
1805 4 221 216
1806 4 1945 1940
1807 2 625 622
1808 4 2170 2165
1809 3 2162 2159
1810 4 2166 2162
1811 4 2167 2162
1812 4 2163 2159
1813 3 2159 2156
1814 7 2603 2602
1815 4 214 209
1816 1 209 208
1817 3 213 209
1818 6 2233 2230
1819 7 2565 2564
1820 7 2321 2320
1821 2 210 208
1822 2 211 208
1823 7 2607 2606
1824 2 212 208
1825 7 2552 2551
1826 7 2553 2552
1827 6 2158 2155
1828 7 2507 2506
1829 7 2508 2507
1830 4 2164 2159
1831 4 218 213
1832 4 1313 1309
1833 3 1309 1306
1834 4 973 968
1835 7 2564 2563
1836 4 2160 2156
1837 6 2157 2155
1838 5 2156 2155
1839 4 2161 2156
1840 7 2519 2518
1841 2 969 967
1842 7 2520 2519
1843 7 2606 2605
1844 7 2604 2603
1845 4 1314 1309
1846 7 2498 2497
1847 4 977 972
1848 1 278 277
1849 4 1969 1965
1850 3 1962 1959
1851 3 1965 1962
1852 4 1966 1962
1853 4 1970 1965
1854 4 1961 1956
1855 4 2120 2115
1856 1 968 967
1857 4 1963 1959
1858 3 1959 1956
1859 4 1964 1959
1860 2 971 967
1861 2 970 967
1862 6 1157 1155
1863 7 2700 2699
1864 6 2107 2105
1865 6 2108 2105
1866 5 1956 1955
1867 4 1960 1956
1868 5 2106 2105
1869 4 2111 2106
1870 7 2627 2626
1871 4 283 278
1872 2 281 277
1873 2 279 277
1874 7 2699 2698
1875 4 2119 2115
1876 4 2110 2106
1877 4 2113 2109
1878 3 2109 2106
1879 2 280 277
1880 3 2112 2109
1881 4 2114 2109
1882 4 2117 2112
1883 4 2116 2112
1884 3 2115 2112
1885 7 2628 2627
1886 4 1091 1087
1887 7 2528 2527
1888 3 627 623
1889 7 2529 2528
1890 6 1808 1805
1891 4 2128 2124
1892 7 2534 2533
1893 7 2673 2672
1894 7 2333 2332
1895 7 2777 2776
1896 4 284 278
1897 7 2334 2333
1898 7 2814 2813
1899 4 631 627
1900 4 637 633
1901 7 2813 2812
1902 4 1938 1934
1903 4 1935 1931
1904 4 1942 1937
1905 4 1936 1931
1906 6 1932 1930
1907 4 1939 1934
1908 5 1931 1930
1909 3 1934 1931
1910 3 1937 1934
1911 4 1941 1937
1912 3 1940 1937
1913 4 1944 1940
1914 6 1933 1930
1915 4 1948 1943
1916 3 1943 1940
1917 4 1947 1943
1918 4 1811 1806
1919 7 2778 2777
1920 4 1810 1806
1921 5 1806 1805
1922 4 2129 2124
1923 3 2124 2121
1924 4 2126 2121
1925 7 2412 2411
1926 4 895 892
1927 4 896 892
1928 4 198 193
1929 4 203 199
1930 3 193 190
1931 4 197 193
1932 4 201 196
1933 3 518 515
1934 4 522 518
1935 4 520 515
1936 3 515 512
1937 3 521 518
1938 4 1528 1524
1939 4 526 521
1940 3 1524 1521
1941 4 195 190
1942 3 190 186
1943 4 523 518
1944 4 519 515
1945 4 516 512
1946 4 528 524
1947 4 1529 1524
1948 4 514 508
1949 4 1525 1521
1950 7 2397 2396
1951 4 1527 1524
1952 3 1521 1518
1953 4 1526 1521
1954 7 2396 2395
1955 4 1523 1518
1956 4 194 190
1957 4 191 186
1958 1 186 185
1959 4 192 186
1960 4 525 521
1961 3 524 521
1962 3 892 889
1963 4 2139 2134
1964 6 2133 2130
1965 3 1518 1515
1966 4 1522 1518
1967 4 897 892
1968 4 60 55
1969 7 2388 2387
1970 4 59 55
1971 3 52 48
1972 3 55 52
1973 4 53 48
1974 1 48 47
1975 7 2387 2386
1976 4 57 52
1977 2 49 47
1978 4 56 52
1979 2 50 47
1980 2 51 47
1981 4 54 48
1982 4 62 58
1983 4 2142 2137
1984 4 2151 2146
1985 3 58 55
1986 4 2144 2140
1987 4 63 58
1988 4 2135 2131
1989 3 2140 2137
1990 3 2143 2140
1991 5 2131 2130
1992 3 2146 2143
1993 3 2134 2131
1994 3 2137 2134
1995 4 2145 2140
1996 4 2141 2137
1997 4 2148 2143
1998 4 2138 2134
1999 4 2147 2143
2000 3 2149 2146
2001 4 2152 2149
2002 4 2153 2149
2003 3 1515 1512
2004 4 1520 1515
2005 4 1516 1512
2006 3 1512 1509
2007 4 1517 1512
2008 4 2150 2146
2009 4 136 133
2010 4 2154 2149
2011 4 1101 1096
2012 3 1096 1093
2013 4 1100 1096
2014 4 1097 1093
2015 3 1093 1090
2016 4 1104 1099
2017 4 134 130
2018 3 127 124
2019 3 1099 1096
2020 4 1103 1099
2021 4 1829 1824
2022 4 1102 1099
2023 3 130 127
2024 7 2711 2710
2025 3 124 121
2026 4 128 124
2027 4 1827 1824
2028 4 1828 1824
2029 3 1824 1821
2030 4 2226 2221
2031 4 2053 2049
2032 4 129 124
2033 3 121 117
2034 4 135 130
2035 4 1823 1818
2036 4 1098 1093
2037 3 133 130
2038 4 138 133
2039 3 2224 2221
2040 3 2221 2218
2041 4 2228 2224
2042 4 2225 2221
2043 4 2227 2224
2044 4 2229 2224
2045 4 2222 2218
2046 4 126 121
2047 4 132 127
2048 4 44 41
2049 4 1261 1256
2050 4 45 41
2051 2 119 116
2052 3 512 508
2053 7 2712 2711
2054 7 2558 2557
2055 1 117 116
2056 4 122 117
2057 7 2559 2558
2058 4 2220 2215
2059 4 2214 2209
2060 4 517 512
2061 7 2358 2357
2062 7 2357 2356
2063 7 2486 2485
2064 7 2487 2486
2065 4 513 508
2066 6 1258 1255
2067 2 509 507
2068 1 508 507
2069 4 2219 2215
2070 4 2213 2209
2071 2 120 116
2072 4 1263 1259
2073 5 1256 1255
2074 3 2218 2215
2075 4 123 117
2076 4 1260 1256
2077 3 2215 2212
2078 2 510 507
2079 2 511 507
2080 6 2008 2005
2081 3 2209 2206
2082 3 2212 2209
2083 6 2208 2205
2084 3 639 636
2085 4 643 639
2086 4 1464 1459
2087 3 403 400
2088 3 1465 1462
2089 7 2465 2464
2090 7 2466 2465
2091 2 187 185
2092 4 402 397
2093 3 1459 1456
2094 4 1466 1462
2095 6 1457 1455
2096 2 189 185
2097 2 188 185
2098 6 1458 1455
2099 5 1456 1455
2100 7 2469 2468
2101 4 1463 1459
2102 4 1461 1456
2103 2 395 392
2104 7 2844 2843
2105 4 401 397
2106 3 397 393
2107 4 1460 1456
2108 7 2468 2467
2109 7 2384 2383
2110 4 1470 1465
2111 7 2385 2384
2112 3 1462 1459
2113 6 1207 1205
2114 5 1206 1205
2115 4 1210 1206
2116 4 310 305
2117 4 1211 1206
2118 4 1214 1209
2119 6 1208 1205
2120 3 1209 1206
2121 4 1213 1209
2122 4 316 311
2123 4 407 403
2124 3 305 301
2125 2 304 300
2126 4 309 305
2127 7 2330 2329
2128 6 1508 1505
2129 4 1620 1615
2130 4 1514 1509
2131 4 1511 1506
2132 4 1519 1515
2133 3 1509 1506
2134 5 1506 1505
2135 7 2331 2330
2136 4 1513 1509
2137 6 1507 1505
2138 4 1510 1506
2139 7 2739 2738
2140 7 2738 2737
2141 7 2430 2429
2142 3 1615 1612
2143 4 1626 1621
2144 4 1625 1621
2145 4 1628 1624
2146 4 1442 1437
2147 3 1624 1621
2148 4 1448 1443
2149 3 1621 1618
2150 3 1618 1615
2151 1 301 300
2152 4 1619 1615
2153 4 1435 1431
2154 7 2429 2428
2155 2 302 300
2156 2 303 300
2157 4 307 301
2158 4 1610 1606
2159 5 1606 1605
2160 6 1433 1430
2161 4 1436 1431
2162 5 1431 1430
2163 4 1611 1606
2164 2 5 1
2165 4 1441 1437
2166 3 1437 1434
2167 4 1439 1434
2168 3 1434 1431
2169 4 1438 1434
2170 4 1613 1609
2171 4 1623 1618
2172 4 574 570
2173 4 1344 1340
2174 4 2028 2024
2175 3 1440 1437
2176 4 1444 1440
2177 4 1447 1443
2178 3 1443 1440
2179 4 1451 1446
2180 3 1446 1443
2181 4 1454 1449
2182 3 1449 1446
2183 4 1450 1446
2184 4 1453 1449
2185 4 1629 1624
2186 3 2024 2021
2187 3 2018 2015
2188 4 2020 2015
2189 4 1452 1449
2190 4 2029 2024
2191 4 2019 2015
2192 3 2015 2012
2193 4 2223 2218
2194 4 2023 2018
2195 3 2021 2018
2196 4 2027 2024
2197 3 1343 1340
2198 4 1347 1343
2199 4 246 242
2200 4 1445 1440
2201 4 247 242
2202 3 242 239
2203 3 245 242
2204 4 249 245
2205 3 1340 1337
2206 4 1348 1343
2207 4 735 731
2208 4 736 731
2209 4 250 245
2210 4 1342 1337
2211 3 731 728
2212 4 732 728
2213 4 734 731
2214 3 728 725
2215 3 725 722
2216 4 730 725
2217 4 729 725
2218 4 2025 2021
2219 7 2462 2461
2220 7 2406 2405
2221 4 404 400
2222 4 399 393
2223 2 394 392
2224 2 396 392
2225 4 2016 2012
2226 4 2017 2012
2227 3 2012 2009
2228 4 2014 2009
2229 4 568 564
2230 4 2210 2206
2231 5 2206 2205
2232 4 569 564
2233 3 564 561
2234 1 393 392
2235 6 2207 2205
2236 4 2216 2212
2237 4 2010 2006
2238 4 2211 2206
2239 4 2011 2006
2240 4 2217 2212
2241 6 2007 2005
2242 3 2009 2006
2243 5 2006 2005
2244 4 563 558
2245 7 2702 2701
2246 4 398 393
2247 4 562 558
2248 4 2013 2009
2249 7 2703 2702
2250 4 405 400
2251 3 400 397
2252 4 733 728
2253 4 726 722
2254 4 566 561
2255 3 561 558
2256 3 558 554
2257 4 559 554
2258 7 2589 2588
2259 7 2588 2587
2260 4 560 554
2261 1 554 553
2262 2 557 553
2263 2 556 553
2264 2 555 553
2265 7 2663 2662
2266 7 2405 2404
2267 4 908 903
2268 4 411 406
2269 4 910 906
2270 4 916 912
2271 4 914 909
2272 4 687 682
2273 4 315 311
2274 7 2601 2600
2275 3 314 311
2276 7 2600 2599
2277 3 1212 1209
2278 4 1217 1212
2279 4 1216 1212
2280 4 1220 1215
2281 3 1215 1212
2282 4 1219 1215
2283 3 311 308
2284 4 312 308
2285 3 308 305
2286 4 319 314
2287 4 306 301
2288 4 320 317
2289 4 358 354
2290 4 919 915
2291 3 1218 1215
2292 3 1221 1218
2293 4 1228 1224
2294 3 1224 1221
2295 4 353 347
2296 4 1225 1221
2297 4 1223 1218
2298 4 1226 1221
2299 4 352 347
2300 3 354 351
2301 1 347 346
2302 7 2831 2830
2303 4 1229 1224
2304 4 359 354
2305 3 351 347
2306 7 2832 2831
2307 2 349 346
2308 4 356 351
2309 3 317 314
2310 4 1222 1218
2311 4 321 317
2312 7 2522 2521
2313 4 681 676
2314 4 313 308
2315 7 2523 2522
2316 7 2772 2771
2317 7 2771 2770
2318 7 2381 2380
2319 7 2382 2381
2320 6 1608 1605
2321 7 2433 2432
2322 7 2390 2389
2323 7 2391 2390
2324 7 2849 2848
2325 6 1432 1430
2326 2 855 852
2327 1 853 852
2328 4 859 853
2329 4 858 853
2330 3 857 853
2331 2 854 852
2332 1 669 668
2333 7 2762 2761
2334 2 350 346
2335 2 348 346
2336 7 2432 2431
2337 7 2459 2458
2338 7 2460 2459
2339 7 2763 2762
2340 4 675 669
2341 4 861 857
2342 7 2850 2849
2343 2 672 668
2344 2 856 852
2345 7 2645 2644
2346 7 2646 2645
2347 7 2783 2782
2348 7 2784 2783
2349 2 671 668
2350 7 2402 2401
2351 2 488 484
2352 7 2582 2581
2353 4 1341 1337
2354 4 251 248
2355 4 1339 1334
2356 4 862 857
2357 6 1332 1330
2358 3 1337 1334
2359 3 248 245
2360 4 723 719
2361 5 1331 1330
2362 4 253 248
2363 4 1338 1334
2364 3 1334 1331
2365 4 1335 1331
2366 3 777 774
2367 4 782 777
2368 4 781 777
2369 6 1333 1330
2370 7 2403 2402
2371 7 2753 2752
2372 7 2420 2419
2373 4 775 771
2374 3 771 768
2375 4 1336 1331
2376 7 2754 2753
2377 4 772 768
2378 4 773 768
2379 3 768 765
2380 2 764 760
2381 1 761 760
2382 3 765 761
2383 4 766 761
2384 4 767 761
2385 4 769 765
2386 2 763 760
2387 2 486 484
2388 4 770 765
2389 2 762 760
2390 4 1385 1381
2391 7 2583 2582
2392 6 1757 1755
2393 2 717 714
2394 2 716 714
2395 4 1761 1756
2396 3 722 719
2397 4 724 719
2398 3 719 715
2399 4 727 722
2400 4 1386 1381
2401 4 721 715
2402 1 715 714
2403 7 2664 2663
2404 4 720 715
2405 7 2651 2650
2406 7 2652 2651
2407 6 1382 1380
2408 7 2870 2869
2409 7 2871 2870
2410 7 2756 2755
2411 4 1227 1224
2412 4 1389 1384
2413 5 1381 1380
2414 3 1384 1381
2415 4 2127 2124
2416 4 1057 1053
2417 3 1050 1047
2418 4 1054 1050
2419 7 2474 2473
2420 6 1383 1380
2421 7 2757 2756
2422 7 2475 2474
2423 4 1055 1050
2424 4 2061 2056
2425 4 1056 1053
2426 6 2058 2055
2427 3 1053 1050
2428 4 1058 1053
2429 4 1253 1249
2430 4 2060 2056
2431 5 2056 2055
2432 4 2103 2099
2433 4 2102 2099
2434 4 2104 2099
2435 3 2099 2096
2436 4 355 351
2437 4 1311 1306
2438 4 1310 1306
2439 5 1306 1305
2440 4 1277 1274
2441 4 1279 1274
2442 4 527 524
2443 4 529 524
2444 4 2088 2084
2445 3 1274 1271
2446 4 1278 1274
2447 4 2101 2096
2448 4 2100 2096
2449 4 2085 2081
2450 4 2098 2093
2451 4 2097 2093
2452 3 2096 2093
2453 3 2093 2090
2454 4 2095 2090
2455 3 2084 2081
2456 4 2094 2090
2457 4 2091 2087
2458 4 2092 2087
2459 3 2087 2084
2460 3 2090 2087
2461 4 2086 2081
2462 7 2642 2641
2463 7 2643 2642
2464 5 2081 2080
2465 4 2089 2084
2466 6 2083 2080
2467 6 2132 2130
2468 4 496 492
2469 4 674 669
2470 7 2795 2794
2471 6 1307 1305
2472 7 2796 2795
2473 6 2033 2030
2474 4 2035 2031
2475 6 2032 2030
2476 4 813 807
2477 6 2082 2080
2478 7 2835 2834
2479 7 2325 2324
2480 7 2499 2498
2481 7 2324 2323
2482 7 2847 2846
2483 2 809 806
2484 2 810 806
2485 6 1308 1305
2486 7 2834 2833
2487 7 2846 2845
2488 7 2681 2680
2489 7 2682 2681
2490 2 808 806
2491 4 2136 2131
2492 5 2031 2030
2493 7 2505 2504
2494 7 2504 2503
2495 4 2036 2031
2496 4 2042 2037
2497 3 2034 2031
2498 4 1089 1083
2499 3 2037 2034
2500 4 2038 2034
2501 4 1088 1083
2502 4 2044 2040
2503 1 485 484
2504 4 1822 1818
2505 4 490 485
2506 7 2421 2420
2507 4 2048 2043
2508 4 776 771
2509 6 1232 1230
2510 6 1233 1230
2511 4 2045 2040
2512 4 1095 1090
2513 2 1084 1082
2514 4 2052 2049
2515 4 2041 2037
2516 3 2040 2037
2517 4 1094 1090
2518 1 1083 1082
2519 4 2039 2034
2520 3 2049 2046
2521 3 1090 1087
2522 2 1086 1082
2523 3 2046 2043
2524 3 2043 2040
2525 4 2047 2043
2526 3 1087 1083
2527 4 1092 1087
2528 2 1085 1082
2529 4 1238 1234
2530 4 1817 1812
2531 3 1815 1812
2532 4 2123 2118
2533 3 2118 2115
2534 4 2122 2118
2535 4 2050 2046
2536 4 2054 2049
2537 3 1818 1815
2538 3 1821 1818
2539 7 2315 2314
2540 7 2316 2315
2541 4 1826 1821
2542 3 1234 1231
2543 5 1231 1230
2544 4 1825 1821
2545 4 1820 1815
2546 4 1235 1231
2547 4 1236 1231
2548 4 2051 2046
2549 3 1809 1806
2550 4 1244 1240
2551 3 1271 1268
2552 4 1270 1265
2553 4 1273 1268
2554 4 1814 1809
2555 3 1268 1265
2556 4 1264 1259
2557 4 1250 1246
2558 3 1240 1237
2559 4 1251 1246
2560 4 1242 1237
2561 4 1252 1249
2562 4 1248 1243
2563 3 1249 1246
2564 3 1946 1943
2565 4 1254 1249
2566 4 1813 1809
2567 3 1237 1234
2568 3 1812 1809
2569 4 1241 1237
2570 4 1819 1815
2571 4 1266 1262
2572 4 1239 1234
2573 4 1816 1812
2574 3 2121 2118
2575 4 2125 2121
2576 4 1247 1243
2577 3 1259 1256
2578 4 1267 1262
2579 4 644 639
2580 4 1245 1240
2581 3 1262 1259
2582 4 1269 1265
2583 4 1272 1268
2584 3 1265 1262
2585 3 1246 1243
2586 4 1953 1949
2587 4 1954 1949
2588 3 1949 1946
2589 4 1951 1946
2590 4 1950 1946
2591 3 1243 1240
2592 4 1952 1949

Angles

1 5 613 616 619
2 5 613 616 620
3 5 613 616 621
4 6 619 616 620
5 6 619 616 621
6 6 620 616 621
7 12 2377 2378 2379
8 5 1146 1149 1152
9 5 1146 1149 1153
10 5 1146 1149 1154
11 6 1152 1149 1153
12 6 1152 1149 1154
13 6 1153 1149 1154
14 7 610 613 616
15 5 610 613 617
16 5 610 613 618
17 5 616 613 617
18 5 616 613 618
19 6 617 613 618
20 7 1637 1640 1643
21 5 1637 1640 1644
22 5 1637 1640 1645
23 5 1643 1640 1644
24 5 1643 1640 1645
25 6 1644 1640 1645
26 7 1643 1646 1649
27 5 1643 1646 1650
28 5 1643 1646 1651
29 5 1649 1646 1650
30 5 1649 1646 1651
31 6 1650 1646 1651
32 7 1143 1146 1149
33 5 1143 1146 1150
34 5 1143 1146 1151
35 5 1149 1146 1150
36 5 1149 1146 1151
37 6 1150 1146 1151
38 5 1646 1649 1652
39 5 1646 1649 1653
40 5 1646 1649 1654
41 6 1652 1649 1653
42 6 1652 1649 1654
43 6 1653 1649 1654
44 7 607 610 613
45 5 607 610 614
46 5 607 610 615
47 5 613 610 614
48 5 613 610 615
49 6 614 610 615
50 7 1640 1643 1646
51 5 1640 1643 1647
52 5 1640 1643 1648
53 5 1646 1643 1647
54 5 1646 1643 1648
55 6 1647 1643 1648
56 7 1634 1637 1640
57 5 1634 1637 1641
58 5 1634 1637 1642
59 5 1640 1637 1641
60 5 1640 1637 1642
61 6 1641 1637 1642
62 7 1631 1634 1637
63 5 1631 1634 1638
64 5 1631 1634 1639
65 5 1637 1634 1638
66 5 1637 1634 1639
67 6 1638 1634 1639
68 7 600 604 607
69 5 600 604 608
70 5 600 604 609
71 5 607 604 608
72 5 607 604 609
73 6 608 604 609
74 7 604 607 610
75 5 604 607 611
76 5 604 607 612
77 5 610 607 611
78 5 610 607 612
79 6 611 607 612
80 1 600 599 601
81 1 600 599 602
82 1 600 599 603
83 2 601 599 602
84 2 601 599 603
85 2 602 599 603
86 3 599 600 604
87 4 599 600 605
88 4 599 600 606
89 5 604 600 605
90 5 604 600 606
91 6 605 600 606
92 1 462 461 463
93 1 462 461 464
94 1 462 461 465
95 2 463 461 464
96 2 463 461 465
97 2 464 461 465
98 3 461 462 466
99 4 461 462 467
100 4 461 462 468
101 5 466 462 467
102 5 466 462 468
103 6 467 462 468
104 12 2653 2654 2655
105 12 2317 2318 2319
106 8 1706 1705 1707
107 8 1706 1705 1708
108 9 1707 1705 1708
109 10 1855 1856 1859
110 11 1855 1856 1860
111 11 1855 1856 1861
112 5 1859 1856 1860
113 5 1859 1856 1861
114 6 1860 1856 1861
115 8 1856 1855 1857
116 8 1856 1855 1858
117 9 1857 1855 1858
118 12 2422 2423 2424
119 12 2779 2780 2781
120 12 2863 2864 2865
121 10 1705 1706 1709
122 11 1705 1706 1710
123 11 1705 1706 1711
124 5 1709 1706 1710
125 5 1709 1706 1711
126 6 1710 1706 1711
127 7 1706 1709 1712
128 5 1706 1709 1713
129 5 1706 1709 1714
130 5 1712 1709 1713
131 5 1712 1709 1714
132 6 1713 1709 1714
133 12 2686 2687 2688
134 7 144 147 150
135 5 144 147 151
136 5 144 147 152
137 5 150 147 151
138 5 150 147 152
139 6 151 147 152
140 7 150 153 156
141 5 150 153 157
142 5 150 153 158
143 5 156 153 157
144 5 156 153 158
145 6 157 153 158
146 12 2806 2807 2808
147 7 94 98 101
148 5 94 98 102
149 5 94 98 103
150 5 101 98 102
151 5 101 98 103
152 6 102 98 103
153 7 98 101 104
154 5 98 101 105
155 5 98 101 106
156 5 104 101 105
157 5 104 101 106
158 6 105 101 106
159 7 147 150 153
160 5 147 150 154
161 5 147 150 155
162 5 153 150 154
163 5 153 150 155
164 6 154 150 155
165 3 93 94 98
166 4 93 94 99
167 4 93 94 100
168 5 98 94 99
169 5 98 94 100
170 6 99 94 100
171 12 2695 2696 2697
172 12 2740 2741 2742
173 12 2584 2585 2586
174 12 2719 2720 2721
175 7 140 144 147
176 5 140 144 148
177 5 140 144 149
178 5 147 144 148
179 5 147 144 149
180 6 148 144 149
181 1 94 93 95
182 1 94 93 96
183 1 94 93 97
184 2 95 93 96
185 2 95 93 97
186 2 96 93 97
187 12 2791 2792 2793
188 12 2341 2342 2343
189 12 2524 2525 2526
190 12 2824 2825 2826
191 12 2452 2453 2454
192 12 2338 2339 2340
193 8 1581 1580 1582
194 8 1581 1580 1583
195 9 1582 1580 1583
196 8 1181 1180 1182
197 8 1181 1180 1183
198 9 1182 1180 1183
199 12 2449 2450 2451
200 10 1580 1581 1584
201 11 1580 1581 1585
202 11 1580 1581 1586
203 5 1584 1581 1585
204 5 1584 1581 1586
205 6 1585 1581 1586
206 7 1581 1584 1587
207 5 1581 1584 1588
208 5 1581 1584 1589
209 5 1587 1584 1588
210 5 1587 1584 1589
211 6 1588 1584 1589
212 12 2545 2546 2547
213 5 1871 1874 1877
214 5 1871 1874 1878
215 5 1871 1874 1879
216 6 1877 1874 1878
217 6 1877 1874 1879
218 6 1878 1874 1879
219 7 1868 1871 1874
220 5 1868 1871 1875
221 5 1868 1871 1876
222 5 1874 1871 1875
223 5 1874 1871 1876
224 6 1875 1871 1876
225 7 1865 1868 1871
226 5 1865 1868 1872
227 5 1865 1868 1873
228 5 1871 1868 1872
229 5 1871 1868 1873
230 6 1872 1868 1873
231 5 590 593 596
232 5 590 593 597
233 5 590 593 598
234 6 596 593 597
235 6 596 593 598
236 6 597 593 598
237 7 1862 1865 1868
238 5 1862 1865 1869
239 5 1862 1865 1870
240 5 1868 1865 1869
241 5 1868 1865 1870
242 6 1869 1865 1870
243 7 1465 1468 1471
244 5 1465 1468 1472
245 5 1465 1468 1473
246 5 1471 1468 1472
247 5 1471 1468 1473
248 6 1472 1468 1473
249 5 1196 1199 1202
250 5 1196 1199 1203
251 5 1196 1199 1204
252 6 1202 1199 1203
253 6 1202 1199 1204
254 6 1203 1199 1204
255 7 1684 1687 1690
256 5 1684 1687 1691
257 5 1684 1687 1692
258 5 1690 1687 1691
259 5 1690 1687 1692
260 6 1691 1687 1692
261 7 587 590 593
262 5 587 590 594
263 5 587 590 595
264 5 593 590 594
265 5 593 590 595
266 6 594 590 595
267 7 584 587 590
268 5 584 587 591
269 5 584 587 592
270 5 590 587 591
271 5 590 587 592
272 6 591 587 592
273 7 1687 1690 1693
274 5 1687 1690 1694
275 5 1687 1690 1695
276 5 1693 1690 1694
277 5 1693 1690 1695
278 6 1694 1690 1695
279 7 581 584 587
280 5 581 584 588
281 5 581 584 589
282 5 587 584 588
283 5 587 584 589
284 6 588 584 589
285 7 577 581 584
286 5 577 581 585
287 5 577 581 586
288 5 584 581 585
289 5 584 581 586
290 6 585 581 586
291 7 1859 1862 1865
292 5 1859 1862 1866
293 5 1859 1862 1867
294 5 1865 1862 1866
295 5 1865 1862 1867
296 6 1866 1862 1867
297 7 1856 1859 1862
298 5 1856 1859 1863
299 5 1856 1859 1864
300 5 1862 1859 1863
301 5 1862 1859 1864
302 6 1863 1859 1864
303 5 1471 1474 1477
304 5 1471 1474 1478
305 5 1471 1474 1479
306 6 1477 1474 1478
307 6 1477 1474 1479
308 6 1478 1474 1479
309 12 2704 2705 2706
310 7 1468 1471 1474
311 5 1468 1471 1475
312 5 1468 1471 1476
313 5 1474 1471 1475
314 5 1474 1471 1476
315 6 1475 1471 1476
316 12 2371 2372 2373
317 12 2347 2348 2349
318 12 2647 2648 2649
319 1 577 576 578
320 1 577 576 579
321 1 577 576 580
322 2 578 576 579
323 2 578 576 580
324 2 579 576 580
325 3 576 577 581
326 4 576 577 582
327 4 576 577 583
328 5 581 577 582
329 5 581 577 583
330 6 582 577 583
331 7 1609 1612 1615
332 5 1609 1612 1616
333 5 1609 1612 1617
334 5 1615 1612 1616
335 5 1615 1612 1617
336 6 1616 1612 1617
337 12 2500 2501 2502
338 12 2365 2366 2367
339 7 1606 1609 1612
340 5 1606 1609 1613
341 5 1606 1609 1614
342 5 1612 1609 1613
343 5 1612 1609 1614
344 6 1613 1609 1614
345 12 2638 2639 2640
346 1 232 231 233
347 1 232 231 234
348 1 232 231 235
349 2 233 231 234
350 2 233 231 235
351 2 234 231 235
352 8 1656 1655 1657
353 8 1656 1655 1658
354 9 1657 1655 1658
355 12 2536 2537 2538
356 3 231 232 236
357 4 231 232 237
358 4 231 232 238
359 5 236 232 237
360 5 236 232 238
361 6 237 232 238
362 7 232 236 239
363 5 232 236 240
364 5 232 236 241
365 5 239 236 240
366 5 239 236 241
367 6 240 236 241
368 1 1060 1059 1061
369 1 1060 1059 1062
370 1 1060 1059 1063
371 2 1061 1059 1062
372 2 1061 1059 1063
373 2 1062 1059 1063
374 3 1059 1060 1064
375 4 1059 1060 1065
376 4 1059 1060 1066
377 5 1064 1060 1065
378 5 1064 1060 1066
379 6 1065 1060 1066
380 7 1060 1064 1067
381 5 1060 1064 1068
382 5 1060 1064 1069
383 5 1067 1064 1068
384 5 1067 1064 1069
385 6 1068 1064 1069
386 7 1064 1067 1070
387 5 1064 1067 1071
388 5 1064 1067 1072
389 5 1070 1067 1071
390 5 1070 1067 1072
391 6 1071 1067 1072
392 7 236 239 242
393 5 236 239 243
394 5 236 239 244
395 5 242 239 243
396 5 242 239 244
397 6 243 239 244
398 12 2350 2351 2352
399 12 2575 2576 2577
400 10 1180 1181 1184
401 11 1180 1181 1185
402 11 1180 1181 1186
403 5 1184 1181 1185
404 5 1184 1181 1186
405 6 1185 1181 1186
406 7 1067 1070 1073
407 5 1067 1070 1074
408 5 1067 1070 1075
409 5 1073 1070 1074
410 5 1073 1070 1075
411 6 1074 1070 1075
412 5 1004 1007 1010
413 5 1004 1007 1011
414 5 1004 1007 1012
415 6 1010 1007 1011
416 6 1010 1007 1012
417 6 1011 1007 1012
418 7 1001 1004 1007
419 5 1001 1004 1008
420 5 1001 1004 1009
421 5 1007 1004 1008
422 5 1007 1004 1009
423 6 1008 1004 1009
424 7 1193 1196 1199
425 5 1193 1196 1200
426 5 1193 1196 1201
427 5 1199 1196 1200
428 5 1199 1196 1201
429 6 1200 1196 1201
430 7 1181 1184 1187
431 5 1181 1184 1188
432 5 1181 1184 1189
433 5 1187 1184 1188
434 5 1187 1184 1189
435 6 1188 1184 1189
436 7 1184 1187 1190
437 5 1184 1187 1191
438 5 1184 1187 1192
439 5 1190 1187 1191
440 5 1190 1187 1192
441 6 1191 1187 1192
442 7 1190 1193 1196
443 5 1190 1193 1197
444 5 1190 1193 1198
445 5 1196 1193 1197
446 5 1196 1193 1198
447 6 1197 1193 1198
448 7 1187 1190 1193
449 5 1187 1190 1194
450 5 1187 1190 1195
451 5 1193 1190 1194
452 5 1193 1190 1195
453 6 1194 1190 1195
454 5 1073 1076 1079
455 5 1073 1076 1080
456 5 1073 1076 1081
457 6 1079 1076 1080
458 6 1079 1076 1081
459 6 1080 1076 1081
460 8 1831 1830 1832
461 8 1831 1830 1833
462 9 1832 1830 1833
463 10 1830 1831 1834
464 11 1830 1831 1835
465 11 1830 1831 1836
466 5 1834 1831 1835
467 5 1834 1831 1836
468 6 1835 1831 1836
469 7 1831 1834 1837
470 5 1831 1834 1838
471 5 1831 1834 1839
472 5 1837 1834 1838
473 5 1837 1834 1839
474 6 1838 1834 1839
475 7 1834 1837 1840
476 5 1834 1837 1841
477 5 1834 1837 1842
478 5 1840 1837 1841
479 5 1840 1837 1842
480 6 1841 1837 1842
481 7 1837 1840 1843
482 5 1837 1840 1844
483 5 1837 1840 1845
484 5 1843 1840 1844
485 5 1843 1840 1845
486 6 1844 1840 1845
487 7 1843 1846 1849
488 5 1843 1846 1850
489 5 1843 1846 1851
490 5 1849 1846 1850
491 5 1849 1846 1851
492 6 1850 1846 1851
493 7 403 406 409
494 5 403 406 410
495 5 403 406 411
496 5 409 406 410
497 5 409 406 411
498 6 410 406 411
499 7 1690 1693 1696
500 5 1690 1693 1697
501 5 1690 1693 1698
502 5 1696 1693 1697
503 5 1696 1693 1698
504 6 1697 1693 1698
505 7 1693 1696 1699
506 5 1693 1696 1700
507 5 1693 1696 1701
508 5 1699 1696 1700
509 5 1699 1696 1701
510 6 1700 1696 1701
511 5 406 409 412
512 5 406 409 413
513 5 406 409 414
514 6 412 409 413
515 6 412 409 414
516 6 413 409 414
517 5 1696 1699 1702
518 5 1696 1699 1703
519 5 1696 1699 1704
520 6 1702 1699 1703
521 6 1702 1699 1704
522 6 1703 1699 1704
523 7 2068 2071 2074
524 5 2068 2071 2075
525 5 2068 2071 2076
526 5 2074 2071 2075
527 5 2074 2071 2076
528 6 2075 2071 2076
529 7 2065 2068 2071
530 5 2065 2068 2072
531 5 2065 2068 2073
532 5 2071 2068 2072
533 5 2071 2068 2073
534 6 2072 2068 2073
535 5 2071 2074 2077
536 5 2071 2074 2078
537 5 2071 2074 2079
538 6 2077 2074 2078
539 6 2077 2074 2079
540 6 2078 2074 2079
541 7 2062 2065 2068
542 5 2062 2065 2069
543 5 2062 2065 2070
544 5 2068 2065 2069
545 5 2068 2065 2070
546 6 2069 2065 2070
547 12 2416 2417 2418
548 12 2353 2354 2355
549 12 2827 2828 2829
550 12 2785 2786 2787
551 1 531 530 532
552 1 531 530 533
553 1 531 530 534
554 2 532 530 533
555 2 532 530 534
556 2 533 530 534
557 3 530 531 535
558 4 530 531 536
559 4 530 531 537
560 5 535 531 536
561 5 535 531 537
562 6 536 531 537
563 7 857 860 863
564 5 857 860 864
565 5 857 860 865
566 5 863 860 864
567 5 863 860 865
568 6 864 860 865
569 12 2620 2621 2622
570 12 2875 2876 2877
571 12 2728 2729 2730
572 12 2425 2426 2427
573 7 538 541 544
574 5 538 541 545
575 5 538 541 546
576 5 544 541 545
577 5 544 541 546
578 6 545 541 546
579 7 531 535 538
580 5 531 535 539
581 5 531 535 540
582 5 538 535 539
583 5 538 535 540
584 6 539 535 540
585 7 535 538 541
586 5 535 538 542
587 5 535 538 543
588 5 541 538 542
589 5 541 538 543
590 6 542 538 543
591 7 492 495 498
592 5 492 495 499
593 5 492 495 500
594 5 498 495 499
595 5 498 495 500
596 6 499 495 500
597 7 541 544 547
598 5 541 544 548
599 5 541 544 549
600 5 547 544 548
601 5 547 544 549
602 6 548 544 549
603 12 2734 2735 2736
604 7 863 866 869
605 5 863 866 870
606 5 863 866 871
607 5 869 866 870
608 5 869 866 871
609 6 870 866 871
610 12 2548 2549 2550
611 12 2803 2804 2805
612 12 2773 2774 2775
613 12 2494 2495 2496
614 7 485 489 492
615 5 485 489 493
616 5 485 489 494
617 5 492 489 493
618 5 492 489 494
619 6 493 489 494
620 7 860 863 866
621 5 860 863 867
622 5 860 863 868
623 5 866 863 867
624 5 866 863 868
625 6 867 863 868
626 5 866 869 872
627 5 866 869 873
628 5 866 869 874
629 6 872 869 873
630 6 872 869 874
631 6 873 869 874
632 12 2491 2492 2493
633 12 2878 2879 2880
634 10 1755 1756 1759
635 11 1755 1756 1760
636 11 1755 1756 1761
637 5 1759 1756 1760
638 5 1759 1756 1761
639 6 1760 1756 1761
640 8 1756 1755 1757
641 8 1756 1755 1758
642 9 1757 1755 1758
643 12 2554 2555 2556
644 12 2815 2816 2817
645 12 2707 2708 2709
646 12 2854 2855 2856
647 7 1840 1843 1846
648 5 1840 1843 1847
649 5 1840 1843 1848
650 5 1846 1843 1847
651 5 1846 1843 1848
652 6 1847 1843 1848
653 12 2689 2690 2691
654 7 1756 1759 1762
655 5 1756 1759 1763
656 5 1756 1759 1764
657 5 1762 1759 1763
658 5 1762 1759 1764
659 6 1763 1759 1764
660 7 1759 1762 1765
661 5 1759 1762 1766
662 5 1759 1762 1767
663 5 1765 1762 1766
664 5 1765 1762 1767
665 6 1766 1762 1767
666 7 2056 2059 2062
667 5 2056 2059 2063
668 5 2056 2059 2064
669 5 2062 2059 2063
670 5 2062 2059 2064
671 6 2063 2059 2064
672 1 370 369 371
673 1 370 369 372
674 1 370 369 373
675 2 371 369 372
676 2 371 369 373
677 2 372 369 373
678 3 369 370 374
679 4 369 370 375
680 4 369 370 376
681 5 374 370 375
682 5 374 370 376
683 6 375 370 376
684 7 2059 2062 2065
685 5 2059 2062 2066
686 5 2059 2062 2067
687 5 2065 2062 2066
688 5 2065 2062 2067
689 6 2066 2062 2067
690 7 370 374 377
691 5 370 374 378
692 5 370 374 379
693 5 377 374 378
694 5 377 374 379
695 6 378 374 379
696 7 374 377 380
697 5 374 377 381
698 5 374 377 382
699 5 380 377 381
700 5 380 377 382
701 6 381 377 382
702 7 377 380 383
703 5 377 380 384
704 5 377 380 385
705 5 383 380 384
706 5 383 380 385
707 6 384 380 385
708 8 2056 2055 2057
709 8 2056 2055 2058
710 9 2057 2055 2058
711 7 354 357 360
712 5 354 357 361
713 5 354 357 362
714 5 360 357 361
715 5 360 357 362
716 6 361 357 362
717 7 357 360 363
718 5 357 360 364
719 5 357 360 365
720 5 363 360 364
721 5 363 360 365
722 6 364 360 365
723 5 360 363 366
724 5 360 363 367
725 5 360 363 368
726 6 366 363 367
727 6 366 363 368
728 6 367 363 368
729 5 820 823 826
730 5 820 823 827
731 5 820 823 828
732 6 826 823 827
733 6 826 823 828
734 6 827 823 828
735 7 656 659 662
736 5 656 659 663
737 5 656 659 664
738 5 662 659 663
739 5 662 659 664
740 6 663 659 664
741 7 650 653 656
742 5 650 653 657
743 5 650 653 658
744 5 656 653 657
745 5 656 653 658
746 6 657 653 658
747 5 659 662 665
748 5 659 662 666
749 5 659 662 667
750 6 665 662 666
751 6 665 662 667
752 6 666 662 667
753 7 653 656 659
754 5 653 656 660
755 5 653 656 661
756 5 659 656 660
757 5 659 656 661
758 6 660 656 661
759 5 2271 2274 2277
760 5 2271 2274 2278
761 5 2271 2274 2279
762 6 2277 2274 2278
763 6 2277 2274 2279
764 6 2278 2274 2279
765 7 646 650 653
766 5 646 650 654
767 5 646 650 655
768 5 653 650 654
769 5 653 650 655
770 6 654 650 655
771 10 1630 1631 1634
772 11 1630 1631 1635
773 11 1630 1631 1636
774 5 1634 1631 1635
775 5 1634 1631 1636
776 6 1635 1631 1636
777 7 814 817 820
778 5 814 817 821
779 5 814 817 822
780 5 820 817 821
781 5 820 817 822
782 6 821 817 822
783 7 817 820 823
784 5 817 820 824
785 5 817 820 825
786 5 823 820 824
787 5 823 820 825
788 6 824 820 825
789 5 1896 1899 1902
790 5 1896 1899 1903
791 5 1896 1899 1904
792 6 1902 1899 1903
793 6 1902 1899 1904
794 6 1903 1899 1904
795 7 2268 2271 2274
796 5 2268 2271 2275
797 5 2268 2271 2276
798 5 2274 2271 2275
799 5 2274 2271 2276
800 6 2275 2271 2276
801 3 806 807 811
802 4 806 807 812
803 4 806 807 813
804 5 811 807 812
805 5 811 807 813
806 6 812 807 813
807 7 489 492 495
808 5 489 492 496
809 5 489 492 497
810 5 495 492 496
811 5 495 492 497
812 6 496 492 497
813 7 495 498 501
814 5 495 498 502
815 5 495 498 503
816 5 501 498 502
817 5 501 498 503
818 6 502 498 503
819 5 544 547 550
820 5 544 547 551
821 5 544 547 552
822 6 550 547 551
823 6 550 547 552
824 6 551 547 552
825 8 1631 1630 1632
826 8 1631 1630 1633
827 9 1632 1630 1633
828 7 807 811 814
829 5 807 811 815
830 5 807 811 816
831 5 814 811 815
832 5 814 811 816
833 6 815 811 816
834 7 811 814 817
835 5 811 814 818
836 5 811 814 819
837 5 817 814 818
838 5 817 814 819
839 6 818 814 819
840 12 2515 2516 2517
841 12 2413 2414 2415
842 12 2596 2597 2598
843 5 498 501 504
844 5 498 501 505
845 5 498 501 506
846 6 504 501 505
847 6 504 501 506
848 6 505 501 506
849 12 2530 2531 2532
850 12 2608 2609 2610
851 5 1721 1724 1727
852 5 1721 1724 1728
853 5 1721 1724 1729
854 6 1727 1724 1728
855 6 1727 1724 1729
856 6 1728 1724 1729
857 7 1709 1712 1715
858 5 1709 1712 1716
859 5 1709 1712 1717
860 5 1715 1712 1716
861 5 1715 1712 1717
862 6 1716 1712 1717
863 7 1712 1715 1718
864 5 1712 1715 1719
865 5 1712 1715 1720
866 5 1718 1715 1719
867 5 1718 1715 1720
868 6 1719 1715 1720
869 7 1715 1718 1721
870 5 1715 1718 1722
871 5 1715 1718 1723
872 5 1721 1718 1722
873 5 1721 1718 1723
874 6 1722 1718 1723
875 7 1718 1721 1724
876 5 1718 1721 1725
877 5 1718 1721 1726
878 5 1724 1721 1725
879 5 1724 1721 1726
880 6 1725 1721 1726
881 5 153 156 159
882 5 153 156 160
883 5 153 156 161
884 6 159 156 160
885 6 159 156 161
886 6 160 156 161
887 7 101 104 107
888 5 101 104 108
889 5 101 104 109
890 5 107 104 108
891 5 107 104 109
892 6 108 104 109
893 7 104 107 110
894 5 104 107 111
895 5 104 107 112
896 5 110 107 111
897 5 110 107 112
898 6 111 107 112
899 5 107 110 113
900 5 107 110 114
901 5 107 110 115
902 6 113 110 114
903 6 113 110 115
904 6 114 110 115
905 5 1371 1374 1377
906 5 1371 1374 1378
907 5 1371 1374 1379
908 6 1377 1374 1378
909 6 1377 1374 1379
910 6 1378 1374 1379
911 7 1368 1371 1374
912 5 1368 1371 1375
913 5 1368 1371 1376
914 5 1374 1371 1375
915 5 1374 1371 1376
916 6 1375 1371 1376
917 7 1765 1768 1771
918 5 1765 1768 1772
919 5 1765 1768 1773
920 5 1771 1768 1772
921 5 1771 1768 1773
922 6 1772 1768 1773
923 7 1762 1765 1768
924 5 1762 1765 1769
925 5 1762 1765 1770
926 5 1768 1765 1769
927 5 1768 1765 1770
928 6 1769 1765 1770
929 7 1365 1368 1371
930 5 1365 1368 1372
931 5 1365 1368 1373
932 5 1371 1368 1372
933 5 1371 1368 1373
934 6 1372 1368 1373
935 7 1362 1365 1368
936 5 1362 1365 1369
937 5 1362 1365 1370
938 5 1368 1365 1369
939 5 1368 1365 1370
940 6 1369 1365 1370
941 8 1356 1355 1357
942 8 1356 1355 1358
943 9 1357 1355 1358
944 5 1771 1774 1777
945 5 1771 1774 1778
946 5 1771 1774 1779
947 6 1777 1774 1778
948 6 1777 1774 1779
949 6 1778 1774 1779
950 7 1359 1362 1365
951 5 1359 1362 1366
952 5 1359 1362 1367
953 5 1365 1362 1366
954 5 1365 1362 1367
955 6 1366 1362 1367
956 7 1768 1771 1774
957 5 1768 1771 1775
958 5 1768 1771 1776
959 5 1774 1771 1775
960 5 1774 1771 1776
961 6 1775 1771 1776
962 7 1356 1359 1362
963 5 1356 1359 1363
964 5 1356 1359 1364
965 5 1362 1359 1363
966 5 1362 1359 1364
967 6 1363 1359 1364
968 10 1355 1356 1359
969 11 1355 1356 1360
970 11 1355 1356 1361
971 5 1359 1356 1360
972 5 1359 1356 1361
973 6 1360 1356 1361
974 7 1493 1496 1499
975 5 1493 1496 1500
976 5 1493 1496 1501
977 5 1499 1496 1500
978 5 1499 1496 1501
979 6 1500 1496 1501
980 7 1140 1143 1146
981 5 1140 1143 1147
982 5 1140 1143 1148
983 5 1146 1143 1147
984 5 1146 1143 1148
985 6 1147 1143 1148
986 10 1130 1131 1134
987 11 1130 1131 1135
988 11 1130 1131 1136
989 5 1134 1131 1135
990 5 1134 1131 1136
991 6 1135 1131 1136
992 7 1137 1140 1143
993 5 1137 1140 1144
994 5 1137 1140 1145
995 5 1143 1140 1144
996 5 1143 1140 1145
997 6 1144 1140 1145
998 7 1134 1137 1140
999 5 1134 1137 1141
1000 5 1134 1137 1142
1001 5 1140 1137 1141
1002 5 1140 1137 1142
1003 6 1141 1137 1142
1004 7 1131 1134 1137
1005 5 1131 1134 1138
1006 5 1131 1134 1139
1007 5 1137 1134 1138
1008 5 1137 1134 1139
1009 6 1138 1134 1139
1010 7 1740 1743 1746
1011 5 1740 1743 1747
1012 5 1740 1743 1748
1013 5 1746 1743 1747
1014 5 1746 1743 1748
1015 6 1747 1743 1748
1016 7 1737 1740 1743
1017 5 1737 1740 1744
1018 5 1737 1740 1745
1019 5 1743 1740 1744
1020 5 1743 1740 1745
1021 6 1744 1740 1745
1022 7 1490 1493 1496
1023 5 1490 1493 1497
1024 5 1490 1493 1498
1025 5 1496 1493 1497
1026 5 1496 1493 1498
1027 6 1497 1493 1498
1028 7 1743 1746 1749
1029 5 1743 1746 1750
1030 5 1743 1746 1751
1031 5 1749 1746 1750
1032 5 1749 1746 1751
1033 6 1750 1746 1751
1034 3 645 646 650
1035 4 645 646 651
1036 4 645 646 652
1037 5 650 646 651
1038 5 650 646 652
1039 6 651 646 652
1040 7 472 475 478
1041 5 472 475 479
1042 5 472 475 480
1043 5 478 475 479
1044 5 478 475 480
1045 6 479 475 480
1046 5 2246 2249 2252
1047 5 2246 2249 2253
1048 5 2246 2249 2254
1049 6 2252 2249 2253
1050 6 2252 2249 2254
1051 6 2253 2249 2254
1052 7 1487 1490 1493
1053 5 1487 1490 1494
1054 5 1487 1490 1495
1055 5 1493 1490 1494
1056 5 1493 1490 1495
1057 6 1494 1490 1495
1058 7 1484 1487 1490
1059 5 1484 1487 1491
1060 5 1484 1487 1492
1061 5 1490 1487 1491
1062 5 1490 1487 1492
1063 6 1491 1487 1492
1064 5 475 478 481
1065 5 475 478 482
1066 5 475 478 483
1067 6 481 478 482
1068 6 481 478 483
1069 6 482 478 483
1070 8 1131 1130 1132
1071 8 1131 1130 1133
1072 9 1132 1130 1133
1073 7 2240 2243 2246
1074 5 2240 2243 2247
1075 5 2240 2243 2248
1076 5 2246 2243 2247
1077 5 2246 2243 2248
1078 6 2247 2243 2248
1079 7 2243 2246 2249
1080 5 2243 2246 2250
1081 5 2243 2246 2251
1082 5 2249 2246 2250
1083 5 2249 2246 2251
1084 6 2250 2246 2251
1085 7 462 466 469
1086 5 462 466 470
1087 5 462 466 471
1088 5 469 466 470
1089 5 469 466 471
1090 6 470 466 471
1091 7 466 469 472
1092 5 466 469 473
1093 5 466 469 474
1094 5 472 469 473
1095 5 472 469 474
1096 6 473 469 474
1097 8 2256 2255 2257
1098 8 2256 2255 2258
1099 9 2257 2255 2258
1100 7 469 472 475
1101 5 469 472 476
1102 5 469 472 477
1103 5 475 472 476
1104 5 475 472 477
1105 6 476 472 477
1106 5 1421 1424 1427
1107 5 1421 1424 1428
1108 5 1421 1424 1429
1109 6 1427 1424 1428
1110 6 1427 1424 1429
1111 6 1428 1424 1429
1112 7 2256 2259 2262
1113 5 2256 2259 2263
1114 5 2256 2259 2264
1115 5 2262 2259 2263
1116 5 2262 2259 2264
1117 6 2263 2259 2264
1118 10 2255 2256 2259
1119 11 2255 2256 2260
1120 11 2255 2256 2261
1121 5 2259 2256 2260
1122 5 2259 2256 2261
1123 6 2260 2256 2261
1124 3 829 830 834
1125 4 829 830 835
1126 4 829 830 836
1127 5 834 830 835
1128 5 834 830 836
1129 6 835 830 836
1130 1 830 829 831
1131 1 830 829 832
1132 1 830 829 833
1133 2 831 829 832
1134 2 831 829 833
1135 2 832 829 833
1136 12 2821 2822 2823
1137 7 1418 1421 1424
1138 5 1418 1421 1425
1139 5 1418 1421 1426
1140 5 1424 1421 1425
1141 5 1424 1421 1426
1142 6 1425 1421 1426
1143 7 1415 1418 1421
1144 5 1415 1418 1422
1145 5 1415 1418 1423
1146 5 1421 1418 1422
1147 5 1421 1418 1423
1148 6 1422 1418 1423
1149 12 2509 2510 2511
1150 3 139 140 144
1151 4 139 140 145
1152 4 139 140 146
1153 5 144 140 145
1154 5 144 140 146
1155 6 145 140 146
1156 1 140 139 141
1157 1 140 139 142
1158 1 140 139 143
1159 2 141 139 142
1160 2 141 139 143
1161 2 142 139 143
1162 5 1671 1674 1677
1163 5 1671 1674 1678
1164 5 1671 1674 1679
1165 6 1677 1674 1678
1166 6 1677 1674 1679
1167 6 1678 1674 1679
1168 5 958 961 964
1169 5 958 961 965
1170 5 958 961 966
1171 6 964 961 965
1172 6 964 961 966
1173 6 965 961 966
1174 7 955 958 961
1175 5 955 958 962
1176 5 955 958 963
1177 5 961 958 962
1178 5 961 958 963
1179 6 962 958 963
1180 7 952 955 958
1181 5 952 955 959
1182 5 952 955 960
1183 5 958 955 959
1184 5 958 955 960
1185 6 959 955 960
1186 7 1668 1671 1674
1187 5 1668 1671 1675
1188 5 1668 1671 1676
1189 5 1674 1671 1675
1190 5 1674 1671 1676
1191 6 1675 1671 1676
1192 7 1665 1668 1671
1193 5 1665 1668 1672
1194 5 1665 1668 1673
1195 5 1671 1668 1672
1196 5 1671 1668 1673
1197 6 1672 1668 1673
1198 5 1596 1599 1602
1199 5 1596 1599 1603
1200 5 1596 1599 1604
1201 6 1602 1599 1603
1202 6 1602 1599 1604
1203 6 1603 1599 1604
1204 7 1590 1593 1596
1205 5 1590 1593 1597
1206 5 1590 1593 1598
1207 5 1596 1593 1597
1208 5 1596 1593 1598
1209 6 1597 1593 1598
1210 7 1593 1596 1599
1211 5 1593 1596 1600
1212 5 1593 1596 1601
1213 5 1599 1596 1600
1214 5 1599 1596 1601
1215 6 1600 1596 1601
1216 7 1587 1590 1593
1217 5 1587 1590 1594
1218 5 1587 1590 1595
1219 5 1593 1590 1594
1220 5 1593 1590 1595
1221 6 1594 1590 1595
1222 10 1155 1156 1159
1223 11 1155 1156 1160
1224 11 1155 1156 1161
1225 5 1159 1156 1160
1226 5 1159 1156 1161
1227 6 1160 1156 1161
1228 7 420 423 426
1229 5 420 423 427
1230 5 420 423 428
1231 5 426 423 427
1232 5 426 423 428
1233 6 427 423 428
1234 7 423 426 429
1235 5 423 426 430
1236 5 423 426 431
1237 5 429 426 430
1238 5 429 426 431
1239 6 430 426 431
1240 7 1734 1737 1740
1241 5 1734 1737 1741
1242 5 1734 1737 1742
1243 5 1740 1737 1741
1244 5 1740 1737 1742
1245 6 1741 1737 1742
1246 7 949 952 955
1247 5 949 952 956
1248 5 949 952 957
1249 5 955 952 956
1250 5 955 952 957
1251 6 956 952 957
1252 7 416 420 423
1253 5 416 420 424
1254 5 416 420 425
1255 5 423 420 424
1256 5 423 420 425
1257 6 424 420 425
1258 7 945 949 952
1259 5 945 949 953
1260 5 945 949 954
1261 5 952 949 953
1262 5 952 949 954
1263 6 953 949 954
1264 7 1731 1734 1737
1265 5 1731 1734 1738
1266 5 1731 1734 1739
1267 5 1737 1734 1738
1268 5 1737 1734 1739
1269 6 1738 1734 1739
1270 10 1730 1731 1734
1271 11 1730 1731 1735
1272 11 1730 1731 1736
1273 5 1734 1731 1735
1274 5 1734 1731 1736
1275 6 1735 1731 1736
1276 3 944 945 949
1277 4 944 945 950
1278 4 944 945 951
1279 5 949 945 950
1280 5 949 945 951
1281 6 950 945 951
1282 8 1731 1730 1732
1283 8 1731 1730 1733
1284 9 1732 1730 1733
1285 1 945 944 946
1286 1 945 944 947
1287 1 945 944 948
1288 2 946 944 947
1289 2 946 944 948
1290 2 947 944 948
1291 12 2560 2561 2562
1292 7 1584 1587 1590
1293 5 1584 1587 1591
1294 5 1584 1587 1592
1295 5 1590 1587 1591
1296 5 1590 1587 1592
1297 6 1591 1587 1592
1298 3 415 416 420
1299 4 415 416 421
1300 4 415 416 422
1301 5 420 416 421
1302 5 420 416 422
1303 6 421 416 422
1304 1 416 415 417
1305 1 416 415 418
1306 1 416 415 419
1307 2 417 415 418
1308 2 417 415 419
1309 2 418 415 419
1310 7 1681 1684 1687
1311 5 1681 1684 1688
1312 5 1681 1684 1689
1313 5 1687 1684 1688
1314 5 1687 1684 1689
1315 6 1688 1684 1689
1316 5 1746 1749 1752
1317 5 1746 1749 1753
1318 5 1746 1749 1754
1319 6 1752 1749 1753
1320 6 1752 1749 1754
1321 6 1753 1749 1754
1322 8 1481 1480 1482
1323 8 1481 1480 1483
1324 9 1482 1480 1483
1325 10 1480 1481 1484
1326 11 1480 1481 1485
1327 11 1480 1481 1486
1328 5 1484 1481 1485
1329 5 1484 1481 1486
1330 6 1485 1481 1486
1331 7 1481 1484 1487
1332 5 1481 1484 1488
1333 5 1481 1484 1489
1334 5 1487 1484 1488
1335 5 1487 1484 1489
1336 6 1488 1484 1489
1337 12 2716 2717 2718
1338 7 439 443 446
1339 5 439 443 447
1340 5 439 443 448
1341 5 446 443 447
1342 5 446 443 448
1343 6 447 443 448
1344 10 1680 1681 1684
1345 11 1680 1681 1685
1346 11 1680 1681 1686
1347 5 1684 1681 1685
1348 5 1684 1681 1686
1349 6 1685 1681 1686
1350 12 2344 2345 2346
1351 8 1681 1680 1682
1352 8 1681 1680 1683
1353 9 1682 1680 1683
1354 12 2677 2678 2679
1355 1 439 438 440
1356 1 439 438 441
1357 1 439 438 442
1358 2 440 438 441
1359 2 440 438 442
1360 2 441 438 442
1361 3 438 439 443
1362 4 438 439 444
1363 4 438 439 445
1364 5 443 439 444
1365 5 443 439 445
1366 6 444 439 445
1367 12 2590 2591 2592
1368 12 2764 2765 2766
1369 12 2482 2483 2484
1370 7 443 446 449
1371 5 443 446 450
1372 5 443 446 451
1373 5 449 446 450
1374 5 449 446 451
1375 6 450 446 451
1376 7 1412 1415 1418
1377 5 1412 1415 1419
1378 5 1412 1415 1420
1379 5 1418 1415 1419
1380 5 1418 1415 1420
1381 6 1419 1415 1420
1382 12 2836 2837 2838
1383 3 783 784 788
1384 4 783 784 789
1385 4 783 784 790
1386 5 788 784 789
1387 5 788 784 790
1388 6 789 784 790
1389 1 784 783 785
1390 1 784 783 786
1391 1 784 783 787
1392 2 785 783 786
1393 2 785 783 787
1394 2 786 783 787
1395 7 788 791 794
1396 5 788 791 795
1397 5 788 791 796
1398 5 794 791 795
1399 5 794 791 796
1400 6 795 791 796
1401 8 1981 1980 1982
1402 8 1981 1980 1983
1403 9 1982 1980 1983
1404 7 1409 1412 1415
1405 5 1409 1412 1416
1406 5 1409 1412 1417
1407 5 1415 1412 1416
1408 5 1415 1412 1417
1409 6 1416 1412 1417
1410 7 446 449 452
1411 5 446 449 453
1412 5 446 449 454
1413 5 452 449 453
1414 5 452 449 454
1415 6 453 449 454
1416 7 449 452 455
1417 5 449 452 456
1418 5 449 452 457
1419 5 455 452 456
1420 5 455 452 457
1421 6 456 452 457
1422 10 1655 1656 1659
1423 11 1655 1656 1660
1424 11 1655 1656 1661
1425 5 1659 1656 1660
1426 5 1659 1656 1661
1427 6 1660 1656 1661
1428 7 1662 1665 1668
1429 5 1662 1665 1669
1430 5 1662 1665 1670
1431 5 1668 1665 1669
1432 5 1668 1665 1670
1433 6 1669 1665 1670
1434 7 1656 1659 1662
1435 5 1656 1659 1663
1436 5 1656 1659 1664
1437 5 1662 1659 1663
1438 5 1662 1659 1664
1439 6 1663 1659 1664
1440 7 1659 1662 1665
1441 5 1659 1662 1666
1442 5 1659 1662 1667
1443 5 1665 1662 1666
1444 5 1665 1662 1667
1445 6 1666 1662 1667
1446 7 1293 1296 1299
1447 5 1293 1296 1300
1448 5 1293 1296 1301
1449 5 1299 1296 1300
1450 5 1299 1296 1301
1451 6 1300 1296 1301
1452 7 1287 1290 1293
1453 5 1287 1290 1294
1454 5 1287 1290 1295
1455 5 1293 1290 1294
1456 5 1293 1290 1295
1457 6 1294 1290 1295
1458 7 1290 1293 1296
1459 5 1290 1293 1297
1460 5 1290 1293 1298
1461 5 1296 1293 1297
1462 5 1296 1293 1298
1463 6 1297 1293 1298
1464 7 1284 1287 1290
1465 5 1284 1287 1291
1466 5 1284 1287 1292
1467 5 1290 1287 1291
1468 5 1290 1287 1292
1469 6 1291 1287 1292
1470 5 1296 1299 1302
1471 5 1296 1299 1303
1472 5 1296 1299 1304
1473 6 1302 1299 1303
1474 6 1302 1299 1304
1475 6 1303 1299 1304
1476 10 1980 1981 1984
1477 11 1980 1981 1985
1478 11 1980 1981 1986
1479 5 1984 1981 1985
1480 5 1984 1981 1986
1481 6 1985 1981 1986
1482 7 1984 1987 1990
1483 5 1984 1987 1991
1484 5 1984 1987 1992
1485 5 1990 1987 1991
1486 5 1990 1987 1992
1487 6 1991 1987 1992
1488 7 1981 1984 1987
1489 5 1981 1984 1988
1490 5 1981 1984 1989
1491 5 1987 1984 1988
1492 5 1987 1984 1989
1493 6 1988 1984 1989
1494 7 1987 1990 1993
1495 5 1987 1990 1994
1496 5 1987 1990 1995
1497 5 1993 1990 1994
1498 5 1993 1990 1995
1499 6 1994 1990 1995
1500 7 1990 1993 1996
1501 5 1990 1993 1997
1502 5 1990 1993 1998
1503 5 1996 1993 1997
1504 5 1996 1993 1998
1505 6 1997 1993 1998
1506 7 998 1001 1004
1507 5 998 1001 1005
1508 5 998 1001 1006
1509 5 1004 1001 1005
1510 5 1004 1001 1006
1511 6 1005 1001 1006
1512 7 1070 1073 1076
1513 5 1070 1073 1077
1514 5 1070 1073 1078
1515 5 1076 1073 1077
1516 5 1076 1073 1078
1517 6 1077 1073 1078
1518 12 2368 2369 2370
1519 7 1281 1284 1287
1520 5 1281 1284 1288
1521 5 1281 1284 1289
1522 5 1287 1284 1288
1523 5 1287 1284 1289
1524 6 1288 1284 1289
1525 7 995 998 1001
1526 5 995 998 1002
1527 5 995 998 1003
1528 5 1001 998 1002
1529 5 1001 998 1003
1530 6 1002 998 1003
1531 12 2632 2633 2634
1532 7 991 995 998
1533 5 991 995 999
1534 5 991 995 1000
1535 5 998 995 999
1536 5 998 995 1000
1537 6 999 995 1000
1538 10 1280 1281 1284
1539 11 1280 1281 1285
1540 11 1280 1281 1286
1541 5 1284 1281 1285
1542 5 1284 1281 1286
1543 6 1285 1281 1286
1544 8 1281 1280 1282
1545 8 1281 1280 1283
1546 9 1282 1280 1283
1547 1 991 990 992
1548 1 991 990 993
1549 1 991 990 994
1550 2 992 990 993
1551 2 992 990 994
1552 2 993 990 994
1553 5 1546 1549 1552
1554 5 1546 1549 1553
1555 5 1546 1549 1554
1556 6 1552 1549 1553
1557 6 1552 1549 1554
1558 6 1553 1549 1554
1559 3 990 991 995
1560 4 990 991 996
1561 4 990 991 997
1562 5 995 991 996
1563 5 995 991 997
1564 6 996 991 997
1565 12 2818 2819 2820
1566 5 222 225 228
1567 5 222 225 229
1568 5 222 225 230
1569 6 228 225 229
1570 6 228 225 230
1571 6 229 225 230
1572 12 2440 2441 2442
1573 1 692 691 693
1574 1 692 691 694
1575 1 692 691 695
1576 2 693 691 694
1577 2 693 691 695
1578 2 694 691 695
1579 3 691 692 696
1580 4 691 692 697
1581 4 691 692 698
1582 5 696 692 697
1583 5 696 692 698
1584 6 697 692 698
1585 12 2656 2657 2658
1586 8 2181 2180 2182
1587 8 2181 2180 2183
1588 9 2182 2180 2183
1589 10 2180 2181 2184
1590 11 2180 2181 2185
1591 11 2180 2181 2186
1592 5 2184 2181 2185
1593 5 2184 2181 2186
1594 6 2185 2181 2186
1595 7 692 696 699
1596 5 692 696 700
1597 5 692 696 701
1598 5 699 696 700
1599 5 699 696 701
1600 6 700 696 701
1601 7 696 699 702
1602 5 696 699 703
1603 5 696 699 704
1604 5 702 699 703
1605 5 702 699 704
1606 6 703 699 704
1607 7 699 702 705
1608 5 699 702 706
1609 5 699 702 707
1610 5 705 702 706
1611 5 705 702 707
1612 6 706 702 707
1613 7 702 705 708
1614 5 702 705 709
1615 5 702 705 710
1616 5 708 705 709
1617 5 708 705 710
1618 6 709 705 710
1619 12 2455 2456 2457
1620 5 84 87 90
1621 5 84 87 91
1622 5 84 87 92
1623 6 90 87 91
1624 6 90 87 92
1625 6 91 87 92
1626 7 784 788 791
1627 5 784 788 792
1628 5 784 788 793
1629 5 791 788 792
1630 5 791 788 793
1631 6 792 788 793
1632 7 2181 2184 2187
1633 5 2181 2184 2188
1634 5 2181 2184 2189
1635 5 2187 2184 2188
1636 5 2187 2184 2189
1637 6 2188 2184 2189
1638 8 1781 1780 1782
1639 8 1781 1780 1783
1640 9 1782 1780 1783
1641 7 791 794 797
1642 5 791 794 798
1643 5 791 794 799
1644 5 797 794 798
1645 5 797 794 799
1646 6 798 794 799
1647 12 2479 2480 2481
1648 7 1784 1787 1790
1649 5 1784 1787 1791
1650 5 1784 1787 1792
1651 5 1790 1787 1791
1652 5 1790 1787 1792
1653 6 1791 1787 1792
1654 7 1781 1784 1787
1655 5 1781 1784 1788
1656 5 1781 1784 1789
1657 5 1787 1784 1788
1658 5 1787 1784 1789
1659 6 1788 1784 1789
1660 10 1780 1781 1784
1661 11 1780 1781 1785
1662 11 1780 1781 1786
1663 5 1784 1781 1785
1664 5 1784 1781 1786
1665 6 1785 1781 1786
1666 7 1790 1793 1796
1667 5 1790 1793 1797
1668 5 1790 1793 1798
1669 5 1796 1793 1797
1670 5 1796 1793 1798
1671 6 1797 1793 1798
1672 7 1787 1790 1793
1673 5 1787 1790 1794
1674 5 1787 1790 1795
1675 5 1793 1790 1794
1676 5 1793 1790 1795
1677 6 1794 1790 1795
1678 7 738 742 745
1679 5 738 742 746
1680 5 738 742 747
1681 5 745 742 746
1682 5 745 742 747
1683 6 746 742 747
1684 12 2746 2747 2748
1685 5 751 754 757
1686 5 751 754 758
1687 5 751 754 759
1688 6 757 754 758
1689 6 757 754 759
1690 6 758 754 759
1691 7 1993 1996 1999
1692 5 1993 1996 2000
1693 5 1993 1996 2001
1694 5 1999 1996 2000
1695 5 1999 1996 2001
1696 6 2000 1996 2001
1697 5 1996 1999 2002
1698 5 1996 1999 2003
1699 5 1996 1999 2004
1700 6 2002 1999 2003
1701 6 2002 1999 2004
1702 6 2003 1999 2004
1703 12 2407 2408 2409
1704 12 2446 2447 2448
1705 12 2851 2852 2853
1706 7 742 745 748
1707 5 742 745 749
1708 5 742 745 750
1709 5 748 745 749
1710 5 748 745 750
1711 6 749 745 750
1712 3 737 738 742
1713 4 737 738 743
1714 4 737 738 744
1715 5 742 738 743
1716 5 742 738 744
1717 6 743 738 744
1718 1 738 737 739
1719 1 738 737 740
1720 1 738 737 741
1721 2 739 737 740
1722 2 739 737 741
1723 2 740 737 741
1724 12 2725 2726 2727
1725 7 1912 1915 1918
1726 5 1912 1915 1919
1727 5 1912 1915 1920
1728 5 1918 1915 1919
1729 5 1918 1915 1920
1730 6 1919 1915 1920
1731 7 1540 1543 1546
1732 5 1540 1543 1547
1733 5 1540 1543 1548
1734 5 1546 1543 1547
1735 5 1546 1543 1548
1736 6 1547 1543 1548
1737 5 1846 1849 1852
1738 5 1846 1849 1853
1739 5 1846 1849 1854
1740 6 1852 1849 1853
1741 6 1852 1849 1854
1742 6 1853 1849 1854
1743 12 2683 2684 2685
1744 7 1909 1912 1915
1745 5 1909 1912 1916
1746 5 1909 1912 1917
1747 5 1915 1912 1916
1748 5 1915 1912 1917
1749 6 1916 1912 1917
1750 7 1906 1909 1912
1751 5 1906 1909 1913
1752 5 1906 1909 1914
1753 5 1912 1909 1913
1754 5 1912 1909 1914
1755 6 1913 1909 1914
1756 7 1543 1546 1549
1757 5 1543 1546 1550
1758 5 1543 1546 1551
1759 5 1549 1546 1550
1760 5 1549 1546 1551
1761 6 1550 1546 1551
1762 10 1905 1906 1909
1763 11 1905 1906 1910
1764 11 1905 1906 1911
1765 5 1909 1906 1910
1766 5 1909 1906 1911
1767 6 1910 1906 1911
1768 8 1531 1530 1532
1769 8 1531 1530 1533
1770 9 1532 1530 1533
1771 7 1534 1537 1540
1772 5 1534 1537 1541
1773 5 1534 1537 1542
1774 5 1540 1537 1541
1775 5 1540 1537 1542
1776 6 1541 1537 1542
1777 7 1537 1540 1543
1778 5 1537 1540 1544
1779 5 1537 1540 1545
1780 5 1543 1540 1544
1781 5 1543 1540 1545
1782 6 1544 1540 1545
1783 7 1531 1534 1537
1784 5 1531 1534 1538
1785 5 1531 1534 1539
1786 5 1537 1534 1538
1787 5 1537 1534 1539
1788 6 1538 1534 1539
1789 10 1530 1531 1534
1790 11 1530 1531 1535
1791 11 1530 1531 1536
1792 5 1534 1531 1535
1793 5 1534 1531 1536
1794 6 1535 1531 1536
1795 5 383 386 389
1796 5 383 386 390
1797 5 383 386 391
1798 6 389 386 390
1799 6 389 386 391
1800 6 390 386 391
1801 7 380 383 386
1802 5 380 383 387
1803 5 380 383 388
1804 5 386 383 387
1805 5 386 383 388
1806 6 387 383 388
1807 7 929 932 935
1808 5 929 932 936
1809 5 929 932 937
1810 5 935 932 936
1811 5 935 932 937
1812 6 936 932 937
1813 7 932 935 938
1814 5 932 935 939
1815 5 932 935 940
1816 5 938 935 939
1817 5 938 935 940
1818 6 939 935 940
1819 5 935 938 941
1820 5 935 938 942
1821 5 935 938 943
1822 6 941 938 942
1823 6 941 938 943
1824 6 942 938 943
1825 12 2593 2594 2595
1826 7 219 222 225
1827 5 219 222 226
1828 5 219 222 227
1829 5 225 222 226
1830 5 225 222 227
1831 6 226 222 227
1832 7 81 84 87
1833 5 81 84 88
1834 5 81 84 89
1835 5 87 84 88
1836 5 87 84 89
1837 6 88 84 89
1838 7 1893 1896 1899
1839 5 1893 1896 1900
1840 5 1893 1896 1901
1841 5 1899 1896 1900
1842 5 1899 1896 1901
1843 6 1900 1896 1901
1844 5 705 708 711
1845 5 705 708 712
1846 5 705 708 713
1847 6 711 708 712
1848 6 711 708 713
1849 6 712 708 713
1850 12 2476 2477 2478
1851 12 2797 2798 2799
1852 12 2470 2471 2472
1853 12 2335 2336 2337
1854 7 2265 2268 2271
1855 5 2265 2268 2272
1856 5 2265 2268 2273
1857 5 2271 2268 2272
1858 5 2271 2268 2273
1859 6 2272 2268 2273
1860 7 2262 2265 2268
1861 5 2262 2265 2269
1862 5 2262 2265 2270
1863 5 2268 2265 2269
1864 5 2268 2265 2270
1865 6 2269 2265 2270
1866 12 2743 2744 2745
1867 7 71 75 78
1868 5 71 75 79
1869 5 71 75 80
1870 5 78 75 79
1871 5 78 75 80
1872 6 79 75 80
1873 7 265 268 271
1874 5 265 268 272
1875 5 265 268 273
1876 5 271 268 272
1877 5 271 268 273
1878 6 272 268 273
1879 7 262 265 268
1880 5 262 265 269
1881 5 262 265 270
1882 5 268 265 269
1883 5 268 265 270
1884 6 269 265 270
1885 7 78 81 84
1886 5 78 81 85
1887 5 78 81 86
1888 5 84 81 85
1889 5 84 81 86
1890 6 85 81 86
1891 7 255 259 262
1892 5 255 259 263
1893 5 255 259 264
1894 5 262 259 263
1895 5 262 259 264
1896 6 263 259 264
1897 7 259 262 265
1898 5 259 262 266
1899 5 259 262 267
1900 5 265 262 266
1901 5 265 262 267
1902 6 266 262 267
1903 12 2488 2489 2490
1904 5 268 271 274
1905 5 268 271 275
1906 5 268 271 276
1907 6 274 271 275
1908 6 274 271 276
1909 6 275 271 276
1910 12 2749 2750 2751
1911 7 2259 2262 2265
1912 5 2259 2262 2266
1913 5 2259 2262 2267
1914 5 2265 2262 2266
1915 5 2265 2262 2267
1916 6 2266 2262 2267
1917 7 75 78 81
1918 5 75 78 82
1919 5 75 78 83
1920 5 81 78 82
1921 5 81 78 83
1922 6 82 78 83
1923 3 70 71 75
1924 4 70 71 76
1925 4 70 71 77
1926 5 75 71 76
1927 5 75 71 77
1928 6 76 71 77
1929 12 2668 2669 2670
1930 1 71 70 72
1931 1 71 70 73
1932 1 71 70 74
1933 2 72 70 73
1934 2 72 70 74
1935 2 73 70 74
1936 12 2434 2435 2436
1937 12 2398 2399 2400
1938 12 2392 2393 2394
1939 5 176 179 182
1940 5 176 179 183
1941 5 176 179 184
1942 6 182 179 183
1943 6 182 179 184
1944 6 183 179 184
1945 7 173 176 179
1946 5 173 176 180
1947 5 173 176 181
1948 5 179 176 180
1949 5 179 176 181
1950 6 180 176 181
1951 12 2839 2840 2841
1952 8 1956 1955 1957
1953 8 1956 1955 1958
1954 9 1957 1955 1958
1955 12 2443 2444 2445
1956 3 254 255 259
1957 4 254 255 260
1958 4 254 255 261
1959 5 259 255 260
1960 5 259 255 261
1961 6 260 255 261
1962 12 2305 2306 2307
1963 1 255 254 256
1964 1 255 254 257
1965 1 255 254 258
1966 2 256 254 257
1967 2 256 254 258
1968 2 257 254 258
1969 8 1156 1155 1157
1970 8 1156 1155 1158
1971 9 1157 1155 1158
1972 12 2659 2660 2661
1973 12 2674 2675 2676
1974 7 170 173 176
1975 5 170 173 177
1976 5 170 173 178
1977 5 176 173 177
1978 5 176 173 178
1979 6 177 173 178
1980 12 2437 2438 2439
1981 12 2800 2801 2802
1982 7 167 170 173
1983 5 167 170 174
1984 5 167 170 175
1985 5 173 170 174
1986 5 173 170 175
1987 6 174 170 175
1988 7 163 167 170
1989 5 163 167 171
1990 5 163 167 172
1991 5 170 167 171
1992 5 170 167 172
1993 6 171 167 172
1994 1 163 162 164
1995 1 163 162 165
1996 1 163 162 166
1997 2 164 162 165
1998 2 164 162 166
1999 2 165 162 166
2000 3 162 163 167
2001 4 162 163 168
2002 4 162 163 169
2003 5 167 163 168
2004 5 167 163 169
2005 6 168 163 169
2006 1 646 645 647
2007 1 646 645 648
2008 1 646 645 649
2009 2 647 645 648
2010 2 647 645 649
2011 2 648 645 649
2012 7 1890 1893 1896
2013 5 1890 1893 1897
2014 5 1890 1893 1898
2015 5 1896 1893 1897
2016 5 1896 1893 1898
2017 6 1897 1893 1898
2018 12 2722 2723 2724
2019 12 2623 2624 2625
2020 7 1887 1890 1893
2021 5 1887 1890 1894
2022 5 1887 1890 1895
2023 5 1893 1890 1894
2024 5 1893 1890 1895
2025 6 1894 1890 1895
2026 7 922 926 929
2027 5 922 926 930
2028 5 922 926 931
2029 5 929 926 930
2030 5 929 926 931
2031 6 930 926 931
2032 12 2410 2411 2412
2033 1 922 921 923
2034 1 922 921 924
2035 1 922 921 925
2036 2 923 921 924
2037 2 923 921 925
2038 2 924 921 925
2039 12 2362 2363 2364
2040 7 926 929 932
2041 5 926 929 933
2042 5 926 929 934
2043 5 932 929 933
2044 5 932 929 934
2045 6 933 929 934
2046 7 1881 1884 1887
2047 5 1881 1884 1888
2048 5 1881 1884 1889
2049 5 1887 1884 1888
2050 5 1887 1884 1889
2051 6 1888 1884 1889
2052 8 1881 1880 1882
2053 8 1881 1880 1883
2054 9 1882 1880 1883
2055 10 1880 1881 1884
2056 11 1880 1881 1885
2057 11 1880 1881 1886
2058 5 1884 1881 1885
2059 5 1884 1881 1886
2060 6 1885 1881 1886
2061 3 921 922 926
2062 4 921 922 927
2063 4 921 922 928
2064 5 926 922 927
2065 5 926 922 928
2066 6 927 922 928
2067 12 2578 2579 2580
2068 7 1884 1887 1890
2069 5 1884 1887 1891
2070 5 1884 1887 1892
2071 5 1890 1887 1891
2072 5 1890 1887 1892
2073 6 1891 1887 1892
2074 5 337 340 343
2075 5 337 340 344
2076 5 337 340 345
2077 6 343 340 344
2078 6 343 340 345
2079 6 344 340 345
2080 12 2629 2630 2631
2081 7 196 199 202
2082 5 196 199 203
2083 5 196 199 204
2084 5 202 199 203
2085 5 202 199 204
2086 6 203 199 204
2087 3 622 623 627
2088 4 622 623 628
2089 4 622 623 629
2090 5 627 623 628
2091 5 627 623 629
2092 6 628 623 629
2093 5 199 202 205
2094 5 199 202 206
2095 5 199 202 207
2096 6 205 202 206
2097 6 205 202 207
2098 6 206 202 207
2099 7 29 32 35
2100 5 29 32 36
2101 5 29 32 37
2102 5 35 32 36
2103 5 35 32 37
2104 6 36 32 37
2105 7 334 337 340
2106 5 334 337 341
2107 5 334 337 342
2108 5 340 337 341
2109 5 340 337 342
2110 6 341 337 342
2111 5 1496 1499 1502
2112 5 1496 1499 1503
2113 5 1496 1499 1504
2114 6 1502 1499 1503
2115 6 1502 1499 1504
2116 6 1503 1499 1504
2117 7 193 196 199
2118 5 193 196 200
2119 5 193 196 201
2120 5 199 196 200
2121 5 199 196 201
2122 6 200 196 201
2123 7 2234 2237 2240
2124 5 2234 2237 2241
2125 5 2234 2237 2242
2126 5 2240 2237 2241
2127 5 2240 2237 2242
2128 6 2241 2237 2242
2129 7 2231 2234 2237
2130 5 2231 2234 2238
2131 5 2231 2234 2239
2132 5 2237 2234 2238
2133 5 2237 2234 2239
2134 6 2238 2234 2239
2135 7 2237 2240 2243
2136 5 2237 2240 2244
2137 5 2237 2240 2245
2138 5 2243 2240 2244
2139 5 2243 2240 2245
2140 6 2244 2240 2245
2141 7 886 889 892
2142 5 886 889 893
2143 5 886 889 894
2144 5 892 889 893
2145 5 892 889 894
2146 6 893 889 894
2147 10 2230 2231 2234
2148 11 2230 2231 2235
2149 11 2230 2231 2236
2150 5 2234 2231 2235
2151 5 2234 2231 2236
2152 6 2235 2231 2236
2153 8 2231 2230 2232
2154 8 2231 2230 2233
2155 9 2232 2230 2233
2156 5 61 64 67
2157 5 61 64 68
2158 5 61 64 69
2159 6 67 64 68
2160 6 67 64 69
2161 6 68 64 69
2162 7 837 840 843
2163 5 837 840 844
2164 5 837 840 845
2165 5 843 840 844
2166 5 843 840 845
2167 6 844 840 845
2168 7 58 61 64
2169 5 58 61 65
2170 5 58 61 66
2171 5 64 61 65
2172 5 64 61 66
2173 6 65 61 66
2174 7 834 837 840
2175 5 834 837 841
2176 5 834 837 842
2177 5 840 837 841
2178 5 840 837 842
2179 6 841 837 842
2180 7 830 834 837
2181 5 830 834 838
2182 5 830 834 839
2183 5 837 834 838
2184 5 837 834 839
2185 6 838 834 839
2186 7 840 843 846
2187 5 840 843 847
2188 5 840 843 848
2189 5 846 843 847
2190 5 846 843 848
2191 6 847 843 848
2192 7 883 886 889
2193 5 883 886 890
2194 5 883 886 891
2195 5 889 886 890
2196 5 889 886 891
2197 6 890 886 891
2198 7 880 883 886
2199 5 880 883 887
2200 5 880 883 888
2201 5 886 883 887
2202 5 886 883 888
2203 6 887 883 888
2204 5 843 846 849
2205 5 843 846 850
2206 5 843 846 851
2207 6 849 846 850
2208 6 849 846 851
2209 6 850 846 851
2210 7 972 975 978
2211 5 972 975 979
2212 5 972 975 980
2213 5 978 975 979
2214 5 978 975 980
2215 6 979 975 980
2216 7 968 972 975
2217 5 968 972 976
2218 5 968 972 977
2219 5 975 972 976
2220 5 975 972 977
2221 6 976 972 977
2222 7 978 981 984
2223 5 978 981 985
2224 5 978 981 986
2225 5 984 981 985
2226 5 984 981 986
2227 6 985 981 986
2228 7 975 978 981
2229 5 975 978 982
2230 5 975 978 983
2231 5 981 978 982
2232 5 981 978 983
2233 6 982 978 983
2234 7 1162 1165 1168
2235 5 1162 1165 1169
2236 5 1162 1165 1170
2237 5 1168 1165 1169
2238 5 1168 1165 1170
2239 6 1169 1165 1170
2240 5 981 984 987
2241 5 981 984 988
2242 5 981 984 989
2243 6 987 984 988
2244 6 987 984 989
2245 6 988 984 989
2246 7 278 282 285
2247 5 278 282 286
2248 5 278 282 287
2249 5 285 282 286
2250 5 285 282 287
2251 6 286 282 287
2252 7 282 285 288
2253 5 282 285 289
2254 5 282 285 290
2255 5 288 285 289
2256 5 288 285 290
2257 6 289 285 290
2258 7 285 288 291
2259 5 285 288 292
2260 5 285 288 293
2261 5 291 288 292
2262 5 291 288 293
2263 6 292 288 293
2264 12 2866 2867 2868
2265 7 1159 1162 1165
2266 5 1159 1162 1166
2267 5 1159 1162 1167
2268 5 1165 1162 1166
2269 5 1165 1162 1167
2270 6 1166 1162 1167
2271 7 1165 1168 1171
2272 5 1165 1168 1172
2273 5 1165 1168 1173
2274 5 1171 1168 1172
2275 5 1171 1168 1173
2276 6 1172 1168 1173
2277 7 1168 1171 1174
2278 5 1168 1171 1175
2279 5 1168 1171 1176
2280 5 1174 1171 1175
2281 5 1174 1171 1176
2282 6 1175 1171 1176
2283 5 291 294 297
2284 5 291 294 298
2285 5 291 294 299
2286 6 297 294 298
2287 6 297 294 299
2288 6 298 294 299
2289 12 2809 2810 2811
2290 7 1156 1159 1162
2291 5 1156 1159 1163
2292 5 1156 1159 1164
2293 5 1162 1159 1163
2294 5 1162 1159 1164
2295 6 1163 1159 1164
2296 7 35 38 41
2297 5 35 38 42
2298 5 35 38 43
2299 5 41 38 42
2300 5 41 38 43
2301 6 42 38 43
2302 7 627 630 633
2303 5 627 630 634
2304 5 627 630 635
2305 5 633 630 634
2306 5 633 630 635
2307 6 634 630 635
2308 5 38 41 44
2309 5 38 41 45
2310 5 38 41 46
2311 6 44 41 45
2312 6 44 41 46
2313 6 45 41 46
2314 7 288 291 294
2315 5 288 291 295
2316 5 288 291 296
2317 5 294 291 295
2318 5 294 291 296
2319 6 295 291 296
2320 12 2857 2858 2859
2321 12 2788 2789 2790
2322 5 429 432 435
2323 5 429 432 436
2324 5 429 432 437
2325 6 435 432 436
2326 6 435 432 437
2327 6 436 432 437
2328 7 426 429 432
2329 5 426 429 433
2330 5 426 429 434
2331 5 432 429 433
2332 5 432 429 434
2333 6 433 429 434
2334 7 630 633 636
2335 5 630 633 637
2336 5 630 633 638
2337 5 636 633 637
2338 5 636 633 638
2339 6 637 633 638
2340 7 633 636 639
2341 5 633 636 640
2342 5 633 636 641
2343 5 639 636 640
2344 5 639 636 641
2345 6 640 636 641
2346 8 1806 1805 1807
2347 8 1806 1805 1808
2348 9 1807 1805 1808
2349 7 32 35 38
2350 5 32 35 39
2351 5 32 35 40
2352 5 38 35 39
2353 5 38 35 40
2354 6 39 35 40
2355 5 2296 2299 2302
2356 5 2296 2299 2303
2357 5 2296 2299 2304
2358 6 2302 2299 2303
2359 6 2302 2299 2304
2360 6 2303 2299 2304
2361 7 2293 2296 2299
2362 5 2293 2296 2300
2363 5 2293 2296 2301
2364 5 2299 2296 2300
2365 5 2299 2296 2301
2366 6 2300 2296 2301
2367 7 2290 2293 2296
2368 5 2290 2293 2297
2369 5 2290 2293 2298
2370 5 2296 2293 2297
2371 5 2296 2293 2298
2372 6 2297 2293 2298
2373 7 331 334 337
2374 5 331 334 338
2375 5 331 334 339
2376 5 337 334 338
2377 5 337 334 339
2378 6 338 334 339
2379 7 328 331 334
2380 5 328 331 335
2381 5 328 331 336
2382 5 334 331 335
2383 5 334 331 336
2384 6 335 331 336
2385 7 324 328 331
2386 5 324 328 332
2387 5 324 328 333
2388 5 331 328 332
2389 5 331 328 333
2390 6 332 328 333
2391 3 323 324 328
2392 4 323 324 329
2393 4 323 324 330
2394 5 328 324 329
2395 5 328 324 330
2396 6 329 324 330
2397 3 24 25 29
2398 4 24 25 30
2399 4 24 25 31
2400 5 29 25 30
2401 5 29 25 31
2402 6 30 25 31
2403 12 2542 2543 2544
2404 7 25 29 32
2405 5 25 29 33
2406 5 25 29 34
2407 5 32 29 33
2408 5 32 29 34
2409 6 33 29 34
2410 1 25 24 26
2411 1 25 24 27
2412 1 25 24 28
2413 2 26 24 27
2414 2 26 24 28
2415 2 27 24 28
2416 12 2326 2327 2328
2417 12 2359 2360 2361
2418 12 2566 2567 2568
2419 1 324 323 325
2420 1 324 323 326
2421 1 324 323 327
2422 2 325 323 326
2423 2 325 323 327
2424 2 326 323 327
2425 8 1556 1555 1557
2426 8 1556 1555 1558
2427 9 1557 1555 1558
2428 12 2308 2309 2310
2429 12 2842 2843 2844
2430 7 876 880 883
2431 5 876 880 884
2432 5 876 880 885
2433 5 883 880 884
2434 5 883 880 885
2435 6 884 880 885
2436 5 452 455 458
2437 5 452 455 459
2438 5 452 455 460
2439 6 458 455 459
2440 6 458 455 460
2441 6 459 455 460
2442 3 875 876 880
2443 4 875 876 881
2444 4 875 876 882
2445 5 880 876 881
2446 5 880 876 882
2447 6 881 876 882
2448 1 876 875 877
2449 1 876 875 878
2450 1 876 875 879
2451 2 877 875 878
2452 2 877 875 879
2453 2 878 875 879
2454 12 2614 2615 2616
2455 8 1406 1405 1407
2456 8 1406 1405 1408
2457 9 1407 1405 1408
2458 10 1405 1406 1409
2459 11 1405 1406 1410
2460 11 1405 1406 1411
2461 5 1409 1406 1410
2462 5 1409 1406 1411
2463 6 1410 1406 1411
2464 7 1406 1409 1412
2465 5 1406 1409 1413
2466 5 1406 1409 1414
2467 5 1412 1409 1413
2468 5 1412 1409 1414
2469 6 1413 1409 1414
2470 12 2512 2513 2514
2471 12 2692 2693 2694
2472 12 2539 2540 2541
2473 12 2860 2861 2862
2474 5 797 800 803
2475 5 797 800 804
2476 5 797 800 805
2477 6 803 800 804
2478 6 803 800 805
2479 6 804 800 805
2480 3 1 2 6
2481 4 1 2 7
2482 4 1 2 8
2483 5 6 2 7
2484 5 6 2 8
2485 6 7 2 8
2486 7 2 6 9
2487 5 2 6 10
2488 5 2 6 11
2489 5 9 6 10
2490 5 9 6 11
2491 6 10 6 11
2492 1 2 1 3
2493 1 2 1 4
2494 1 2 1 5
2495 2 3 1 4
2496 2 3 1 5
2497 2 4 1 5
2498 7 794 797 800
2499 5 794 797 801
2500 5 794 797 802
2501 5 800 797 801
2502 5 800 797 802
2503 6 801 797 802
2504 5 1171 1174 1177
2505 5 1171 1174 1178
2506 5 1171 1174 1179
2507 6 1177 1174 1178
2508 6 1177 1174 1179
2509 6 1178 1174 1179
2510 5 1346 1349 1352
2511 5 1346 1349 1353
2512 5 1346 1349 1354
2513 6 1352 1349 1353
2514 6 1352 1349 1354
2515 6 1353 1349 1354
2516 7 1115 1118 1121
2517 5 1115 1118 1122
2518 5 1115 1118 1123
2519 5 1121 1118 1122
2520 5 1121 1118 1123
2521 6 1122 1118 1123
2522 7 564 567 570
2523 5 564 567 571
2524 5 564 567 572
2525 5 570 567 571
2526 5 570 567 572
2527 6 571 567 572
2528 5 567 570 573
2529 5 567 570 574
2530 5 567 570 575
2531 6 573 570 574
2532 6 573 570 575
2533 6 574 570 575
2534 5 1121 1124 1127
2535 5 1121 1124 1128
2536 5 1121 1124 1129
2537 6 1127 1124 1128
2538 6 1127 1124 1129
2539 6 1128 1124 1129
2540 7 1118 1121 1124
2541 5 1118 1121 1125
2542 5 1118 1121 1126
2543 5 1124 1121 1125
2544 5 1124 1121 1126
2545 6 1125 1121 1126
2546 7 1343 1346 1349
2547 5 1343 1346 1350
2548 5 1343 1346 1351
2549 5 1349 1346 1350
2550 5 1349 1346 1351
2551 6 1350 1346 1351
2552 7 1915 1918 1921
2553 5 1915 1918 1922
2554 5 1915 1918 1923
2555 5 1921 1918 1922
2556 5 1921 1918 1923
2557 6 1922 1918 1923
2558 7 1112 1115 1118
2559 5 1112 1115 1119
2560 5 1112 1115 1120
2561 5 1118 1115 1119
2562 5 1118 1115 1120
2563 6 1119 1115 1120
2564 7 2287 2290 2293
2565 5 2287 2290 2294
2566 5 2287 2290 2295
2567 5 2293 2290 2294
2568 5 2293 2290 2295
2569 6 2294 2290 2295
2570 7 1109 1112 1115
2571 5 1109 1112 1116
2572 5 1109 1112 1117
2573 5 1115 1112 1116
2574 5 1115 1112 1117
2575 6 1116 1112 1117
2576 10 1105 1106 1109
2577 11 1105 1106 1110
2578 11 1105 1106 1111
2579 5 1109 1106 1110
2580 5 1109 1106 1111
2581 6 1110 1106 1111
2582 7 1106 1109 1112
2583 5 1106 1109 1113
2584 5 1106 1109 1114
2585 5 1112 1109 1113
2586 5 1112 1109 1114
2587 6 1113 1109 1114
2588 7 2284 2287 2290
2589 5 2284 2287 2291
2590 5 2284 2287 2292
2591 5 2290 2287 2291
2592 5 2290 2287 2292
2593 6 2291 2287 2292
2594 7 2281 2284 2287
2595 5 2281 2284 2288
2596 5 2281 2284 2289
2597 5 2287 2284 2288
2598 5 2287 2284 2289
2599 6 2288 2284 2289
2600 10 2280 2281 2284
2601 11 2280 2281 2285
2602 11 2280 2281 2286
2603 5 2284 2281 2285
2604 5 2284 2281 2286
2605 6 2285 2281 2286
2606 8 2281 2280 2282
2607 8 2281 2280 2283
2608 9 2282 2280 2283
2609 8 1106 1105 1107
2610 8 1106 1105 1108
2611 9 1107 1105 1108
2612 7 1021 1024 1027
2613 5 1021 1024 1028
2614 5 1021 1024 1029
2615 5 1027 1024 1028
2616 5 1027 1024 1029
2617 6 1028 1024 1029
2618 7 1024 1027 1030
2619 5 1024 1027 1031
2620 5 1024 1027 1032
2621 5 1030 1027 1031
2622 5 1030 1027 1032
2623 6 1031 1027 1032
2624 7 1014 1018 1021
2625 5 1014 1018 1022
2626 5 1014 1018 1023
2627 5 1021 1018 1022
2628 5 1021 1018 1023
2629 6 1022 1018 1023
2630 1 1014 1013 1015
2631 1 1014 1013 1016
2632 1 1014 1013 1017
2633 2 1015 1013 1016
2634 2 1015 1013 1017
2635 2 1016 1013 1017
2636 7 1018 1021 1024
2637 5 1018 1021 1025
2638 5 1018 1021 1026
2639 5 1024 1021 1025
2640 5 1024 1021 1026
2641 6 1025 1021 1026
2642 3 1013 1014 1018
2643 4 1013 1014 1019
2644 4 1013 1014 1020
2645 5 1018 1014 1019
2646 5 1018 1014 1020
2647 6 1019 1014 1020
2648 1 899 898 900
2649 1 899 898 901
2650 1 899 898 902
2651 2 900 898 901
2652 2 900 898 902
2653 2 901 898 902
2654 12 2635 2636 2637
2655 10 1555 1556 1559
2656 11 1555 1556 1560
2657 11 1555 1556 1561
2658 5 1559 1556 1560
2659 5 1559 1556 1561
2660 6 1560 1556 1561
2661 7 1556 1559 1562
2662 5 1556 1559 1563
2663 5 1556 1559 1564
2664 5 1562 1559 1563
2665 5 1562 1559 1564
2666 6 1563 1559 1564
2667 3 898 899 903
2668 4 898 899 904
2669 4 898 899 905
2670 5 903 899 904
2671 5 903 899 905
2672 6 904 899 905
2673 7 899 903 906
2674 5 899 903 907
2675 5 899 903 908
2676 5 906 903 907
2677 5 906 903 908
2678 6 907 903 908
2679 7 1559 1562 1565
2680 5 1559 1562 1566
2681 5 1559 1562 1567
2682 5 1565 1562 1566
2683 5 1565 1562 1567
2684 6 1566 1562 1567
2685 7 1565 1568 1571
2686 5 1565 1568 1572
2687 5 1565 1568 1573
2688 5 1571 1568 1572
2689 5 1571 1568 1573
2690 6 1572 1568 1573
2691 7 1562 1565 1568
2692 5 1562 1565 1569
2693 5 1562 1565 1570
2694 5 1568 1565 1569
2695 5 1568 1565 1570
2696 6 1569 1565 1570
2697 7 903 906 909
2698 5 903 906 910
2699 5 903 906 911
2700 5 909 906 910
2701 5 909 906 911
2702 6 910 906 911
2703 7 1568 1571 1574
2704 5 1568 1571 1575
2705 5 1568 1571 1576
2706 5 1574 1571 1575
2707 5 1574 1571 1576
2708 6 1575 1571 1576
2709 7 906 909 912
2710 5 906 909 913
2711 5 906 909 914
2712 5 912 909 913
2713 5 912 909 914
2714 6 913 909 914
2715 5 1571 1574 1577
2716 5 1571 1574 1578
2717 5 1571 1574 1579
2718 6 1577 1574 1578
2719 6 1577 1574 1579
2720 6 1578 1574 1579
2721 7 909 912 915
2722 5 909 912 916
2723 5 909 912 917
2724 5 915 912 916
2725 5 915 912 917
2726 6 916 912 917
2727 5 912 915 918
2728 5 912 915 919
2729 5 912 915 920
2730 6 918 915 919
2731 6 918 915 920
2732 6 919 915 920
2733 12 2617 2618 2619
2734 5 682 685 688
2735 5 682 685 689
2736 5 682 685 690
2737 6 688 685 689
2738 6 688 685 690
2739 6 689 685 690
2740 7 2193 2196 2199
2741 5 2193 2196 2200
2742 5 2193 2196 2201
2743 5 2199 2196 2200
2744 5 2199 2196 2201
2745 6 2200 2196 2201
2746 7 2190 2193 2196
2747 5 2190 2193 2197
2748 5 2190 2193 2198
2749 5 2196 2193 2197
2750 5 2196 2193 2198
2751 6 2197 2193 2198
2752 5 2196 2199 2202
2753 5 2196 2199 2203
2754 5 2196 2199 2204
2755 6 2202 2199 2203
2756 6 2202 2199 2204
2757 6 2203 2199 2204
2758 7 2187 2190 2193
2759 5 2187 2190 2194
2760 5 2187 2190 2195
2761 5 2193 2190 2194
2762 5 2193 2190 2195
2763 6 2194 2190 2195
2764 7 2184 2187 2190
2765 5 2184 2187 2191
2766 5 2184 2187 2192
2767 5 2190 2187 2191
2768 5 2190 2187 2192
2769 6 2191 2187 2192
2770 5 2171 2174 2177
2771 5 2171 2174 2178
2772 5 2171 2174 2179
2773 6 2177 2174 2178
2774 6 2177 2174 2179
2775 6 2178 2174 2179
2776 7 679 682 685
2777 5 679 682 686
2778 5 679 682 687
2779 5 685 682 686
2780 5 685 682 687
2781 6 686 682 687
2782 7 2168 2171 2174
2783 5 2168 2171 2175
2784 5 2168 2171 2176
2785 5 2174 2171 2175
2786 5 2174 2171 2176
2787 6 2175 2171 2176
2788 7 2165 2168 2171
2789 5 2165 2168 2172
2790 5 2165 2168 2173
2791 5 2171 2168 2172
2792 5 2171 2168 2173
2793 6 2172 2168 2173
2794 7 673 676 679
2795 5 673 676 680
2796 5 673 676 681
2797 5 679 676 680
2798 5 679 676 681
2799 6 680 676 681
2800 7 2162 2165 2168
2801 5 2162 2165 2169
2802 5 2162 2165 2170
2803 5 2168 2165 2169
2804 5 2168 2165 2170
2805 6 2169 2165 2170
2806 7 676 679 682
2807 5 676 679 683
2808 5 676 679 684
2809 5 682 679 683
2810 5 682 679 684
2811 6 683 679 684
2812 7 669 673 676
2813 5 669 673 677
2814 5 669 673 678
2815 5 676 673 677
2816 5 676 673 678
2817 6 677 673 678
2818 5 1796 1799 1802
2819 5 1796 1799 1803
2820 5 1796 1799 1804
2821 6 1802 1799 1803
2822 6 1802 1799 1804
2823 6 1803 1799 1804
2824 7 1968 1971 1974
2825 5 1968 1971 1975
2826 5 1968 1971 1976
2827 5 1974 1971 1975
2828 5 1974 1971 1976
2829 6 1975 1971 1976
2830 5 1971 1974 1977
2831 5 1971 1974 1978
2832 5 1971 1974 1979
2833 6 1977 1974 1978
2834 6 1977 1974 1979
2835 6 1978 1974 1979
2836 7 1793 1796 1799
2837 5 1793 1796 1800
2838 5 1793 1796 1801
2839 5 1799 1796 1800
2840 5 1799 1796 1801
2841 6 1800 1796 1801
2842 7 6 9 12
2843 5 6 9 13
2844 5 6 9 14
2845 5 12 9 13
2846 5 12 9 14
2847 6 13 9 14
2848 7 9 12 15
2849 5 9 12 16
2850 5 9 12 17
2851 5 15 12 16
2852 5 15 12 17
2853 6 16 12 17
2854 7 12 15 18
2855 5 12 15 19
2856 5 12 15 20
2857 5 18 15 19
2858 5 18 15 20
2859 6 19 15 20
2860 5 15 18 21
2861 5 15 18 22
2862 5 15 18 23
2863 6 21 18 22
2864 6 21 18 23
2865 6 22 18 23
2866 5 1027 1030 1033
2867 5 1027 1030 1034
2868 5 1027 1030 1035
2869 6 1033 1030 1034
2870 6 1033 1030 1035
2871 6 1034 1030 1035
2872 7 1918 1921 1924
2873 5 1918 1921 1925
2874 5 1918 1921 1926
2875 5 1924 1921 1925
2876 5 1924 1921 1926
2877 6 1925 1921 1926
2878 5 1921 1924 1927
2879 5 1921 1924 1928
2880 5 1921 1924 1929
2881 6 1927 1924 1928
2882 6 1927 1924 1929
2883 6 1928 1924 1929
2884 7 1965 1968 1971
2885 5 1965 1968 1972
2886 5 1965 1968 1973
2887 5 1971 1968 1972
2888 5 1971 1968 1973
2889 6 1972 1968 1973
2890 7 771 774 777
2891 5 771 774 778
2892 5 771 774 779
2893 5 777 774 778
2894 5 777 774 779
2895 6 778 774 779
2896 7 1393 1396 1399
2897 5 1393 1396 1400
2898 5 1393 1396 1401
2899 5 1399 1396 1400
2900 5 1399 1396 1401
2901 6 1400 1396 1401
2902 5 1396 1399 1402
2903 5 1396 1399 1403
2904 5 1396 1399 1404
2905 6 1402 1399 1403
2906 6 1402 1399 1404
2907 6 1403 1399 1404
2908 7 1387 1390 1393
2909 5 1387 1390 1394
2910 5 1387 1390 1395
2911 5 1393 1390 1394
2912 5 1393 1390 1395
2913 6 1394 1390 1395
2914 7 1384 1387 1390
2915 5 1384 1387 1391
2916 5 1384 1387 1392
2917 5 1390 1387 1391
2918 5 1390 1387 1392
2919 6 1391 1387 1392
2920 7 1390 1393 1396
2921 5 1390 1393 1397
2922 5 1390 1393 1398
2923 5 1396 1393 1397
2924 5 1396 1393 1398
2925 6 1397 1393 1398
2926 7 745 748 751
2927 5 745 748 752
2928 5 745 748 753
2929 5 751 748 752
2930 5 751 748 753
2931 6 752 748 753
2932 7 748 751 754
2933 5 748 751 755
2934 5 748 751 756
2935 5 754 751 755
2936 5 754 751 756
2937 6 755 751 756
2938 12 2713 2714 2715
2939 12 2611 2612 2613
2940 12 2569 2570 2571
2941 12 2374 2375 2376
2942 3 1036 1037 1041
2943 4 1036 1037 1042
2944 4 1036 1037 1043
2945 5 1041 1037 1042
2946 5 1041 1037 1043
2947 6 1042 1037 1043
2948 7 1041 1044 1047
2949 5 1041 1044 1048
2950 5 1041 1044 1049
2951 5 1047 1044 1048
2952 5 1047 1044 1049
2953 6 1048 1044 1049
2954 1 1037 1036 1038
2955 1 1037 1036 1039
2956 1 1037 1036 1040
2957 2 1038 1036 1039
2958 2 1038 1036 1040
2959 2 1039 1036 1040
2960 7 1037 1041 1044
2961 5 1037 1041 1045
2962 5 1037 1041 1046
2963 5 1044 1041 1045
2964 5 1044 1041 1046
2965 6 1045 1041 1046
2966 7 1044 1047 1050
2967 5 1044 1047 1051
2968 5 1044 1047 1052
2969 5 1050 1047 1051
2970 5 1050 1047 1052
2971 6 1051 1047 1052
2972 12 2731 2732 2733
2973 8 1906 1905 1907
2974 8 1906 1905 1908
2975 9 1907 1905 1908
2976 12 2671 2672 2673
2977 12 2572 2573 2574
2978 12 2311 2312 2313
2979 7 216 219 222
2980 5 216 219 223
2981 5 216 219 224
2982 5 222 219 223
2983 5 222 219 224
2984 6 223 219 224
2985 1 623 622 624
2986 1 623 622 625
2987 1 623 622 626
2988 2 624 622 625
2989 2 624 622 626
2990 2 625 622 626
2991 12 2665 2666 2667
2992 5 1321 1324 1327
2993 5 1321 1324 1328
2994 5 1321 1324 1329
2995 6 1327 1324 1328
2996 6 1327 1324 1329
2997 6 1328 1324 1329
2998 7 1315 1318 1321
2999 5 1315 1318 1322
3000 5 1315 1318 1323
3001 5 1321 1318 1322
3002 5 1321 1318 1323
3003 6 1322 1318 1323
3004 7 1318 1321 1324
3005 5 1318 1321 1325
3006 5 1318 1321 1326
3007 5 1324 1321 1325
3008 5 1324 1321 1326
3009 6 1325 1321 1326
3010 7 1312 1315 1318
3011 5 1312 1315 1319
3012 5 1312 1315 1320
3013 5 1318 1315 1319
3014 5 1318 1315 1320
3015 6 1319 1315 1320
3016 12 2767 2768 2769
3017 12 2872 2873 2874
3018 12 2758 2759 2760
3019 7 1309 1312 1315
3020 5 1309 1312 1316
3021 5 1309 1312 1317
3022 5 1315 1312 1316
3023 5 1315 1312 1317
3024 6 1316 1312 1317
3025 7 213 216 219
3026 5 213 216 220
3027 5 213 216 221
3028 5 219 216 220
3029 5 219 216 221
3030 6 220 216 221
3031 7 2159 2162 2165
3032 5 2159 2162 2166
3033 5 2159 2162 2167
3034 5 2165 2162 2166
3035 5 2165 2162 2167
3036 6 2166 2162 2167
3037 7 2156 2159 2162
3038 5 2156 2159 2163
3039 5 2156 2159 2164
3040 5 2162 2159 2163
3041 5 2162 2159 2164
3042 6 2163 2159 2164
3043 12 2602 2603 2604
3044 3 208 209 213
3045 4 208 209 214
3046 4 208 209 215
3047 5 213 209 214
3048 5 213 209 215
3049 6 214 209 215
3050 7 209 213 216
3051 5 209 213 217
3052 5 209 213 218
3053 5 216 213 217
3054 5 216 213 218
3055 6 217 213 218
3056 12 2320 2321 2322
3057 1 209 208 210
3058 1 209 208 211
3059 1 209 208 212
3060 2 210 208 211
3061 2 210 208 212
3062 2 211 208 212
3063 12 2551 2552 2553
3064 12 2506 2507 2508
3065 7 1306 1309 1312
3066 5 1306 1309 1313
3067 5 1306 1309 1314
3068 5 1312 1309 1313
3069 5 1312 1309 1314
3070 6 1313 1309 1314
3071 12 2563 2564 2565
3072 8 2156 2155 2157
3073 8 2156 2155 2158
3074 9 2157 2155 2158
3075 10 2155 2156 2159
3076 11 2155 2156 2160
3077 11 2155 2156 2161
3078 5 2159 2156 2160
3079 5 2159 2156 2161
3080 6 2160 2156 2161
3081 12 2518 2519 2520
3082 12 2605 2606 2607
3083 12 2497 2498 2499
3084 3 277 278 282
3085 4 277 278 283
3086 4 277 278 284
3087 5 282 278 283
3088 5 282 278 284
3089 6 283 278 284
3090 7 1959 1962 1965
3091 5 1959 1962 1966
3092 5 1959 1962 1967
3093 5 1965 1962 1966
3094 5 1965 1962 1967
3095 6 1966 1962 1967
3096 7 1962 1965 1968
3097 5 1962 1965 1969
3098 5 1962 1965 1970
3099 5 1968 1965 1969
3100 5 1968 1965 1970
3101 6 1969 1965 1970
3102 3 967 968 972
3103 4 967 968 973
3104 4 967 968 974
3105 5 972 968 973
3106 5 972 968 974
3107 6 973 968 974
3108 1 968 967 969
3109 1 968 967 970
3110 1 968 967 971
3111 2 969 967 970
3112 2 969 967 971
3113 2 970 967 971
3114 7 1956 1959 1962
3115 5 1956 1959 1963
3116 5 1956 1959 1964
3117 5 1962 1959 1963
3118 5 1962 1959 1964
3119 6 1963 1959 1964
3120 8 2106 2105 2107
3121 8 2106 2105 2108
3122 9 2107 2105 2108
3123 10 1955 1956 1959
3124 11 1955 1956 1960
3125 11 1955 1956 1961
3126 5 1959 1956 1960
3127 5 1959 1956 1961
3128 6 1960 1956 1961
3129 10 2105 2106 2109
3130 11 2105 2106 2110
3131 11 2105 2106 2111
3132 5 2109 2106 2110
3133 5 2109 2106 2111
3134 6 2110 2106 2111
3135 12 2626 2627 2628
3136 12 2698 2699 2700
3137 1 278 277 279
3138 1 278 277 280
3139 1 278 277 281
3140 2 279 277 280
3141 2 279 277 281
3142 2 280 277 281
3143 7 2106 2109 2112
3144 5 2106 2109 2113
3145 5 2106 2109 2114
3146 5 2112 2109 2113
3147 5 2112 2109 2114
3148 6 2113 2109 2114
3149 7 2109 2112 2115
3150 5 2109 2112 2116
3151 5 2109 2112 2117
3152 5 2115 2112 2116
3153 5 2115 2112 2117
3154 6 2116 2112 2117
3155 7 2112 2115 2118
3156 5 2112 2115 2119
3157 5 2112 2115 2120
3158 5 2118 2115 2119
3159 5 2118 2115 2120
3160 6 2119 2115 2120
3161 12 2527 2528 2529
3162 7 623 627 630
3163 5 623 627 631
3164 5 623 627 632
3165 5 630 627 631
3166 5 630 627 632
3167 6 631 627 632
3168 12 2533 2534 2535
3169 12 2332 2333 2334
3170 12 2776 2777 2778
3171 12 2812 2813 2814
3172 8 1931 1930 1932
3173 8 1931 1930 1933
3174 9 1932 1930 1933
3175 10 1930 1931 1934
3176 11 1930 1931 1935
3177 11 1930 1931 1936
3178 5 1934 1931 1935
3179 5 1934 1931 1936
3180 6 1935 1931 1936
3181 7 1931 1934 1937
3182 5 1931 1934 1938
3183 5 1931 1934 1939
3184 5 1937 1934 1938
3185 5 1937 1934 1939
3186 6 1938 1934 1939
3187 7 1934 1937 1940
3188 5 1934 1937 1941
3189 5 1934 1937 1942
3190 5 1940 1937 1941
3191 5 1940 1937 1942
3192 6 1941 1937 1942
3193 7 1937 1940 1943
3194 5 1937 1940 1944
3195 5 1937 1940 1945
3196 5 1943 1940 1944
3197 5 1943 1940 1945
3198 6 1944 1940 1945
3199 7 1940 1943 1946
3200 5 1940 1943 1947
3201 5 1940 1943 1948
3202 5 1946 1943 1947
3203 5 1946 1943 1948
3204 6 1947 1943 1948
3205 10 1805 1806 1809
3206 11 1805 1806 1810
3207 11 1805 1806 1811
3208 5 1809 1806 1810
3209 5 1809 1806 1811
3210 6 1810 1806 1811
3211 5 2121 2124 2127
3212 5 2121 2124 2128
3213 5 2121 2124 2129
3214 6 2127 2124 2128
3215 6 2127 2124 2129
3216 6 2128 2124 2129
3217 7 190 193 196
3218 5 190 193 197
3219 5 190 193 198
3220 5 196 193 197
3221 5 196 193 198
3222 6 197 193 198
3223 7 515 518 521
3224 5 515 518 522
3225 5 515 518 523
3226 5 521 518 522
3227 5 521 518 523
3228 6 522 518 523
3229 7 512 515 518
3230 5 512 515 519
3231 5 512 515 520
3232 5 518 515 519
3233 5 518 515 520
3234 6 519 515 520
3235 7 518 521 524
3236 5 518 521 525
3237 5 518 521 526
3238 5 524 521 525
3239 5 524 521 526
3240 6 525 521 526
3241 5 1521 1524 1527
3242 5 1521 1524 1528
3243 5 1521 1524 1529
3244 6 1527 1524 1528
3245 6 1527 1524 1529
3246 6 1528 1524 1529
3247 7 186 190 193
3248 5 186 190 194
3249 5 186 190 195
3250 5 193 190 194
3251 5 193 190 195
3252 6 194 190 195
3253 7 1518 1521 1524
3254 5 1518 1521 1525
3255 5 1518 1521 1526
3256 5 1524 1521 1525
3257 5 1524 1521 1526
3258 6 1525 1521 1526
3259 12 2395 2396 2397
3260 3 185 186 190
3261 4 185 186 191
3262 4 185 186 192
3263 5 190 186 191
3264 5 190 186 192
3265 6 191 186 192
3266 5 521 524 527
3267 5 521 524 528
3268 5 521 524 529
3269 6 527 524 528
3270 6 527 524 529
3271 6 528 524 529
3272 5 889 892 895
3273 5 889 892 896
3274 5 889 892 897
3275 6 895 892 896
3276 6 895 892 897
3277 6 896 892 897
3278 7 1515 1518 1521
3279 5 1515 1518 1522
3280 5 1515 1518 1523
3281 5 1521 1518 1522
3282 5 1521 1518 1523
3283 6 1522 1518 1523
3284 7 48 52 55
3285 5 48 52 56
3286 5 48 52 57
3287 5 55 52 56
3288 5 55 52 57
3289 6 56 52 57
3290 7 52 55 58
3291 5 52 55 59
3292 5 52 55 60
3293 5 58 55 59
3294 5 58 55 60
3295 6 59 55 60
3296 3 47 48 52
3297 4 47 48 53
3298 4 47 48 54
3299 5 52 48 53
3300 5 52 48 54
3301 6 53 48 54
3302 12 2386 2387 2388
3303 1 48 47 49
3304 1 48 47 50
3305 1 48 47 51
3306 2 49 47 50
3307 2 49 47 51
3308 2 50 47 51
3309 8 2131 2130 2132
3310 8 2131 2130 2133
3311 9 2132 2130 2133
3312 7 55 58 61
3313 5 55 58 62
3314 5 55 58 63
3315 5 61 58 62
3316 5 61 58 63
3317 6 62 58 63
3318 7 2137 2140 2143
3319 5 2137 2140 2144
3320 5 2137 2140 2145
3321 5 2143 2140 2144
3322 5 2143 2140 2145
3323 6 2144 2140 2145
3324 7 2140 2143 2146
3325 5 2140 2143 2147
3326 5 2140 2143 2148
3327 5 2146 2143 2147
3328 5 2146 2143 2148
3329 6 2147 2143 2148
3330 10 2130 2131 2134
3331 11 2130 2131 2135
3332 11 2130 2131 2136
3333 5 2134 2131 2135
3334 5 2134 2131 2136
3335 6 2135 2131 2136
3336 7 2143 2146 2149
3337 5 2143 2146 2150
3338 5 2143 2146 2151
3339 5 2149 2146 2150
3340 5 2149 2146 2151
3341 6 2150 2146 2151
3342 7 2131 2134 2137
3343 5 2131 2134 2138
3344 5 2131 2134 2139
3345 5 2137 2134 2138
3346 5 2137 2134 2139
3347 6 2138 2134 2139
3348 7 2134 2137 2140
3349 5 2134 2137 2141
3350 5 2134 2137 2142
3351 5 2140 2137 2141
3352 5 2140 2137 2142
3353 6 2141 2137 2142
3354 5 2146 2149 2152
3355 5 2146 2149 2153
3356 5 2146 2149 2154
3357 6 2152 2149 2153
3358 6 2152 2149 2154
3359 6 2153 2149 2154
3360 7 1512 1515 1518
3361 5 1512 1515 1519
3362 5 1512 1515 1520
3363 5 1518 1515 1519
3364 5 1518 1515 1520
3365 6 1519 1515 1520
3366 7 1509 1512 1515
3367 5 1509 1512 1516
3368 5 1509 1512 1517
3369 5 1515 1512 1516
3370 5 1515 1512 1517
3371 6 1516 1512 1517
3372 7 1093 1096 1099
3373 5 1093 1096 1100
3374 5 1093 1096 1101
3375 5 1099 1096 1100
3376 5 1099 1096 1101
3377 6 1100 1096 1101
3378 7 1090 1093 1096
3379 5 1090 1093 1097
3380 5 1090 1093 1098
3381 5 1096 1093 1097
3382 5 1096 1093 1098
3383 6 1097 1093 1098
3384 7 124 127 130
3385 5 124 127 131
3386 5 124 127 132
3387 5 130 127 131
3388 5 130 127 132
3389 6 131 127 132
3390 5 1096 1099 1102
3391 5 1096 1099 1103
3392 5 1096 1099 1104
3393 6 1102 1099 1103
3394 6 1102 1099 1104
3395 6 1103 1099 1104
3396 7 127 130 133
3397 5 127 130 134
3398 5 127 130 135
3399 5 133 130 134
3400 5 133 130 135
3401 6 134 130 135
3402 12 2710 2711 2712
3403 7 121 124 127
3404 5 121 124 128
3405 5 121 124 129
3406 5 127 124 128
3407 5 127 124 129
3408 6 128 124 129
3409 5 1821 1824 1827
3410 5 1821 1824 1828
3411 5 1821 1824 1829
3412 6 1827 1824 1828
3413 6 1827 1824 1829
3414 6 1828 1824 1829
3415 7 117 121 124
3416 5 117 121 125
3417 5 117 121 126
3418 5 124 121 125
3419 5 124 121 126
3420 6 125 121 126
3421 5 130 133 136
3422 5 130 133 137
3423 5 130 133 138
3424 6 136 133 137
3425 6 136 133 138
3426 6 137 133 138
3427 5 2221 2224 2227
3428 5 2221 2224 2228
3429 5 2221 2224 2229
3430 6 2227 2224 2228
3431 6 2227 2224 2229
3432 6 2228 2224 2229
3433 7 2218 2221 2224
3434 5 2218 2221 2225
3435 5 2218 2221 2226
3436 5 2224 2221 2225
3437 5 2224 2221 2226
3438 6 2225 2221 2226
3439 1 117 116 118
3440 1 117 116 119
3441 1 117 116 120
3442 2 118 116 119
3443 2 118 116 120
3444 2 119 116 120
3445 7 508 512 515
3446 5 508 512 516
3447 5 508 512 517
3448 5 515 512 516
3449 5 515 512 517
3450 6 516 512 517
3451 12 2557 2558 2559
3452 3 116 117 121
3453 4 116 117 122
3454 4 116 117 123
3455 5 121 117 122
3456 5 121 117 123
3457 6 122 117 123
3458 12 2356 2357 2358
3459 12 2485 2486 2487
3460 8 1256 1255 1257
3461 8 1256 1255 1258
3462 9 1257 1255 1258
3463 3 507 508 512
3464 4 507 508 513
3465 4 507 508 514
3466 5 512 508 513
3467 5 512 508 514
3468 6 513 508 514
3469 1 508 507 509
3470 1 508 507 510
3471 1 508 507 511
3472 2 509 507 510
3473 2 509 507 511
3474 2 510 507 511
3475 10 1255 1256 1259
3476 11 1255 1256 1260
3477 11 1255 1256 1261
3478 5 1259 1256 1260
3479 5 1259 1256 1261
3480 6 1260 1256 1261
3481 7 2215 2218 2221
3482 5 2215 2218 2222
3483 5 2215 2218 2223
3484 5 2221 2218 2222
3485 5 2221 2218 2223
3486 6 2222 2218 2223
3487 7 2212 2215 2218
3488 5 2212 2215 2219
3489 5 2212 2215 2220
3490 5 2218 2215 2219
3491 5 2218 2215 2220
3492 6 2219 2215 2220
3493 7 2206 2209 2212
3494 5 2206 2209 2213
3495 5 2206 2209 2214
3496 5 2212 2209 2213
3497 5 2212 2209 2214
3498 6 2213 2209 2214
3499 7 2209 2212 2215
3500 5 2209 2212 2216
3501 5 2209 2212 2217
3502 5 2215 2212 2216
3503 5 2215 2212 2217
3504 6 2216 2212 2217
3505 5 636 639 642
3506 5 636 639 643
3507 5 636 639 644
3508 6 642 639 643
3509 6 642 639 644
3510 6 643 639 644
3511 7 400 403 406
3512 5 400 403 407
3513 5 400 403 408
3514 5 406 403 407
3515 5 406 403 408
3516 6 407 403 408
3517 7 1462 1465 1468
3518 5 1462 1465 1469
3519 5 1462 1465 1470
3520 5 1468 1465 1469
3521 5 1468 1465 1470
3522 6 1469 1465 1470
3523 12 2464 2465 2466
3524 1 186 185 187
3525 1 186 185 188
3526 1 186 185 189
3527 2 187 185 188
3528 2 187 185 189
3529 2 188 185 189
3530 7 1456 1459 1462
3531 5 1456 1459 1463
3532 5 1456 1459 1464
3533 5 1462 1459 1463
3534 5 1462 1459 1464
3535 6 1463 1459 1464
3536 8 1456 1455 1457
3537 8 1456 1455 1458
3538 9 1457 1455 1458
3539 10 1455 1456 1459
3540 11 1455 1456 1460
3541 11 1455 1456 1461
3542 5 1459 1456 1460
3543 5 1459 1456 1461
3544 6 1460 1456 1461
3545 1 393 392 394
3546 1 393 392 395
3547 1 393 392 396
3548 2 394 392 395
3549 2 394 392 396
3550 2 395 392 396
3551 7 393 397 400
3552 5 393 397 401
3553 5 393 397 402
3554 5 400 397 401
3555 5 400 397 402
3556 6 401 397 402
3557 12 2467 2468 2469
3558 12 2383 2384 2385
3559 7 1459 1462 1465
3560 5 1459 1462 1466
3561 5 1459 1462 1467
3562 5 1465 1462 1466
3563 5 1465 1462 1467
3564 6 1466 1462 1467
3565 8 1206 1205 1207
3566 8 1206 1205 1208
3567 9 1207 1205 1208
3568 10 1205 1206 1209
3569 11 1205 1206 1210
3570 11 1205 1206 1211
3571 5 1209 1206 1210
3572 5 1209 1206 1211
3573 6 1210 1206 1211
3574 7 1206 1209 1212
3575 5 1206 1209 1213
3576 5 1206 1209 1214
3577 5 1212 1209 1213
3578 5 1212 1209 1214
3579 6 1213 1209 1214
3580 7 301 305 308
3581 5 301 305 309
3582 5 301 305 310
3583 5 308 305 309
3584 5 308 305 310
3585 6 309 305 310
3586 12 2329 2330 2331
3587 7 1506 1509 1512
3588 5 1506 1509 1513
3589 5 1506 1509 1514
3590 5 1512 1509 1513
3591 5 1512 1509 1514
3592 6 1513 1509 1514
3593 10 1505 1506 1509
3594 11 1505 1506 1510
3595 11 1505 1506 1511
3596 5 1509 1506 1510
3597 5 1509 1506 1511
3598 6 1510 1506 1511
3599 8 1506 1505 1507
3600 8 1506 1505 1508
3601 9 1507 1505 1508
3602 12 2737 2738 2739
3603 7 1612 1615 1618
3604 5 1612 1615 1619
3605 5 1612 1615 1620
3606 5 1618 1615 1619
3607 5 1618 1615 1620
3608 6 1619 1615 1620
3609 5 1621 1624 1627
3610 5 1621 1624 1628
3611 5 1621 1624 1629
3612 6 1627 1624 1628
3613 6 1627 1624 1629
3614 6 1628 1624 1629
3615 7 1618 1621 1624
3616 5 1618 1621 1625
3617 5 1618 1621 1626
3618 5 1624 1621 1625
3619 5 1624 1621 1626
3620 6 1625 1621 1626
3621 7 1615 1618 1621
3622 5 1615 1618 1622
3623 5 1615 1618 1623
3624 5 1621 1618 1622
3625 5 1621 1618 1623
3626 6 1622 1618 1623
3627 3 300 301 305
3628 4 300 301 306
3629 4 300 301 307
3630 5 305 301 306
3631 5 305 301 307
3632 6 306 301 307
3633 1 301 300 302
3634 1 301 300 303
3635 1 301 300 304
3636 2 302 300 303
3637 2 302 300 304
3638 2 303 300 304
3639 12 2428 2429 2430
3640 10 1605 1606 1609
3641 11 1605 1606 1610
3642 11 1605 1606 1611
3643 5 1609 1606 1610
3644 5 1609 1606 1611
3645 6 1610 1606 1611
3646 10 1430 1431 1434
3647 11 1430 1431 1435
3648 11 1430 1431 1436
3649 5 1434 1431 1435
3650 5 1434 1431 1436
3651 6 1435 1431 1436
3652 7 1434 1437 1440
3653 5 1434 1437 1441
3654 5 1434 1437 1442
3655 5 1440 1437 1441
3656 5 1440 1437 1442
3657 6 1441 1437 1442
3658 7 1431 1434 1437
3659 5 1431 1434 1438
3660 5 1431 1434 1439
3661 5 1437 1434 1438
3662 5 1437 1434 1439
3663 6 1438 1434 1439
3664 7 1437 1440 1443
3665 5 1437 1440 1444
3666 5 1437 1440 1445
3667 5 1443 1440 1444
3668 5 1443 1440 1445
3669 6 1444 1440 1445
3670 7 1440 1443 1446
3671 5 1440 1443 1447
3672 5 1440 1443 1448
3673 5 1446 1443 1447
3674 5 1446 1443 1448
3675 6 1447 1443 1448
3676 7 1443 1446 1449
3677 5 1443 1446 1450
3678 5 1443 1446 1451
3679 5 1449 1446 1450
3680 5 1449 1446 1451
3681 6 1450 1446 1451
3682 5 1446 1449 1452
3683 5 1446 1449 1453
3684 5 1446 1449 1454
3685 6 1452 1449 1453
3686 6 1452 1449 1454
3687 6 1453 1449 1454
3688 5 2021 2024 2027
3689 5 2021 2024 2028
3690 5 2021 2024 2029
3691 6 2027 2024 2028
3692 6 2027 2024 2029
3693 6 2028 2024 2029
3694 7 2015 2018 2021
3695 5 2015 2018 2022
3696 5 2015 2018 2023
3697 5 2021 2018 2022
3698 5 2021 2018 2023
3699 6 2022 2018 2023
3700 7 2012 2015 2018
3701 5 2012 2015 2019
3702 5 2012 2015 2020
3703 5 2018 2015 2019
3704 5 2018 2015 2020
3705 6 2019 2015 2020
3706 7 2018 2021 2024
3707 5 2018 2021 2025
3708 5 2018 2021 2026
3709 5 2024 2021 2025
3710 5 2024 2021 2026
3711 6 2025 2021 2026
3712 7 1340 1343 1346
3713 5 1340 1343 1347
3714 5 1340 1343 1348
3715 5 1346 1343 1347
3716 5 1346 1343 1348
3717 6 1347 1343 1348
3718 7 239 242 245
3719 5 239 242 246
3720 5 239 242 247
3721 5 245 242 246
3722 5 245 242 247
3723 6 246 242 247
3724 7 242 245 248
3725 5 242 245 249
3726 5 242 245 250
3727 5 248 245 249
3728 5 248 245 250
3729 6 249 245 250
3730 7 1337 1340 1343
3731 5 1337 1340 1344
3732 5 1337 1340 1345
3733 5 1343 1340 1344
3734 5 1343 1340 1345
3735 6 1344 1340 1345
3736 5 728 731 734
3737 5 728 731 735
3738 5 728 731 736
3739 6 734 731 735
3740 6 734 731 736
3741 6 735 731 736
3742 7 725 728 731
3743 5 725 728 732
3744 5 725 728 733
3745 5 731 728 732
3746 5 731 728 733
3747 6 732 728 733
3748 7 722 725 728
3749 5 722 725 729
3750 5 722 725 730
3751 5 728 725 729
3752 5 728 725 730
3753 6 729 725 730
3754 12 2461 2462 2463
3755 7 2009 2012 2015
3756 5 2009 2012 2016
3757 5 2009 2012 2017
3758 5 2015 2012 2016
3759 5 2015 2012 2017
3760 6 2016 2012 2017
3761 10 2205 2206 2209
3762 11 2205 2206 2210
3763 11 2205 2206 2211
3764 5 2209 2206 2210
3765 5 2209 2206 2211
3766 6 2210 2206 2211
3767 7 561 564 567
3768 5 561 564 568
3769 5 561 564 569
3770 5 567 564 568
3771 5 567 564 569
3772 6 568 564 569
3773 3 392 393 397
3774 4 392 393 398
3775 4 392 393 399
3776 5 397 393 398
3777 5 397 393 399
3778 6 398 393 399
3779 8 2206 2205 2207
3780 8 2206 2205 2208
3781 9 2207 2205 2208
3782 8 2006 2005 2007
3783 8 2006 2005 2008
3784 9 2007 2005 2008
3785 7 2006 2009 2012
3786 5 2006 2009 2013
3787 5 2006 2009 2014
3788 5 2012 2009 2013
3789 5 2012 2009 2014
3790 6 2013 2009 2014
3791 10 2005 2006 2009
3792 11 2005 2006 2010
3793 11 2005 2006 2011
3794 5 2009 2006 2010
3795 5 2009 2006 2011
3796 6 2010 2006 2011
3797 12 2701 2702 2703
3798 7 397 400 403
3799 5 397 400 404
3800 5 397 400 405
3801 5 403 400 404
3802 5 403 400 405
3803 6 404 400 405
3804 7 558 561 564
3805 5 558 561 565
3806 5 558 561 566
3807 5 564 561 565
3808 5 564 561 566
3809 6 565 561 566
3810 7 554 558 561
3811 5 554 558 562
3812 5 554 558 563
3813 5 561 558 562
3814 5 561 558 563
3815 6 562 558 563
3816 12 2587 2588 2589
3817 3 553 554 558
3818 4 553 554 559
3819 4 553 554 560
3820 5 558 554 559
3821 5 558 554 560
3822 6 559 554 560
3823 1 554 553 555
3824 1 554 553 556
3825 1 554 553 557
3826 2 555 553 556
3827 2 555 553 557
3828 2 556 553 557
3829 12 2662 2663 2664
3830 12 2404 2405 2406
3831 7 311 314 317
3832 5 311 314 318
3833 5 311 314 319
3834 5 317 314 318
3835 5 317 314 319
3836 6 318 314 319
3837 12 2599 2600 2601
3838 7 1209 1212 1215
3839 5 1209 1212 1216
3840 5 1209 1212 1217
3841 5 1215 1212 1216
3842 5 1215 1212 1217
3843 6 1216 1212 1217
3844 7 1212 1215 1218
3845 5 1212 1215 1219
3846 5 1212 1215 1220
3847 5 1218 1215 1219
3848 5 1218 1215 1220
3849 6 1219 1215 1220
3850 7 308 311 314
3851 5 308 311 315
3852 5 308 311 316
3853 5 314 311 315
3854 5 314 311 316
3855 6 315 311 316
3856 7 305 308 311
3857 5 305 308 312
3858 5 305 308 313
3859 5 311 308 312
3860 5 311 308 313
3861 6 312 308 313
3862 7 1215 1218 1221
3863 5 1215 1218 1222
3864 5 1215 1218 1223
3865 5 1221 1218 1222
3866 5 1221 1218 1223
3867 6 1222 1218 1223
3868 7 1218 1221 1224
3869 5 1218 1221 1225
3870 5 1218 1221 1226
3871 5 1224 1221 1225
3872 5 1224 1221 1226
3873 6 1225 1221 1226
3874 5 1221 1224 1227
3875 5 1221 1224 1228
3876 5 1221 1224 1229
3877 6 1227 1224 1228
3878 6 1227 1224 1229
3879 6 1228 1224 1229
3880 7 351 354 357
3881 5 351 354 358
3882 5 351 354 359
3883 5 357 354 358
3884 5 357 354 359
3885 6 358 354 359
3886 3 346 347 351
3887 4 346 347 352
3888 4 346 347 353
3889 5 351 347 352
3890 5 351 347 353
3891 6 352 347 353
3892 12 2830 2831 2832
3893 7 347 351 354
3894 5 347 351 355
3895 5 347 351 356
3896 5 354 351 355
3897 5 354 351 356
3898 6 355 351 356
3899 1 347 346 348
3900 1 347 346 349
3901 1 347 346 350
3902 2 348 346 349
3903 2 348 346 350
3904 2 349 346 350
3905 5 314 317 320
3906 5 314 317 321
3907 5 314 317 322
3908 6 320 317 321
3909 6 320 317 322
3910 6 321 317 322
3911 12 2521 2522 2523
3912 8 1606 1605 1607
3913 8 1606 1605 1608
3914 9 1607 1605 1608
3915 12 2770 2771 2772
3916 12 2380 2381 2382
3917 8 1431 1430 1432
3918 8 1431 1430 1433
3919 9 1432 1430 1433
3920 12 2389 2390 2391
3921 12 2848 2849 2850
3922 3 852 853 857
3923 4 852 853 858
3924 4 852 853 859
3925 5 857 853 858
3926 5 857 853 859
3927 6 858 853 859
3928 1 853 852 854
3929 1 853 852 855
3930 1 853 852 856
3931 2 854 852 855
3932 2 854 852 856
3933 2 855 852 856
3934 7 853 857 860
3935 5 853 857 861
3936 5 853 857 862
3937 5 860 857 861
3938 5 860 857 862
3939 6 861 857 862
3940 3 668 669 673
3941 4 668 669 674
3942 4 668 669 675
3943 5 673 669 674
3944 5 673 669 675
3945 6 674 669 675
3946 12 2761 2762 2763
3947 12 2431 2432 2433
3948 12 2458 2459 2460
3949 1 669 668 670
3950 1 669 668 671
3951 1 669 668 672
3952 2 670 668 671
3953 2 670 668 672
3954 2 671 668 672
3955 12 2644 2645 2646
3956 12 2782 2783 2784
3957 12 2401 2402 2403
3958 1 485 484 486
3959 1 485 484 487
3960 1 485 484 488
3961 2 486 484 487
3962 2 486 484 488
3963 2 487 484 488
3964 12 2581 2582 2583
3965 8 1331 1330 1332
3966 8 1331 1330 1333
3967 9 1332 1330 1333
3968 7 1334 1337 1340
3969 5 1334 1337 1341
3970 5 1334 1337 1342
3971 5 1340 1337 1341
3972 5 1340 1337 1342
3973 6 1341 1337 1342
3974 5 245 248 251
3975 5 245 248 252
3976 5 245 248 253
3977 6 251 248 252
3978 6 251 248 253
3979 6 252 248 253
3980 10 1330 1331 1334
3981 11 1330 1331 1335
3982 11 1330 1331 1336
3983 5 1334 1331 1335
3984 5 1334 1331 1336
3985 6 1335 1331 1336
3986 7 1331 1334 1337
3987 5 1331 1334 1338
3988 5 1331 1334 1339
3989 5 1337 1334 1338
3990 5 1337 1334 1339
3991 6 1338 1334 1339
3992 5 774 777 780
3993 5 774 777 781
3994 5 774 777 782
3995 6 780 777 781
3996 6 780 777 782
3997 6 781 777 782
3998 12 2752 2753 2754
3999 12 2419 2420 2421
4000 7 768 771 774
4001 5 768 771 775
4002 5 768 771 776
4003 5 774 771 775
4004 5 774 771 776
4005 6 775 771 776
4006 7 765 768 771
4007 5 765 768 772
4008 5 765 768 773
4009 5 771 768 772
4010 5 771 768 773
4011 6 772 768 773
4012 3 760 761 765
4013 4 760 761 766
4014 4 760 761 767
4015 5 765 761 766
4016 5 765 761 767
4017 6 766 761 767
4018 1 761 760 762
4019 1 761 760 763
4020 1 761 760 764
4021 2 762 760 763
4022 2 762 760 764
4023 2 763 760 764
4024 7 761 765 768
4025 5 761 765 769
4026 5 761 765 770
4027 5 768 765 769
4028 5 768 765 770
4029 6 769 765 770
4030 1 715 714 716
4031 1 715 714 717
4032 1 715 714 718
4033 2 716 714 717
4034 2 716 714 718
4035 2 717 714 718
4036 7 719 722 725
4037 5 719 722 726
4038 5 719 722 727
4039 5 725 722 726
4040 5 725 722 727
4041 6 726 722 727
4042 7 715 719 722
4043 5 715 719 723
4044 5 715 719 724
4045 5 722 719 723
4046 5 722 719 724
4047 6 723 719 724
4048 3 714 715 719
4049 4 714 715 720
4050 4 714 715 721
4051 5 719 715 720
4052 5 719 715 721
4053 6 720 715 721
4054 12 2650 2651 2652
4055 12 2869 2870 2871
4056 12 2755 2756 2757
4057 10 1380 1381 1384
4058 11 1380 1381 1385
4059 11 1380 1381 1386
4060 5 1384 1381 1385
4061 5 1384 1381 1386
4062 6 1385 1381 1386
4063 7 1381 1384 1387
4064 5 1381 1384 1388
4065 5 1381 1384 1389
4066 5 1387 1384 1388
4067 5 1387 1384 1389
4068 6 1388 1384 1389
4069 7 1047 1050 1053
4070 5 1047 1050 1054
4071 5 1047 1050 1055
4072 5 1053 1050 1054
4073 5 1053 1050 1055
4074 6 1054 1050 1055
4075 8 1381 1380 1382
4076 8 1381 1380 1383
4077 9 1382 1380 1383
4078 12 2473 2474 2475
4079 5 1050 1053 1056
4080 5 1050 1053 1057
4081 5 1050 1053 1058
4082 6 1056 1053 1057
4083 6 1056 1053 1058
4084 6 1057 1053 1058
4085 10 2055 2056 2059
4086 11 2055 2056 2060
4087 11 2055 2056 2061
4088 5 2059 2056 2060
4089 5 2059 2056 2061
4090 6 2060 2056 2061
4091 5 2096 2099 2102
4092 5 2096 2099 2103
4093 5 2096 2099 2104
4094 6 2102 2099 2103
4095 6 2102 2099 2104
4096 6 2103 2099 2104
4097 10 1305 1306 1309
4098 11 1305 1306 1310
4099 11 1305 1306 1311
4100 5 1309 1306 1310
4101 5 1309 1306 1311
4102 6 1310 1306 1311
4103 5 1271 1274 1277
4104 5 1271 1274 1278
4105 5 1271 1274 1279
4106 6 1277 1274 1278
4107 6 1277 1274 1279
4108 6 1278 1274 1279
4109 7 2093 2096 2099
4110 5 2093 2096 2100
4111 5 2093 2096 2101
4112 5 2099 2096 2100
4113 5 2099 2096 2101
4114 6 2100 2096 2101
4115 7 2090 2093 2096
4116 5 2090 2093 2097
4117 5 2090 2093 2098
4118 5 2096 2093 2097
4119 5 2096 2093 2098
4120 6 2097 2093 2098
4121 7 2081 2084 2087
4122 5 2081 2084 2088
4123 5 2081 2084 2089
4124 5 2087 2084 2088
4125 5 2087 2084 2089
4126 6 2088 2084 2089
4127 7 2084 2087 2090
4128 5 2084 2087 2091
4129 5 2084 2087 2092
4130 5 2090 2087 2091
4131 5 2090 2087 2092
4132 6 2091 2087 2092
4133 7 2087 2090 2093
4134 5 2087 2090 2094
4135 5 2087 2090 2095
4136 5 2093 2090 2094
4137 5 2093 2090 2095
4138 6 2094 2090 2095
4139 12 2641 2642 2643
4140 10 2080 2081 2084
4141 11 2080 2081 2085
4142 11 2080 2081 2086
4143 5 2084 2081 2085
4144 5 2084 2081 2086
4145 6 2085 2081 2086
4146 8 2081 2080 2082
4147 8 2081 2080 2083
4148 9 2082 2080 2083
4149 12 2794 2795 2796
4150 8 1306 1305 1307
4151 8 1306 1305 1308
4152 9 1307 1305 1308
4153 8 2031 2030 2032
4154 8 2031 2030 2033
4155 9 2032 2030 2033
4156 12 2323 2324 2325
4157 1 807 806 808
4158 1 807 806 809
4159 1 807 806 810
4160 2 808 806 809
4161 2 808 806 810
4162 2 809 806 810
4163 12 2833 2834 2835
4164 12 2845 2846 2847
4165 12 2680 2681 2682
4166 10 2030 2031 2034
4167 11 2030 2031 2035
4168 11 2030 2031 2036
4169 5 2034 2031 2035
4170 5 2034 2031 2036
4171 6 2035 2031 2036
4172 12 2503 2504 2505
4173 7 2031 2034 2037
4174 5 2031 2034 2038
4175 5 2031 2034 2039
4176 5 2037 2034 2038
4177 5 2037 2034 2039
4178 6 2038 2034 2039
4179 7 2034 2037 2040
4180 5 2034 2037 2041
4181 5 2034 2037 2042
4182 5 2040 2037 2041
4183 5 2040 2037 2042
4184 6 2041 2037 2042
4185 3 484 485 489
4186 4 484 485 490
4187 4 484 485 491
4188 5 489 485 490
4189 5 489 485 491
4190 6 490 485 491
4191 8 1231 1230 1232
4192 8 1231 1230 1233
4193 9 1232 1230 1233
4194 7 2037 2040 2043
4195 5 2037 2040 2044
4196 5 2037 2040 2045
4197 5 2043 2040 2044
4198 5 2043 2040 2045
4199 6 2044 2040 2045
4200 3 1082 1083 1087
4201 4 1082 1083 1088
4202 4 1082 1083 1089
4203 5 1087 1083 1088
4204 5 1087 1083 1089
4205 6 1088 1083 1089
4206 5 2046 2049 2052
4207 5 2046 2049 2053
4208 5 2046 2049 2054
4209 6 2052 2049 2053
4210 6 2052 2049 2054
4211 6 2053 2049 2054
4212 7 1087 1090 1093
4213 5 1087 1090 1094
4214 5 1087 1090 1095
4215 5 1093 1090 1094
4216 5 1093 1090 1095
4217 6 1094 1090 1095
4218 7 2043 2046 2049
4219 5 2043 2046 2050
4220 5 2043 2046 2051
4221 5 2049 2046 2050
4222 5 2049 2046 2051
4223 6 2050 2046 2051
4224 7 2040 2043 2046
4225 5 2040 2043 2047
4226 5 2040 2043 2048
4227 5 2046 2043 2047
4228 5 2046 2043 2048
4229 6 2047 2043 2048
4230 7 1083 1087 1090
4231 5 1083 1087 1091
4232 5 1083 1087 1092
4233 5 1090 1087 1091
4234 5 1090 1087 1092
4235 6 1091 1087 1092
4236 1 1083 1082 1084
4237 1 1083 1082 1085
4238 1 1083 1082 1086
4239 2 1084 1082 1085
4240 2 1084 1082 1086
4241 2 1085 1082 1086
4242 7 1812 1815 1818
4243 5 1812 1815 1819
4244 5 1812 1815 1820
4245 5 1818 1815 1819
4246 5 1818 1815 1820
4247 6 1819 1815 1820
4248 7 2115 2118 2121
4249 5 2115 2118 2122
4250 5 2115 2118 2123
4251 5 2121 2118 2122
4252 5 2121 2118 2123
4253 6 2122 2118 2123
4254 7 1815 1818 1821
4255 5 1815 1818 1822
4256 5 1815 1818 1823
4257 5 1821 1818 1822
4258 5 1821 1818 1823
4259 6 1822 1818 1823
4260 7 1818 1821 1824
4261 5 1818 1821 1825
4262 5 1818 1821 1826
4263 5 1824 1821 1825
4264 5 1824 1821 1826
4265 6 1825 1821 1826
4266 12 2314 2315 2316
4267 7 1231 1234 1237
4268 5 1231 1234 1238
4269 5 1231 1234 1239
4270 5 1237 1234 1238
4271 5 1237 1234 1239
4272 6 1238 1234 1239
4273 10 1230 1231 1234
4274 11 1230 1231 1235
4275 11 1230 1231 1236
4276 5 1234 1231 1235
4277 5 1234 1231 1236
4278 6 1235 1231 1236
4279 7 1806 1809 1812
4280 5 1806 1809 1813
4281 5 1806 1809 1814
4282 5 1812 1809 1813
4283 5 1812 1809 1814
4284 6 1813 1809 1814
4285 7 1268 1271 1274
4286 5 1268 1271 1275
4287 5 1268 1271 1276
4288 5 1274 1271 1275
4289 5 1274 1271 1276
4290 6 1275 1271 1276
4291 7 1265 1268 1271
4292 5 1265 1268 1272
4293 5 1265 1268 1273
4294 5 1271 1268 1272
4295 5 1271 1268 1273
4296 6 1272 1268 1273
4297 7 1237 1240 1243
4298 5 1237 1240 1244
4299 5 1237 1240 1245
4300 5 1243 1240 1244
4301 5 1243 1240 1245
4302 6 1244 1240 1245
4303 5 1246 1249 1252
4304 5 1246 1249 1253
4305 5 1246 1249 1254
4306 6 1252 1249 1253
4307 6 1252 1249 1254
4308 6 1253 1249 1254
4309 7 1943 1946 1949
4310 5 1943 1946 1950
4311 5 1943 1946 1951
4312 5 1949 1946 1950
4313 5 1949 1946 1951
4314 6 1950 1946 1951
4315 7 1234 1237 1240
4316 5 1234 1237 1241
4317 5 1234 1237 1242
4318 5 1240 1237 1241
4319 5 1240 1237 1242
4320 6 1241 1237 1242
4321 7 1809 1812 1815
4322 5 1809 1812 1816
4323 5 1809 1812 1817
4324 5 1815 1812 1816
4325 5 1815 1812 1817
4326 6 1816 1812 1817
4327 7 2118 2121 2124
4328 5 2118 2121 2125
4329 5 2118 2121 2126
4330 5 2124 2121 2125
4331 5 2124 2121 2126
4332 6 2125 2121 2126
4333 7 1256 1259 1262
4334 5 1256 1259 1263
4335 5 1256 1259 1264
4336 5 1262 1259 1263
4337 5 1262 1259 1264
4338 6 1263 1259 1264
4339 7 1259 1262 1265
4340 5 1259 1262 1266
4341 5 1259 1262 1267
4342 5 1265 1262 1266
4343 5 1265 1262 1267
4344 6 1266 1262 1267
4345 7 1262 1265 1268
4346 5 1262 1265 1269
4347 5 1262 1265 1270
4348 5 1268 1265 1269
4349 5 1268 1265 1270
4350 6 1269 1265 1270
4351 7 1243 1246 1249
4352 5 1243 1246 1250
4353 5 1243 1246 1251
4354 5 1249 1246 1250
4355 5 1249 1246 1251
4356 6 1250 1246 1251
4357 5 1946 1949 1952
4358 5 1946 1949 1953
4359 5 1946 1949 1954
4360 6 1952 1949 1953
4361 6 1952 1949 1954
4362 6 1953 1949 1954
4363 7 1240 1243 1246
4364 5 1240 1243 1247
4365 5 1240 1243 1248
4366 5 1246 1243 1247
4367 5 1246 1243 1248
4368 6 1247 1243 1248

Dihedrals

1 4 619 616 613 610
2 6 619 616 613 617
3 6 619 616 613 618
4 4 620 616 613 610
5 6 620 616 613 617
6 6 620 616 613 618
7 4 621 616 613 610
8 6 621 616 613 617
9 6 621 616 613 618
10 4 1152 1149 1146 1143
11 6 1152 1149 1146 1150
12 6 1152 1149 1146 1151
13 4 1153 1149 1146 1143
14 6 1153 1149 1146 1150
15 6 1153 1149 1146 1151
16 4 1154 1149 1146 1143
17 6 1154 1149 1146 1150
18 6 1154 1149 1146 1151
19 7 616 613 610 607
20 4 616 613 610 614
21 4 616 613 610 615
22 4 617 613 610 607
23 6 617 613 610 614
24 6 617 613 610 615
25 4 618 613 610 607
26 6 618 613 610 614
27 6 618 613 610 615
28 7 1643 1640 1637 1634
29 4 1643 1640 1637 1641
30 4 1643 1640 1637 1642
31 4 1644 1640 1637 1634
32 6 1644 1640 1637 1641
33 6 1644 1640 1637 1642
34 4 1645 1640 1637 1634
35 6 1645 1640 1637 1641
36 6 1645 1640 1637 1642
37 7 1649 1646 1643 1640
38 4 1649 1646 1643 1647
39 4 1649 1646 1643 1648
40 4 1650 1646 1643 1640
41 6 1650 1646 1643 1647
42 6 1650 1646 1643 1648
43 4 1651 1646 1643 1640
44 6 1651 1646 1643 1647
45 6 1651 1646 1643 1648
46 7 1149 1146 1143 1140
47 4 1149 1146 1143 1147
48 4 1149 1146 1143 1148
49 4 1150 1146 1143 1140
50 6 1150 1146 1143 1147
51 6 1150 1146 1143 1148
52 4 1151 1146 1143 1140
53 6 1151 1146 1143 1147
54 6 1151 1146 1143 1148
55 4 1652 1649 1646 1643
56 6 1652 1649 1646 1650
57 6 1652 1649 1646 1651
58 4 1653 1649 1646 1643
59 6 1653 1649 1646 1650
60 6 1653 1649 1646 1651
61 4 1654 1649 1646 1643
62 6 1654 1649 1646 1650
63 6 1654 1649 1646 1651
64 7 613 610 607 604
65 4 613 610 607 611
66 4 613 610 607 612
67 4 614 610 607 604
68 6 614 610 607 611
69 6 614 610 607 612
70 4 615 610 607 604
71 6 615 610 607 611
72 6 615 610 607 612
73 7 1646 1643 1640 1637
74 4 1646 1643 1640 1644
75 4 1646 1643 1640 1645
76 4 1647 1643 1640 1637
77 6 1647 1643 1640 1644
78 6 1647 1643 1640 1645
79 4 1648 1643 1640 1637
80 6 1648 1643 1640 1644
81 6 1648 1643 1640 1645
82 7 1640 1637 1634 1631
83 4 1640 1637 1634 1638
84 4 1640 1637 1634 1639
85 4 1641 1637 1634 1631
86 6 1641 1637 1634 1638
87 6 1641 1637 1634 1639
88 4 1642 1637 1634 1631
89 6 1642 1637 1634 1638
90 6 1642 1637 1634 1639
91 10 1637 1634 1631 1630
92 4 1637 1634 1631 1635
93 4 1637 1634 1631 1636
94 11 1638 1634 1631 1630
95 6 1638 1634 1631 1635
96 6 1638 1634 1631 1636
97 11 1639 1634 1631 1630
98 6 1639 1634 1631 1635
99 6 1639 1634 1631 1636
100 3 607 604 600 599
101 4 607 604 600 605
102 4 607 604 600 606
103 5 608 604 600 599
104 6 608 604 600 605
105 6 608 604 600 606
106 5 609 604 600 599
107 6 609 604 600 605
108 6 609 604 600 606
109 7 610 607 604 600
110 4 610 607 604 608
111 4 610 607 604 609
112 4 611 607 604 600
113 6 611 607 604 608
114 6 611 607 604 609
115 4 612 607 604 600
116 6 612 607 604 608
117 6 612 607 604 609
118 1 604 600 599 601
119 1 604 600 599 602
120 1 604 600 599 603
121 2 605 600 599 601
122 2 605 600 599 602
123 2 605 600 599 603
124 2 606 600 599 601
125 2 606 600 599 602
126 2 606 600 599 603
127 1 466 462 461 463
128 1 466 462 461 464
129 1 466 462 461 465
130 2 467 462 461 463
131 2 467 462 461 464
132 2 467 462 461 465
133 2 468 462 461 463
134 2 468 462 461 464
135 2 468 462 461 465
136 12 1706 1707 1705 1708
137 12 1856 1857 1855 1858
138 8 1859 1856 1855 1857
139 8 1859 1856 1855 1858
140 9 1860 1856 1855 1857
141 9 1860 1856 1855 1858
142 9 1861 1856 1855 1857
143 9 1861 1856 1855 1858
144 12 1631 1632 1630 1633
145 8 1709 1706 1705 1707
146 8 1709 1706 1705 1708
147 9 1710 1706 1705 1707
148 9 1710 1706 1705 1708
149 9 1711 1706 1705 1707
150 9 1711 1706 1705 1708
151 10 1712 1709 1706 1705
152 4 1712 1709 1706 1710
153 4 1712 1709 1706 1711
154 11 1713 1709 1706 1705
155 6 1713 1709 1706 1710
156 6 1713 1709 1706 1711
157 11 1714 1709 1706 1705
158 6 1714 1709 1706 1710
159 6 1714 1709 1706 1711
160 7 150 147 144 140
161 4 150 147 144 148
162 4 150 147 144 149
163 4 151 147 144 140
164 6 151 147 144 148
165 6 151 147 144 149
166 4 152 147 144 140
167 6 152 147 144 148
168 6 152 147 144 149
169 7 156 153 150 147
170 4 156 153 150 154
171 4 156 153 150 155
172 4 157 153 150 147
173 6 157 153 150 154
174 6 157 153 150 155
175 4 158 153 150 147
176 6 158 153 150 154
177 6 158 153 150 155
178 3 101 98 94 93
179 4 101 98 94 99
180 4 101 98 94 100
181 5 102 98 94 93
182 6 102 98 94 99
183 6 102 98 94 100
184 5 103 98 94 93
185 6 103 98 94 99
186 6 103 98 94 100
187 7 104 101 98 94
188 4 104 101 98 102
189 4 104 101 98 103
190 4 105 101 98 94
191 6 105 101 98 102
192 6 105 101 98 103
193 4 106 101 98 94
194 6 106 101 98 102
195 6 106 101 98 103
196 7 153 150 147 144
197 4 153 150 147 151
198 4 153 150 147 152
199 4 154 150 147 144
200 6 154 150 147 151
201 6 154 150 147 152
202 4 155 150 147 144
203 6 155 150 147 151
204 6 155 150 147 152
205 1 98 94 93 95
206 1 98 94 93 96
207 1 98 94 93 97
208 2 99 94 93 95
209 2 99 94 93 96
210 2 99 94 93 97
211 2 100 94 93 95
212 2 100 94 93 96
213 2 100 94 93 97
214 3 147 144 140 139
215 4 147 144 140 145
216 4 147 144 140 146
217 5 148 144 140 139
218 6 148 144 140 145
219 6 148 144 140 146
220 5 149 144 140 139
221 6 149 144 140 145
222 6 149 144 140 146
223 12 1181 1182 1180 1183
224 12 1256 1257 1255 1258
225 8 1584 1581 1580 1582
226 8 1584 1581 1580 1583
227 9 1585 1581 1580 1582
228 9 1585 1581 1580 1583
229 9 1586 1581 1580 1582
230 9 1586 1581 1580 1583
231 10 1587 1584 1581 1580
232 4 1587 1584 1581 1585
233 4 1587 1584 1581 1586
234 11 1588 1584 1581 1580
235 6 1588 1584 1581 1585
236 6 1588 1584 1581 1586
237 11 1589 1584 1581 1580
238 6 1589 1584 1581 1585
239 6 1589 1584 1581 1586
240 4 1877 1874 1871 1868
241 6 1877 1874 1871 1875
242 6 1877 1874 1871 1876
243 4 1878 1874 1871 1868
244 6 1878 1874 1871 1875
245 6 1878 1874 1871 1876
246 4 1879 1874 1871 1868
247 6 1879 1874 1871 1875
248 6 1879 1874 1871 1876
249 7 1874 1871 1868 1865
250 4 1874 1871 1868 1872
251 4 1874 1871 1868 1873
252 4 1875 1871 1868 1865
253 6 1875 1871 1868 1872
254 6 1875 1871 1868 1873
255 4 1876 1871 1868 1865
256 6 1876 1871 1868 1872
257 6 1876 1871 1868 1873
258 7 1871 1868 1865 1862
259 4 1871 1868 1865 1869
260 4 1871 1868 1865 1870
261 4 1872 1868 1865 1862
262 6 1872 1868 1865 1869
263 6 1872 1868 1865 1870
264 4 1873 1868 1865 1862
265 6 1873 1868 1865 1869
266 6 1873 1868 1865 1870
267 4 596 593 590 587
268 6 596 593 590 594
269 6 596 593 590 595
270 4 597 593 590 587
271 6 597 593 590 594
272 6 597 593 590 595
273 4 598 593 590 587
274 6 598 593 590 594
275 6 598 593 590 595
276 7 1868 1865 1862 1859
277 4 1868 1865 1862 1866
278 4 1868 1865 1862 1867
279 4 1869 1865 1862 1859
280 6 1869 1865 1862 1866
281 6 1869 1865 1862 1867
282 4 1870 1865 1862 1859
283 6 1870 1865 1862 1866
284 6 1870 1865 1862 1867
285 7 1471 1468 1465 1462
286 4 1471 1468 1465 1469
287 4 1471 1468 1465 1470
288 4 1472 1468 1465 1462
289 6 1472 1468 1465 1469
290 6 1472 1468 1465 1470
291 4 1473 1468 1465 1462
292 6 1473 1468 1465 1469
293 6 1473 1468 1465 1470
294 4 1202 1199 1196 1193
295 6 1202 1199 1196 1200
296 6 1202 1199 1196 1201
297 4 1203 1199 1196 1193
298 6 1203 1199 1196 1200
299 6 1203 1199 1196 1201
300 4 1204 1199 1196 1193
301 6 1204 1199 1196 1200
302 6 1204 1199 1196 1201
303 7 1690 1687 1684 1681
304 4 1690 1687 1684 1688
305 4 1690 1687 1684 1689
306 4 1691 1687 1684 1681
307 6 1691 1687 1684 1688
308 6 1691 1687 1684 1689
309 4 1692 1687 1684 1681
310 6 1692 1687 1684 1688
311 6 1692 1687 1684 1689
312 7 593 590 587 584
313 4 593 590 587 591
314 4 593 590 587 592
315 4 594 590 587 584
316 6 594 590 587 591
317 6 594 590 587 592
318 4 595 590 587 584
319 6 595 590 587 591
320 6 595 590 587 592
321 7 590 587 584 581
322 4 590 587 584 588
323 4 590 587 584 589
324 4 591 587 584 581
325 6 591 587 584 588
326 6 591 587 584 589
327 4 592 587 584 581
328 6 592 587 584 588
329 6 592 587 584 589
330 7 1693 1690 1687 1684
331 4 1693 1690 1687 1691
332 4 1693 1690 1687 1692
333 4 1694 1690 1687 1684
334 6 1694 1690 1687 1691
335 6 1694 1690 1687 1692
336 4 1695 1690 1687 1684
337 6 1695 1690 1687 1691
338 6 1695 1690 1687 1692
339 7 587 584 581 577
340 4 587 584 581 585
341 4 587 584 581 586
342 4 588 584 581 577
343 6 588 584 581 585
344 6 588 584 581 586
345 4 589 584 581 577
346 6 589 584 581 585
347 6 589 584 581 586
348 3 584 581 577 576
349 4 584 581 577 582
350 4 584 581 577 583
351 5 585 581 577 576
352 6 585 581 577 582
353 6 585 581 577 583
354 5 586 581 577 576
355 6 586 581 577 582
356 6 586 581 577 583
357 7 1865 1862 1859 1856
358 4 1865 1862 1859 1863
359 4 1865 1862 1859 1864
360 4 1866 1862 1859 1856
361 6 1866 1862 1859 1863
362 6 1866 1862 1859 1864
363 4 1867 1862 1859 1856
364 6 1867 1862 1859 1863
365 6 1867 1862 1859 1864
366 10 1862 1859 1856 1855
367 4 1862 1859 1856 1860
368 4 1862 1859 1856 1861
369 11 1863 1859 1856 1855
370 6 1863 1859 1856 1860
371 6 1863 1859 1856 1861
372 11 1864 1859 1856 1855
373 6 1864 1859 1856 1860
374 6 1864 1859 1856 1861
375 4 1477 1474 1471 1468
376 6 1477 1474 1471 1475
377 6 1477 1474 1471 1476
378 4 1478 1474 1471 1468
379 6 1478 1474 1471 1475
380 6 1478 1474 1471 1476
381 4 1479 1474 1471 1468
382 6 1479 1474 1471 1475
383 6 1479 1474 1471 1476
384 7 1474 1471 1468 1465
385 4 1474 1471 1468 1472
386 4 1474 1471 1468 1473
387 4 1475 1471 1468 1465
388 6 1475 1471 1468 1472
389 6 1475 1471 1468 1473
390 4 1476 1471 1468 1465
391 6 1476 1471 1468 1472
392 6 1476 1471 1468 1473
393 1 581 577 576 578
394 1 581 577 576 579
395 1 581 577 576 580
396 2 582 577 576 578
397 2 582 577 576 579
398 2 582 577 576 580
399 2 583 577 576 578
400 2 583 577 576 579
401 2 583 577 576 580
402 7 1615 1612 1609 1606
403 4 1615 1612 1609 1613
404 4 1615 1612 1609 1614
405 4 1616 1612 1609 1606
406 6 1616 1612 1609 1613
407 6 1616 1612 1609 1614
408 4 1617 1612 1609 1606
409 6 1617 1612 1609 1613
410 6 1617 1612 1609 1614
411 10 1612 1609 1606 1605
412 4 1612 1609 1606 1610
413 4 1612 1609 1606 1611
414 11 1613 1609 1606 1605
415 6 1613 1609 1606 1610
416 6 1613 1609 1606 1611
417 11 1614 1609 1606 1605
418 6 1614 1609 1606 1610
419 6 1614 1609 1606 1611
420 12 1656 1657 1655 1658
421 1 236 232 231 233
422 1 236 232 231 234
423 1 236 232 231 235
424 2 237 232 231 233
425 2 237 232 231 234
426 2 237 232 231 235
427 2 238 232 231 233
428 2 238 232 231 234
429 2 238 232 231 235
430 3 239 236 232 231
431 4 239 236 232 237
432 4 239 236 232 238
433 5 240 236 232 231
434 6 240 236 232 237
435 6 240 236 232 238
436 5 241 236 232 231
437 6 241 236 232 237
438 6 241 236 232 238
439 1 1064 1060 1059 1061
440 1 1064 1060 1059 1062
441 1 1064 1060 1059 1063
442 2 1065 1060 1059 1061
443 2 1065 1060 1059 1062
444 2 1065 1060 1059 1063
445 2 1066 1060 1059 1061
446 2 1066 1060 1059 1062
447 2 1066 1060 1059 1063
448 3 1067 1064 1060 1059
449 4 1067 1064 1060 1065
450 4 1067 1064 1060 1066
451 5 1068 1064 1060 1059
452 6 1068 1064 1060 1065
453 6 1068 1064 1060 1066
454 5 1069 1064 1060 1059
455 6 1069 1064 1060 1065
456 6 1069 1064 1060 1066
457 7 1070 1067 1064 1060
458 4 1070 1067 1064 1068
459 4 1070 1067 1064 1069
460 4 1071 1067 1064 1060
461 6 1071 1067 1064 1068
462 6 1071 1067 1064 1069
463 4 1072 1067 1064 1060
464 6 1072 1067 1064 1068
465 6 1072 1067 1064 1069
466 7 242 239 236 232
467 4 242 239 236 240
468 4 242 239 236 241
469 4 243 239 236 232
470 6 243 239 236 240
471 6 243 239 236 241
472 4 244 239 236 232
473 6 244 239 236 240
474 6 244 239 236 241
475 8 1184 1181 1180 1182
476 8 1184 1181 1180 1183
477 9 1185 1181 1180 1182
478 9 1185 1181 1180 1183
479 9 1186 1181 1180 1182
480 9 1186 1181 1180 1183
481 7 1073 1070 1067 1064
482 4 1073 1070 1067 1071
483 4 1073 1070 1067 1072
484 4 1074 1070 1067 1064
485 6 1074 1070 1067 1071
486 6 1074 1070 1067 1072
487 4 1075 1070 1067 1064
488 6 1075 1070 1067 1071
489 6 1075 1070 1067 1072
490 4 1010 1007 1004 1001
491 6 1010 1007 1004 1008
492 6 1010 1007 1004 1009
493 4 1011 1007 1004 1001
494 6 1011 1007 1004 1008
495 6 1011 1007 1004 1009
496 4 1012 1007 1004 1001
497 6 1012 1007 1004 1008
498 6 1012 1007 1004 1009
499 7 1007 1004 1001 998
500 4 1007 1004 1001 1005
501 4 1007 1004 1001 1006
502 4 1008 1004 1001 998
503 6 1008 1004 1001 1005
504 6 1008 1004 1001 1006
505 4 1009 1004 1001 998
506 6 1009 1004 1001 1005
507 6 1009 1004 1001 1006
508 7 1199 1196 1193 1190
509 4 1199 1196 1193 1197
510 4 1199 1196 1193 1198
511 4 1200 1196 1193 1190
512 6 1200 1196 1193 1197
513 6 1200 1196 1193 1198
514 4 1201 1196 1193 1190
515 6 1201 1196 1193 1197
516 6 1201 1196 1193 1198
517 10 1187 1184 1181 1180
518 4 1187 1184 1181 1185
519 4 1187 1184 1181 1186
520 11 1188 1184 1181 1180
521 6 1188 1184 1181 1185
522 6 1188 1184 1181 1186
523 11 1189 1184 1181 1180
524 6 1189 1184 1181 1185
525 6 1189 1184 1181 1186
526 7 1190 1187 1184 1181
527 4 1190 1187 1184 1188
528 4 1190 1187 1184 1189
529 4 1191 1187 1184 1181
530 6 1191 1187 1184 1188
531 6 1191 1187 1184 1189
532 4 1192 1187 1184 1181
533 6 1192 1187 1184 1188
534 6 1192 1187 1184 1189
535 7 1196 1193 1190 1187
536 4 1196 1193 1190 1194
537 4 1196 1193 1190 1195
538 4 1197 1193 1190 1187
539 6 1197 1193 1190 1194
540 6 1197 1193 1190 1195
541 4 1198 1193 1190 1187
542 6 1198 1193 1190 1194
543 6 1198 1193 1190 1195
544 7 1193 1190 1187 1184
545 4 1193 1190 1187 1191
546 4 1193 1190 1187 1192
547 4 1194 1190 1187 1184
548 6 1194 1190 1187 1191
549 6 1194 1190 1187 1192
550 4 1195 1190 1187 1184
551 6 1195 1190 1187 1191
552 6 1195 1190 1187 1192
553 4 1079 1076 1073 1070
554 6 1079 1076 1073 1077
555 6 1079 1076 1073 1078
556 4 1080 1076 1073 1070
557 6 1080 1076 1073 1077
558 6 1080 1076 1073 1078
559 4 1081 1076 1073 1070
560 6 1081 1076 1073 1077
561 6 1081 1076 1073 1078
562 8 1834 1831 1830 1832
563 8 1834 1831 1830 1833
564 9 1835 1831 1830 1832
565 9 1835 1831 1830 1833
566 9 1836 1831 1830 1832
567 9 1836 1831 1830 1833
568 10 1837 1834 1831 1830
569 4 1837 1834 1831 1835
570 4 1837 1834 1831 1836
571 11 1838 1834 1831 1830
572 6 1838 1834 1831 1835
573 6 1838 1834 1831 1836
574 11 1839 1834 1831 1830
575 6 1839 1834 1831 1835
576 6 1839 1834 1831 1836
577 7 1840 1837 1834 1831
578 4 1840 1837 1834 1838
579 4 1840 1837 1834 1839
580 4 1841 1837 1834 1831
581 6 1841 1837 1834 1838
582 6 1841 1837 1834 1839
583 4 1842 1837 1834 1831
584 6 1842 1837 1834 1838
585 6 1842 1837 1834 1839
586 7 1843 1840 1837 1834
587 4 1843 1840 1837 1841
588 4 1843 1840 1837 1842
589 4 1844 1840 1837 1834
590 6 1844 1840 1837 1841
591 6 1844 1840 1837 1842
592 4 1845 1840 1837 1834
593 6 1845 1840 1837 1841
594 6 1845 1840 1837 1842
595 7 1849 1846 1843 1840
596 4 1849 1846 1843 1847
597 4 1849 1846 1843 1848
598 4 1850 1846 1843 1840
599 6 1850 1846 1843 1847
600 6 1850 1846 1843 1848
601 4 1851 1846 1843 1840
602 6 1851 1846 1843 1847
603 6 1851 1846 1843 1848
604 7 409 406 403 400
605 4 409 406 403 407
606 4 409 406 403 408
607 4 410 406 403 400
608 6 410 406 403 407
609 6 410 406 403 408
610 4 411 406 403 400
611 6 411 406 403 407
612 6 411 406 403 408
613 7 1696 1693 1690 1687
614 4 1696 1693 1690 1694
615 4 1696 1693 1690 1695
616 4 1697 1693 1690 1687
617 6 1697 1693 1690 1694
618 6 1697 1693 1690 1695
619 4 1698 1693 1690 1687
620 6 1698 1693 1690 1694
621 6 1698 1693 1690 1695
622 7 1699 1696 1693 1690
623 4 1699 1696 1693 1697
624 4 1699 1696 1693 1698
625 4 1700 1696 1693 1690
626 6 1700 1696 1693 1697
627 6 1700 1696 1693 1698
628 4 1701 1696 1693 1690
629 6 1701 1696 1693 1697
630 6 1701 1696 1693 1698
631 4 412 409 406 403
632 6 412 409 406 410
633 6 412 409 406 411
634 4 413 409 406 403
635 6 413 409 406 410
636 6 413 409 406 411
637 4 414 409 406 403
638 6 414 409 406 410
639 6 414 409 406 411
640 4 1702 1699 1696 1693
641 6 1702 1699 1696 1700
642 6 1702 1699 1696 1701
643 4 1703 1699 1696 1693
644 6 1703 1699 1696 1700
645 6 1703 1699 1696 1701
646 4 1704 1699 1696 1693
647 6 1704 1699 1696 1700
648 6 1704 1699 1696 1701
649 7 2074 2071 2068 2065
650 4 2074 2071 2068 2072
651 4 2074 2071 2068 2073
652 4 2075 2071 2068 2065
653 6 2075 2071 2068 2072
654 6 2075 2071 2068 2073
655 4 2076 2071 2068 2065
656 6 2076 2071 2068 2072
657 6 2076 2071 2068 2073
658 7 2071 2068 2065 2062
659 4 2071 2068 2065 2069
660 4 2071 2068 2065 2070
661 4 2072 2068 2065 2062
662 6 2072 2068 2065 2069
663 6 2072 2068 2065 2070
664 4 2073 2068 2065 2062
665 6 2073 2068 2065 2069
666 6 2073 2068 2065 2070
667 4 2077 2074 2071 2068
668 6 2077 2074 2071 2075
669 6 2077 2074 2071 2076
670 4 2078 2074 2071 2068
671 6 2078 2074 2071 2075
672 6 2078 2074 2071 2076
673 4 2079 2074 2071 2068
674 6 2079 2074 2071 2075
675 6 2079 2074 2071 2076
676 7 2068 2065 2062 2059
677 4 2068 2065 2062 2066
678 4 2068 2065 2062 2067
679 4 2069 2065 2062 2059
680 6 2069 2065 2062 2066
681 6 2069 2065 2062 2067
682 4 2070 2065 2062 2059
683 6 2070 2065 2062 2066
684 6 2070 2065 2062 2067
685 12 1606 1607 1605 1608
686 1 535 531 530 532
687 1 535 531 530 533
688 1 535 531 530 534
689 2 536 531 530 532
690 2 536 531 530 533
691 2 536 531 530 534
692 2 537 531 530 532
693 2 537 531 530 533
694 2 537 531 530 534
695 7 863 860 857 853
696 4 863 860 857 861
697 4 863 860 857 862
698 4 864 860 857 853
699 6 864 860 857 861
700 6 864 860 857 862
701 4 865 860 857 853
702 6 865 860 857 861
703 6 865 860 857 862
704 7 544 541 538 535
705 4 544 541 538 542
706 4 544 541 538 543
707 4 545 541 538 535
708 6 545 541 538 542
709 6 545 541 538 543
710 4 546 541 538 535
711 6 546 541 538 542
712 6 546 541 538 543
713 3 538 535 531 530
714 4 538 535 531 536
715 4 538 535 531 537
716 5 539 535 531 530
717 6 539 535 531 536
718 6 539 535 531 537
719 5 540 535 531 530
720 6 540 535 531 536
721 6 540 535 531 537
722 7 541 538 535 531
723 4 541 538 535 539
724 4 541 538 535 540
725 4 542 538 535 531
726 6 542 538 535 539
727 6 542 538 535 540
728 4 543 538 535 531
729 6 543 538 535 539
730 6 543 538 535 540
731 7 498 495 492 489
732 4 498 495 492 496
733 4 498 495 492 497
734 4 499 495 492 489
735 6 499 495 492 496
736 6 499 495 492 497
737 4 500 495 492 489
738 6 500 495 492 496
739 6 500 495 492 497
740 7 547 544 541 538
741 4 547 544 541 545
742 4 547 544 541 546
743 4 548 544 541 538
744 6 548 544 541 545
745 6 548 544 541 546
746 4 549 544 541 538
747 6 549 544 541 545
748 6 549 544 541 546
749 7 869 866 863 860
750 4 869 866 863 867
751 4 869 866 863 868
752 4 870 866 863 860
753 6 870 866 863 867
754 6 870 866 863 868
755 4 871 866 863 860
756 6 871 866 863 867
757 6 871 866 863 868
758 3 492 489 485 484
759 4 492 489 485 490
760 4 492 489 485 491
761 5 493 489 485 484
762 6 493 489 485 490
763 6 493 489 485 491
764 5 494 489 485 484
765 6 494 489 485 490
766 6 494 489 485 491
767 7 866 863 860 857
768 4 866 863 860 864
769 4 866 863 860 865
770 4 867 863 860 857
771 6 867 863 860 864
772 6 867 863 860 865
773 4 868 863 860 857
774 6 868 863 860 864
775 6 868 863 860 865
776 4 872 869 866 863
777 6 872 869 866 870
778 6 872 869 866 871
779 4 873 869 866 863
780 6 873 869 866 870
781 6 873 869 866 871
782 4 874 869 866 863
783 6 874 869 866 870
784 6 874 869 866 871
785 8 1759 1756 1755 1757
786 8 1759 1756 1755 1758
787 9 1760 1756 1755 1757
788 9 1760 1756 1755 1758
789 9 1761 1756 1755 1757
790 9 1761 1756 1755 1758
791 12 1831 1832 1830 1833
792 7 1846 1843 1840 1837
793 4 1846 1843 1840 1844
794 4 1846 1843 1840 1845
795 4 1847 1843 1840 1837
796 6 1847 1843 1840 1844
797 6 1847 1843 1840 1845
798 4 1848 1843 1840 1837
799 6 1848 1843 1840 1844
800 6 1848 1843 1840 1845
801 10 1762 1759 1756 1755
802 4 1762 1759 1756 1760
803 4 1762 1759 1756 1761
804 11 1763 1759 1756 1755
805 6 1763 1759 1756 1760
806 6 1763 1759 1756 1761
807 11 1764 1759 1756 1755
808 6 1764 1759 1756 1760
809 6 1764 1759 1756 1761
810 7 1765 1762 1759 1756
811 4 1765 1762 1759 1763
812 4 1765 1762 1759 1764
813 4 1766 1762 1759 1756
814 6 1766 1762 1759 1763
815 6 1766 1762 1759 1764
816 4 1767 1762 1759 1756
817 6 1767 1762 1759 1763
818 6 1767 1762 1759 1764
819 10 2062 2059 2056 2055
820 4 2062 2059 2056 2060
821 4 2062 2059 2056 2061
822 11 2063 2059 2056 2055
823 6 2063 2059 2056 2060
824 6 2063 2059 2056 2061
825 11 2064 2059 2056 2055
826 6 2064 2059 2056 2060
827 6 2064 2059 2056 2061
828 1 374 370 369 371
829 1 374 370 369 372
830 1 374 370 369 373
831 2 375 370 369 371
832 2 375 370 369 372
833 2 375 370 369 373
834 2 376 370 369 371
835 2 376 370 369 372
836 2 376 370 369 373
837 7 2065 2062 2059 2056
838 4 2065 2062 2059 2063
839 4 2065 2062 2059 2064
840 4 2066 2062 2059 2056
841 6 2066 2062 2059 2063
842 6 2066 2062 2059 2064
843 4 2067 2062 2059 2056
844 6 2067 2062 2059 2063
845 6 2067 2062 2059 2064
846 12 2056 2057 2055 2058
847 3 377 374 370 369
848 4 377 374 370 375
849 4 377 374 370 376
850 5 378 374 370 369
851 6 378 374 370 375
852 6 378 374 370 376
853 5 379 374 370 369
854 6 379 374 370 375
855 6 379 374 370 376
856 7 380 377 374 370
857 4 380 377 374 378
858 4 380 377 374 379
859 4 381 377 374 370
860 6 381 377 374 378
861 6 381 377 374 379
862 4 382 377 374 370
863 6 382 377 374 378
864 6 382 377 374 379
865 7 383 380 377 374
866 4 383 380 377 381
867 4 383 380 377 382
868 4 384 380 377 374
869 6 384 380 377 381
870 6 384 380 377 382
871 4 385 380 377 374
872 6 385 380 377 381
873 6 385 380 377 382
874 7 360 357 354 351
875 4 360 357 354 358
876 4 360 357 354 359
877 4 361 357 354 351
878 6 361 357 354 358
879 6 361 357 354 359
880 4 362 357 354 351
881 6 362 357 354 358
882 6 362 357 354 359
883 7 363 360 357 354
884 4 363 360 357 361
885 4 363 360 357 362
886 4 364 360 357 354
887 6 364 360 357 361
888 6 364 360 357 362
889 4 365 360 357 354
890 6 365 360 357 361
891 6 365 360 357 362
892 4 366 363 360 357
893 6 366 363 360 364
894 6 366 363 360 365
895 4 367 363 360 357
896 6 367 363 360 364
897 6 367 363 360 365
898 4 368 363 360 357
899 6 368 363 360 364
900 6 368 363 360 365
901 4 826 823 820 817
902 6 826 823 820 824
903 6 826 823 820 825
904 4 827 823 820 817
905 6 827 823 820 824
906 6 827 823 820 825
907 4 828 823 820 817
908 6 828 823 820 824
909 6 828 823 820 825
910 7 662 659 656 653
911 4 662 659 656 660
912 4 662 659 656 661
913 4 663 659 656 653
914 6 663 659 656 660
915 6 663 659 656 661
916 4 664 659 656 653
917 6 664 659 656 660
918 6 664 659 656 661
919 7 656 653 650 646
920 4 656 653 650 654
921 4 656 653 650 655
922 4 657 653 650 646
923 6 657 653 650 654
924 6 657 653 650 655
925 4 658 653 650 646
926 6 658 653 650 654
927 6 658 653 650 655
928 4 665 662 659 656
929 6 665 662 659 663
930 6 665 662 659 664
931 4 666 662 659 656
932 6 666 662 659 663
933 6 666 662 659 664
934 4 667 662 659 656
935 6 667 662 659 663
936 6 667 662 659 664
937 7 659 656 653 650
938 4 659 656 653 657
939 4 659 656 653 658
940 4 660 656 653 650
941 6 660 656 653 657
942 6 660 656 653 658
943 4 661 656 653 650
944 6 661 656 653 657
945 6 661 656 653 658
946 4 2277 2274 2271 2268
947 6 2277 2274 2271 2275
948 6 2277 2274 2271 2276
949 4 2278 2274 2271 2268
950 6 2278 2274 2271 2275
951 6 2278 2274 2271 2276
952 4 2279 2274 2271 2268
953 6 2279 2274 2271 2275
954 6 2279 2274 2271 2276
955 3 653 650 646 645
956 4 653 650 646 651
957 4 653 650 646 652
958 5 654 650 646 645
959 6 654 650 646 651
960 6 654 650 646 652
961 5 655 650 646 645
962 6 655 650 646 651
963 6 655 650 646 652
964 8 1634 1631 1630 1632
965 8 1634 1631 1630 1633
966 9 1635 1631 1630 1632
967 9 1635 1631 1630 1633
968 9 1636 1631 1630 1632
969 9 1636 1631 1630 1633
970 7 820 817 814 811
971 4 820 817 814 818
972 4 820 817 814 819
973 4 821 817 814 811
974 6 821 817 814 818
975 6 821 817 814 819
976 4 822 817 814 811
977 6 822 817 814 818
978 6 822 817 814 819
979 7 823 820 817 814
980 4 823 820 817 821
981 4 823 820 817 822
982 4 824 820 817 814
983 6 824 820 817 821
984 6 824 820 817 822
985 4 825 820 817 814
986 6 825 820 817 821
987 6 825 820 817 822
988 4 1902 1899 1896 1893
989 6 1902 1899 1896 1900
990 6 1902 1899 1896 1901
991 4 1903 1899 1896 1893
992 6 1903 1899 1896 1900
993 6 1903 1899 1896 1901
994 4 1904 1899 1896 1893
995 6 1904 1899 1896 1900
996 6 1904 1899 1896 1901
997 7 2274 2271 2268 2265
998 4 2274 2271 2268 2272
999 4 2274 2271 2268 2273
1000 4 2275 2271 2268 2265
1001 6 2275 2271 2268 2272
1002 6 2275 2271 2268 2273
1003 4 2276 2271 2268 2265
1004 6 2276 2271 2268 2272
1005 6 2276 2271 2268 2273
1006 1 811 807 806 808
1007 1 811 807 806 809
1008 1 811 807 806 810
1009 2 812 807 806 808
1010 2 812 807 806 809
1011 2 812 807 806 810
1012 2 813 807 806 808
1013 2 813 807 806 809
1014 2 813 807 806 810
1015 7 495 492 489 485
1016 4 495 492 489 493
1017 4 495 492 489 494
1018 4 496 492 489 485
1019 6 496 492 489 493
1020 6 496 492 489 494
1021 4 497 492 489 485
1022 6 497 492 489 493
1023 6 497 492 489 494
1024 7 501 498 495 492
1025 4 501 498 495 499
1026 4 501 498 495 500
1027 4 502 498 495 492
1028 6 502 498 495 499
1029 6 502 498 495 500
1030 4 503 498 495 492
1031 6 503 498 495 499
1032 6 503 498 495 500
1033 4 550 547 544 541
1034 6 550 547 544 548
1035 6 550 547 544 549
1036 4 551 547 544 541
1037 6 551 547 544 548
1038 6 551 547 544 549
1039 4 552 547 544 541
1040 6 552 547 544 548
1041 6 552 547 544 549
1042 3 814 811 807 806
1043 4 814 811 807 812
1044 4 814 811 807 813
1045 5 815 811 807 806
1046 6 815 811 807 812
1047 6 815 811 807 813
1048 5 816 811 807 806
1049 6 816 811 807 812
1050 6 816 811 807 813
1051 7 817 814 811 807
1052 4 817 814 811 815
1053 4 817 814 811 816
1054 4 818 814 811 807
1055 6 818 814 811 815
1056 6 818 814 811 816
1057 4 819 814 811 807
1058 6 819 814 811 815
1059 6 819 814 811 816
1060 4 504 501 498 495
1061 6 504 501 498 502
1062 6 504 501 498 503
1063 4 505 501 498 495
1064 6 505 501 498 502
1065 6 505 501 498 503
1066 4 506 501 498 495
1067 6 506 501 498 502
1068 6 506 501 498 503
1069 4 1727 1724 1721 1718
1070 6 1727 1724 1721 1725
1071 6 1727 1724 1721 1726
1072 4 1728 1724 1721 1718
1073 6 1728 1724 1721 1725
1074 6 1728 1724 1721 1726
1075 4 1729 1724 1721 1718
1076 6 1729 1724 1721 1725
1077 6 1729 1724 1721 1726
1078 7 1715 1712 1709 1706
1079 4 1715 1712 1709 1713
1080 4 1715 1712 1709 1714
1081 4 1716 1712 1709 1706
1082 6 1716 1712 1709 1713
1083 6 1716 1712 1709 1714
1084 4 1717 1712 1709 1706
1085 6 1717 1712 1709 1713
1086 6 1717 1712 1709 1714
1087 7 1718 1715 1712 1709
1088 4 1718 1715 1712 1716
1089 4 1718 1715 1712 1717
1090 4 1719 1715 1712 1709
1091 6 1719 1715 1712 1716
1092 6 1719 1715 1712 1717
1093 4 1720 1715 1712 1709
1094 6 1720 1715 1712 1716
1095 6 1720 1715 1712 1717
1096 7 1721 1718 1715 1712
1097 4 1721 1718 1715 1719
1098 4 1721 1718 1715 1720
1099 4 1722 1718 1715 1712
1100 6 1722 1718 1715 1719
1101 6 1722 1718 1715 1720
1102 4 1723 1718 1715 1712
1103 6 1723 1718 1715 1719
1104 6 1723 1718 1715 1720
1105 7 1724 1721 1718 1715
1106 4 1724 1721 1718 1722
1107 4 1724 1721 1718 1723
1108 4 1725 1721 1718 1715
1109 6 1725 1721 1718 1722
1110 6 1725 1721 1718 1723
1111 4 1726 1721 1718 1715
1112 6 1726 1721 1718 1722
1113 6 1726 1721 1718 1723
1114 4 159 156 153 150
1115 6 159 156 153 157
1116 6 159 156 153 158
1117 4 160 156 153 150
1118 6 160 156 153 157
1119 6 160 156 153 158
1120 4 161 156 153 150
1121 6 161 156 153 157
1122 6 161 156 153 158
1123 7 107 104 101 98
1124 4 107 104 101 105
1125 4 107 104 101 106
1126 4 108 104 101 98
1127 6 108 104 101 105
1128 6 108 104 101 106
1129 4 109 104 101 98
1130 6 109 104 101 105
1131 6 109 104 101 106
1132 7 110 107 104 101
1133 4 110 107 104 108
1134 4 110 107 104 109
1135 4 111 107 104 101
1136 6 111 107 104 108
1137 6 111 107 104 109
1138 4 112 107 104 101
1139 6 112 107 104 108
1140 6 112 107 104 109
1141 4 113 110 107 104
1142 6 113 110 107 111
1143 6 113 110 107 112
1144 4 114 110 107 104
1145 6 114 110 107 111
1146 6 114 110 107 112
1147 4 115 110 107 104
1148 6 115 110 107 111
1149 6 115 110 107 112
1150 4 1377 1374 1371 1368
1151 6 1377 1374 1371 1375
1152 6 1377 1374 1371 1376
1153 4 1378 1374 1371 1368
1154 6 1378 1374 1371 1375
1155 6 1378 1374 1371 1376
1156 4 1379 1374 1371 1368
1157 6 1379 1374 1371 1375
1158 6 1379 1374 1371 1376
1159 7 1374 1371 1368 1365
1160 4 1374 1371 1368 1372
1161 4 1374 1371 1368 1373
1162 4 1375 1371 1368 1365
1163 6 1375 1371 1368 1372
1164 6 1375 1371 1368 1373
1165 4 1376 1371 1368 1365
1166 6 1376 1371 1368 1372
1167 6 1376 1371 1368 1373
1168 7 1771 1768 1765 1762
1169 4 1771 1768 1765 1769
1170 4 1771 1768 1765 1770
1171 4 1772 1768 1765 1762
1172 6 1772 1768 1765 1769
1173 6 1772 1768 1765 1770
1174 4 1773 1768 1765 1762
1175 6 1773 1768 1765 1769
1176 6 1773 1768 1765 1770
1177 7 1768 1765 1762 1759
1178 4 1768 1765 1762 1766
1179 4 1768 1765 1762 1767
1180 4 1769 1765 1762 1759
1181 6 1769 1765 1762 1766
1182 6 1769 1765 1762 1767
1183 4 1770 1765 1762 1759
1184 6 1770 1765 1762 1766
1185 6 1770 1765 1762 1767
1186 7 1371 1368 1365 1362
1187 4 1371 1368 1365 1369
1188 4 1371 1368 1365 1370
1189 4 1372 1368 1365 1362
1190 6 1372 1368 1365 1369
1191 6 1372 1368 1365 1370
1192 4 1373 1368 1365 1362
1193 6 1373 1368 1365 1369
1194 6 1373 1368 1365 1370
1195 7 1368 1365 1362 1359
1196 4 1368 1365 1362 1366
1197 4 1368 1365 1362 1367
1198 4 1369 1365 1362 1359
1199 6 1369 1365 1362 1366
1200 6 1369 1365 1362 1367
1201 4 1370 1365 1362 1359
1202 6 1370 1365 1362 1366
1203 6 1370 1365 1362 1367
1204 4 1777 1774 1771 1768
1205 6 1777 1774 1771 1775
1206 6 1777 1774 1771 1776
1207 4 1778 1774 1771 1768
1208 6 1778 1774 1771 1775
1209 6 1778 1774 1771 1776
1210 4 1779 1774 1771 1768
1211 6 1779 1774 1771 1775
1212 6 1779 1774 1771 1776
1213 7 1365 1362 1359 1356
1214 4 1365 1362 1359 1363
1215 4 1365 1362 1359 1364
1216 4 1366 1362 1359 1356
1217 6 1366 1362 1359 1363
1218 6 1366 1362 1359 1364
1219 4 1367 1362 1359 1356
1220 6 1367 1362 1359 1363
1221 6 1367 1362 1359 1364
1222 7 1774 1771 1768 1765
1223 4 1774 1771 1768 1772
1224 4 1774 1771 1768 1773
1225 4 1775 1771 1768 1765
1226 6 1775 1771 1768 1772
1227 6 1775 1771 1768 1773
1228 4 1776 1771 1768 1765
1229 6 1776 1771 1768 1772
1230 6 1776 1771 1768 1773
1231 10 1362 1359 1356 1355
1232 4 1362 1359 1356 1360
1233 4 1362 1359 1356 1361
1234 11 1363 1359 1356 1355
1235 6 1363 1359 1356 1360
1236 6 1363 1359 1356 1361
1237 11 1364 1359 1356 1355
1238 6 1364 1359 1356 1360
1239 6 1364 1359 1356 1361
1240 8 1359 1356 1355 1357
1241 8 1359 1356 1355 1358
1242 9 1360 1356 1355 1357
1243 9 1360 1356 1355 1358
1244 9 1361 1356 1355 1357
1245 9 1361 1356 1355 1358
1246 12 1356 1357 1355 1358
1247 7 1499 1496 1493 1490
1248 4 1499 1496 1493 1497
1249 4 1499 1496 1493 1498
1250 4 1500 1496 1493 1490
1251 6 1500 1496 1493 1497
1252 6 1500 1496 1493 1498
1253 4 1501 1496 1493 1490
1254 6 1501 1496 1493 1497
1255 6 1501 1496 1493 1498
1256 7 1146 1143 1140 1137
1257 4 1146 1143 1140 1144
1258 4 1146 1143 1140 1145
1259 4 1147 1143 1140 1137
1260 6 1147 1143 1140 1144
1261 6 1147 1143 1140 1145
1262 4 1148 1143 1140 1137
1263 6 1148 1143 1140 1144
1264 6 1148 1143 1140 1145
1265 8 1134 1131 1130 1132
1266 8 1134 1131 1130 1133
1267 9 1135 1131 1130 1132
1268 9 1135 1131 1130 1133
1269 9 1136 1131 1130 1132
1270 9 1136 1131 1130 1133
1271 7 1143 1140 1137 1134
1272 4 1143 1140 1137 1141
1273 4 1143 1140 1137 1142
1274 4 1144 1140 1137 1134
1275 6 1144 1140 1137 1141
1276 6 1144 1140 1137 1142
1277 4 1145 1140 1137 1134
1278 6 1145 1140 1137 1141
1279 6 1145 1140 1137 1142
1280 7 1140 1137 1134 1131
1281 4 1140 1137 1134 1138
1282 4 1140 1137 1134 1139
1283 4 1141 1137 1134 1131
1284 6 1141 1137 1134 1138
1285 6 1141 1137 1134 1139
1286 4 1142 1137 1134 1131
1287 6 1142 1137 1134 1138
1288 6 1142 1137 1134 1139
1289 10 1137 1134 1131 1130
1290 4 1137 1134 1131 1135
1291 4 1137 1134 1131 1136
1292 11 1138 1134 1131 1130
1293 6 1138 1134 1131 1135
1294 6 1138 1134 1131 1136
1295 11 1139 1134 1131 1130
1296 6 1139 1134 1131 1135
1297 6 1139 1134 1131 1136
1298 7 1746 1743 1740 1737
1299 4 1746 1743 1740 1744
1300 4 1746 1743 1740 1745
1301 4 1747 1743 1740 1737
1302 6 1747 1743 1740 1744
1303 6 1747 1743 1740 1745
1304 4 1748 1743 1740 1737
1305 6 1748 1743 1740 1744
1306 6 1748 1743 1740 1745
1307 7 1743 1740 1737 1734
1308 4 1743 1740 1737 1741
1309 4 1743 1740 1737 1742
1310 4 1744 1740 1737 1734
1311 6 1744 1740 1737 1741
1312 6 1744 1740 1737 1742
1313 4 1745 1740 1737 1734
1314 6 1745 1740 1737 1741
1315 6 1745 1740 1737 1742
1316 7 1496 1493 1490 1487
1317 4 1496 1493 1490 1494
1318 4 1496 1493 1490 1495
1319 4 1497 1493 1490 1487
1320 6 1497 1493 1490 1494
1321 6 1497 1493 1490 1495
1322 4 1498 1493 1490 1487
1323 6 1498 1493 1490 1494
1324 6 1498 1493 1490 1495
1325 7 1749 1746 1743 1740
1326 4 1749 1746 1743 1747
1327 4 1749 1746 1743 1748
1328 4 1750 1746 1743 1740
1329 6 1750 1746 1743 1747
1330 6 1750 1746 1743 1748
1331 4 1751 1746 1743 1740
1332 6 1751 1746 1743 1747
1333 6 1751 1746 1743 1748
1334 1 650 646 645 647
1335 1 650 646 645 648
1336 1 650 646 645 649
1337 2 651 646 645 647
1338 2 651 646 645 648
1339 2 651 646 645 649
1340 2 652 646 645 647
1341 2 652 646 645 648
1342 2 652 646 645 649
1343 7 478 475 472 469
1344 4 478 475 472 476
1345 4 478 475 472 477
1346 4 479 475 472 469
1347 6 479 475 472 476
1348 6 479 475 472 477
1349 4 480 475 472 469
1350 6 480 475 472 476
1351 6 480 475 472 477
1352 4 2252 2249 2246 2243
1353 6 2252 2249 2246 2250
1354 6 2252 2249 2246 2251
1355 4 2253 2249 2246 2243
1356 6 2253 2249 2246 2250
1357 6 2253 2249 2246 2251
1358 4 2254 2249 2246 2243
1359 6 2254 2249 2246 2250
1360 6 2254 2249 2246 2251
1361 7 1493 1490 1487 1484
1362 4 1493 1490 1487 1491
1363 4 1493 1490 1487 1492
1364 4 1494 1490 1487 1484
1365 6 1494 1490 1487 1491
1366 6 1494 1490 1487 1492
1367 4 1495 1490 1487 1484
1368 6 1495 1490 1487 1491
1369 6 1495 1490 1487 1492
1370 7 1490 1487 1484 1481
1371 4 1490 1487 1484 1488
1372 4 1490 1487 1484 1489
1373 4 1491 1487 1484 1481
1374 6 1491 1487 1484 1488
1375 6 1491 1487 1484 1489
1376 4 1492 1487 1484 1481
1377 6 1492 1487 1484 1488
1378 6 1492 1487 1484 1489
1379 4 481 478 475 472
1380 6 481 478 475 479
1381 6 481 478 475 480
1382 4 482 478 475 472
1383 6 482 478 475 479
1384 6 482 478 475 480
1385 4 483 478 475 472
1386 6 483 478 475 479
1387 6 483 478 475 480
1388 7 2246 2243 2240 2237
1389 4 2246 2243 2240 2244
1390 4 2246 2243 2240 2245
1391 4 2247 2243 2240 2237
1392 6 2247 2243 2240 2244
1393 6 2247 2243 2240 2245
1394 4 2248 2243 2240 2237
1395 6 2248 2243 2240 2244
1396 6 2248 2243 2240 2245
1397 7 2249 2246 2243 2240
1398 4 2249 2246 2243 2247
1399 4 2249 2246 2243 2248
1400 4 2250 2246 2243 2240
1401 6 2250 2246 2243 2247
1402 6 2250 2246 2243 2248
1403 4 2251 2246 2243 2240
1404 6 2251 2246 2243 2247
1405 6 2251 2246 2243 2248
1406 3 469 466 462 461
1407 4 469 466 462 467
1408 4 469 466 462 468
1409 5 470 466 462 461
1410 6 470 466 462 467
1411 6 470 466 462 468
1412 5 471 466 462 461
1413 6 471 466 462 467
1414 6 471 466 462 468
1415 7 472 469 466 462
1416 4 472 469 466 470
1417 4 472 469 466 471
1418 4 473 469 466 462
1419 6 473 469 466 470
1420 6 473 469 466 471
1421 4 474 469 466 462
1422 6 474 469 466 470
1423 6 474 469 466 471
1424 7 475 472 469 466
1425 4 475 472 469 473
1426 4 475 472 469 474
1427 4 476 472 469 466
1428 6 476 472 469 473
1429 6 476 472 469 474
1430 4 477 472 469 466
1431 6 477 472 469 473
1432 6 477 472 469 474
1433 4 1427 1424 1421 1418
1434 6 1427 1424 1421 1425
1435 6 1427 1424 1421 1426
1436 4 1428 1424 1421 1418
1437 6 1428 1424 1421 1425
1438 6 1428 1424 1421 1426
1439 4 1429 1424 1421 1418
1440 6 1429 1424 1421 1425
1441 6 1429 1424 1421 1426
1442 10 2262 2259 2256 2255
1443 4 2262 2259 2256 2260
1444 4 2262 2259 2256 2261
1445 11 2263 2259 2256 2255
1446 6 2263 2259 2256 2260
1447 6 2263 2259 2256 2261
1448 11 2264 2259 2256 2255
1449 6 2264 2259 2256 2260
1450 6 2264 2259 2256 2261
1451 8 2259 2256 2255 2257
1452 8 2259 2256 2255 2258
1453 9 2260 2256 2255 2257
1454 9 2260 2256 2255 2258
1455 9 2261 2256 2255 2257
1456 9 2261 2256 2255 2258
1457 1 834 830 829 831
1458 1 834 830 829 832
1459 1 834 830 829 833
1460 2 835 830 829 831
1461 2 835 830 829 832
1462 2 835 830 829 833
1463 2 836 830 829 831
1464 2 836 830 829 832
1465 2 836 830 829 833
1466 12 2256 2257 2255 2258
1467 7 1424 1421 1418 1415
1468 4 1424 1421 1418 1422
1469 4 1424 1421 1418 1423
1470 4 1425 1421 1418 1415
1471 6 1425 1421 1418 1422
1472 6 1425 1421 1418 1423
1473 4 1426 1421 1418 1415
1474 6 1426 1421 1418 1422
1475 6 1426 1421 1418 1423
1476 7 1421 1418 1415 1412
1477 4 1421 1418 1415 1419
1478 4 1421 1418 1415 1420
1479 4 1422 1418 1415 1412
1480 6 1422 1418 1415 1419
1481 6 1422 1418 1415 1420
1482 4 1423 1418 1415 1412
1483 6 1423 1418 1415 1419
1484 6 1423 1418 1415 1420
1485 1 144 140 139 141
1486 1 144 140 139 142
1487 1 144 140 139 143
1488 2 145 140 139 141
1489 2 145 140 139 142
1490 2 145 140 139 143
1491 2 146 140 139 141
1492 2 146 140 139 142
1493 2 146 140 139 143
1494 4 1677 1674 1671 1668
1495 6 1677 1674 1671 1675
1496 6 1677 1674 1671 1676
1497 4 1678 1674 1671 1668
1498 6 1678 1674 1671 1675
1499 6 1678 1674 1671 1676
1500 4 1679 1674 1671 1668
1501 6 1679 1674 1671 1675
1502 6 1679 1674 1671 1676
1503 4 964 961 958 955
1504 6 964 961 958 962
1505 6 964 961 958 963
1506 4 965 961 958 955
1507 6 965 961 958 962
1508 6 965 961 958 963
1509 4 966 961 958 955
1510 6 966 961 958 962
1511 6 966 961 958 963
1512 7 961 958 955 952
1513 4 961 958 955 959
1514 4 961 958 955 960
1515 4 962 958 955 952
1516 6 962 958 955 959
1517 6 962 958 955 960
1518 4 963 958 955 952
1519 6 963 958 955 959
1520 6 963 958 955 960
1521 7 958 955 952 949
1522 4 958 955 952 956
1523 4 958 955 952 957
1524 4 959 955 952 949
1525 6 959 955 952 956
1526 6 959 955 952 957
1527 4 960 955 952 949
1528 6 960 955 952 956
1529 6 960 955 952 957
1530 7 1674 1671 1668 1665
1531 4 1674 1671 1668 1672
1532 4 1674 1671 1668 1673
1533 4 1675 1671 1668 1665
1534 6 1675 1671 1668 1672
1535 6 1675 1671 1668 1673
1536 4 1676 1671 1668 1665
1537 6 1676 1671 1668 1672
1538 6 1676 1671 1668 1673
1539 7 1671 1668 1665 1662
1540 4 1671 1668 1665 1669
1541 4 1671 1668 1665 1670
1542 4 1672 1668 1665 1662
1543 6 1672 1668 1665 1669
1544 6 1672 1668 1665 1670
1545 4 1673 1668 1665 1662
1546 6 1673 1668 1665 1669
1547 6 1673 1668 1665 1670
1548 4 1602 1599 1596 1593
1549 6 1602 1599 1596 1600
1550 6 1602 1599 1596 1601
1551 4 1603 1599 1596 1593
1552 6 1603 1599 1596 1600
1553 6 1603 1599 1596 1601
1554 4 1604 1599 1596 1593
1555 6 1604 1599 1596 1600
1556 6 1604 1599 1596 1601
1557 7 1596 1593 1590 1587
1558 4 1596 1593 1590 1594
1559 4 1596 1593 1590 1595
1560 4 1597 1593 1590 1587
1561 6 1597 1593 1590 1594
1562 6 1597 1593 1590 1595
1563 4 1598 1593 1590 1587
1564 6 1598 1593 1590 1594
1565 6 1598 1593 1590 1595
1566 7 1599 1596 1593 1590
1567 4 1599 1596 1593 1597
1568 4 1599 1596 1593 1598
1569 4 1600 1596 1593 1590
1570 6 1600 1596 1593 1597
1571 6 1600 1596 1593 1598
1572 4 1601 1596 1593 1590
1573 6 1601 1596 1593 1597
1574 6 1601 1596 1593 1598
1575 7 1593 1590 1587 1584
1576 4 1593 1590 1587 1591
1577 4 1593 1590 1587 1592
1578 4 1594 1590 1587 1584
1579 6 1594 1590 1587 1591
1580 6 1594 1590 1587 1592
1581 4 1595 1590 1587 1584
1582 6 1595 1590 1587 1591
1583 6 1595 1590 1587 1592
1584 8 1159 1156 1155 1157
1585 8 1159 1156 1155 1158
1586 9 1160 1156 1155 1157
1587 9 1160 1156 1155 1158
1588 9 1161 1156 1155 1157
1589 9 1161 1156 1155 1158
1590 7 426 423 420 416
1591 4 426 423 420 424
1592 4 426 423 420 425
1593 4 427 423 420 416
1594 6 427 423 420 424
1595 6 427 423 420 425
1596 4 428 423 420 416
1597 6 428 423 420 424
1598 6 428 423 420 425
1599 7 429 426 423 420
1600 4 429 426 423 427
1601 4 429 426 423 428
1602 4 430 426 423 420
1603 6 430 426 423 427
1604 6 430 426 423 428
1605 4 431 426 423 420
1606 6 431 426 423 427
1607 6 431 426 423 428
1608 7 1740 1737 1734 1731
1609 4 1740 1737 1734 1738
1610 4 1740 1737 1734 1739
1611 4 1741 1737 1734 1731
1612 6 1741 1737 1734 1738
1613 6 1741 1737 1734 1739
1614 4 1742 1737 1734 1731
1615 6 1742 1737 1734 1738
1616 6 1742 1737 1734 1739
1617 7 955 952 949 945
1618 4 955 952 949 953
1619 4 955 952 949 954
1620 4 956 952 949 945
1621 6 956 952 949 953
1622 6 956 952 949 954
1623 4 957 952 949 945
1624 6 957 952 949 953
1625 6 957 952 949 954
1626 3 423 420 416 415
1627 4 423 420 416 421
1628 4 423 420 416 422
1629 5 424 420 416 415
1630 6 424 420 416 421
1631 6 424 420 416 422
1632 5 425 420 416 415
1633 6 425 420 416 421
1634 6 425 420 416 422
1635 3 952 949 945 944
1636 4 952 949 945 950
1637 4 952 949 945 951
1638 5 953 949 945 944
1639 6 953 949 945 950
1640 6 953 949 945 951
1641 5 954 949 945 944
1642 6 954 949 945 950
1643 6 954 949 945 951
1644 12 1581 1582 1580 1583
1645 10 1737 1734 1731 1730
1646 4 1737 1734 1731 1735
1647 4 1737 1734 1731 1736
1648 11 1738 1734 1731 1730
1649 6 1738 1734 1731 1735
1650 6 1738 1734 1731 1736
1651 11 1739 1734 1731 1730
1652 6 1739 1734 1731 1735
1653 6 1739 1734 1731 1736
1654 8 1734 1731 1730 1732
1655 8 1734 1731 1730 1733
1656 9 1735 1731 1730 1732
1657 9 1735 1731 1730 1733
1658 9 1736 1731 1730 1732
1659 9 1736 1731 1730 1733
1660 1 949 945 944 946
1661 1 949 945 944 947
1662 1 949 945 944 948
1663 2 950 945 944 946
1664 2 950 945 944 947
1665 2 950 945 944 948
1666 2 951 945 944 946
1667 2 951 945 944 947
1668 2 951 945 944 948
1669 7 1590 1587 1584 1581
1670 4 1590 1587 1584 1588
1671 4 1590 1587 1584 1589
1672 4 1591 1587 1584 1581
1673 6 1591 1587 1584 1588
1674 6 1591 1587 1584 1589
1675 4 1592 1587 1584 1581
1676 6 1592 1587 1584 1588
1677 6 1592 1587 1584 1589
1678 1 420 416 415 417
1679 1 420 416 415 418
1680 1 420 416 415 419
1681 2 421 416 415 417
1682 2 421 416 415 418
1683 2 421 416 415 419
1684 2 422 416 415 417
1685 2 422 416 415 418
1686 2 422 416 415 419
1687 10 1687 1684 1681 1680
1688 4 1687 1684 1681 1685
1689 4 1687 1684 1681 1686
1690 11 1688 1684 1681 1680
1691 6 1688 1684 1681 1685
1692 6 1688 1684 1681 1686
1693 11 1689 1684 1681 1680
1694 6 1689 1684 1681 1685
1695 6 1689 1684 1681 1686
1696 4 1752 1749 1746 1743
1697 6 1752 1749 1746 1750
1698 6 1752 1749 1746 1751
1699 4 1753 1749 1746 1743
1700 6 1753 1749 1746 1750
1701 6 1753 1749 1746 1751
1702 4 1754 1749 1746 1743
1703 6 1754 1749 1746 1750
1704 6 1754 1749 1746 1751
1705 8 1484 1481 1480 1482
1706 8 1484 1481 1480 1483
1707 9 1485 1481 1480 1482
1708 9 1485 1481 1480 1483
1709 9 1486 1481 1480 1482
1710 9 1486 1481 1480 1483
1711 10 1487 1484 1481 1480
1712 4 1487 1484 1481 1485
1713 4 1487 1484 1481 1486
1714 11 1488 1484 1481 1480
1715 6 1488 1484 1481 1485
1716 6 1488 1484 1481 1486
1717 11 1489 1484 1481 1480
1718 6 1489 1484 1481 1485
1719 6 1489 1484 1481 1486
1720 12 1481 1482 1480 1483
1721 3 446 443 439 438
1722 4 446 443 439 444
1723 4 446 443 439 445
1724 5 447 443 439 438
1725 6 447 443 439 444
1726 6 447 443 439 445
1727 5 448 443 439 438
1728 6 448 443 439 444
1729 6 448 443 439 445
1730 8 1684 1681 1680 1682
1731 8 1684 1681 1680 1683
1732 9 1685 1681 1680 1682
1733 9 1685 1681 1680 1683
1734 9 1686 1681 1680 1682
1735 9 1686 1681 1680 1683
1736 12 1681 1682 1680 1683
1737 1 443 439 438 440
1738 1 443 439 438 441
1739 1 443 439 438 442
1740 2 444 439 438 440
1741 2 444 439 438 441
1742 2 444 439 438 442
1743 2 445 439 438 440
1744 2 445 439 438 441
1745 2 445 439 438 442
1746 7 449 446 443 439
1747 4 449 446 443 447
1748 4 449 446 443 448
1749 4 450 446 443 439
1750 6 450 446 443 447
1751 6 450 446 443 448
1752 4 451 446 443 439
1753 6 451 446 443 447
1754 6 451 446 443 448
1755 7 1418 1415 1412 1409
1756 4 1418 1415 1412 1416
1757 4 1418 1415 1412 1417
1758 4 1419 1415 1412 1409
1759 6 1419 1415 1412 1416
1760 6 1419 1415 1412 1417
1761 4 1420 1415 1412 1409
1762 6 1420 1415 1412 1416
1763 6 1420 1415 1412 1417
1764 1 788 784 783 785
1765 1 788 784 783 786
1766 1 788 784 783 787
1767 2 789 784 783 785
1768 2 789 784 783 786
1769 2 789 784 783 787
1770 2 790 784 783 785
1771 2 790 784 783 786
1772 2 790 784 783 787
1773 7 794 791 788 784
1774 4 794 791 788 792
1775 4 794 791 788 793
1776 4 795 791 788 784
1777 6 795 791 788 792
1778 6 795 791 788 793
1779 4 796 791 788 784
1780 6 796 791 788 792
1781 6 796 791 788 793
1782 12 1981 1982 1980 1983
1783 7 1415 1412 1409 1406
1784 4 1415 1412 1409 1413
1785 4 1415 1412 1409 1414
1786 4 1416 1412 1409 1406
1787 6 1416 1412 1409 1413
1788 6 1416 1412 1409 1414
1789 4 1417 1412 1409 1406
1790 6 1417 1412 1409 1413
1791 6 1417 1412 1409 1414
1792 7 452 449 446 443
1793 4 452 449 446 450
1794 4 452 449 446 451
1795 4 453 449 446 443
1796 6 453 449 446 450
1797 6 453 449 446 451
1798 4 454 449 446 443
1799 6 454 449 446 450
1800 6 454 449 446 451
1801 7 455 452 449 446
1802 4 455 452 449 453
1803 4 455 452 449 454
1804 4 456 452 449 446
1805 6 456 452 449 453
1806 6 456 452 449 454
1807 4 457 452 449 446
1808 6 457 452 449 453
1809 6 457 452 449 454
1810 8 1659 1656 1655 1657
1811 8 1659 1656 1655 1658
1812 9 1660 1656 1655 1657
1813 9 1660 1656 1655 1658
1814 9 1661 1656 1655 1657
1815 9 1661 1656 1655 1658
1816 7 1668 1665 1662 1659
1817 4 1668 1665 1662 1666
1818 4 1668 1665 1662 1667
1819 4 1669 1665 1662 1659
1820 6 1669 1665 1662 1666
1821 6 1669 1665 1662 1667
1822 4 1670 1665 1662 1659
1823 6 1670 1665 1662 1666
1824 6 1670 1665 1662 1667
1825 10 1662 1659 1656 1655
1826 4 1662 1659 1656 1660
1827 4 1662 1659 1656 1661
1828 11 1663 1659 1656 1655
1829 6 1663 1659 1656 1660
1830 6 1663 1659 1656 1661
1831 11 1664 1659 1656 1655
1832 6 1664 1659 1656 1660
1833 6 1664 1659 1656 1661
1834 7 1665 1662 1659 1656
1835 4 1665 1662 1659 1663
1836 4 1665 1662 1659 1664
1837 4 1666 1662 1659 1656
1838 6 1666 1662 1659 1663
1839 6 1666 1662 1659 1664
1840 4 1667 1662 1659 1656
1841 6 1667 1662 1659 1663
1842 6 1667 1662 1659 1664
1843 7 1299 1296 1293 1290
1844 4 1299 1296 1293 1297
1845 4 1299 1296 1293 1298
1846 4 1300 1296 1293 1290
1847 6 1300 1296 1293 1297
1848 6 1300 1296 1293 1298
1849 4 1301 1296 1293 1290
1850 6 1301 1296 1293 1297
1851 6 1301 1296 1293 1298
1852 7 1293 1290 1287 1284
1853 4 1293 1290 1287 1291
1854 4 1293 1290 1287 1292
1855 4 1294 1290 1287 1284
1856 6 1294 1290 1287 1291
1857 6 1294 1290 1287 1292
1858 4 1295 1290 1287 1284
1859 6 1295 1290 1287 1291
1860 6 1295 1290 1287 1292
1861 7 1296 1293 1290 1287
1862 4 1296 1293 1290 1294
1863 4 1296 1293 1290 1295
1864 4 1297 1293 1290 1287
1865 6 1297 1293 1290 1294
1866 6 1297 1293 1290 1295
1867 4 1298 1293 1290 1287
1868 6 1298 1293 1290 1294
1869 6 1298 1293 1290 1295
1870 7 1290 1287 1284 1281
1871 4 1290 1287 1284 1288
1872 4 1290 1287 1284 1289
1873 4 1291 1287 1284 1281
1874 6 1291 1287 1284 1288
1875 6 1291 1287 1284 1289
1876 4 1292 1287 1284 1281
1877 6 1292 1287 1284 1288
1878 6 1292 1287 1284 1289
1879 4 1302 1299 1296 1293
1880 6 1302 1299 1296 1300
1881 6 1302 1299 1296 1301
1882 4 1303 1299 1296 1293
1883 6 1303 1299 1296 1300
1884 6 1303 1299 1296 1301
1885 4 1304 1299 1296 1293
1886 6 1304 1299 1296 1300
1887 6 1304 1299 1296 1301
1888 8 1984 1981 1980 1982
1889 8 1984 1981 1980 1983
1890 9 1985 1981 1980 1982
1891 9 1985 1981 1980 1983
1892 9 1986 1981 1980 1982
1893 9 1986 1981 1980 1983
1894 7 1990 1987 1984 1981
1895 4 1990 1987 1984 1988
1896 4 1990 1987 1984 1989
1897 4 1991 1987 1984 1981
1898 6 1991 1987 1984 1988
1899 6 1991 1987 1984 1989
1900 4 1992 1987 1984 1981
1901 6 1992 1987 1984 1988
1902 6 1992 1987 1984 1989
1903 10 1987 1984 1981 1980
1904 4 1987 1984 1981 1985
1905 4 1987 1984 1981 1986
1906 11 1988 1984 1981 1980
1907 6 1988 1984 1981 1985
1908 6 1988 1984 1981 1986
1909 11 1989 1984 1981 1980
1910 6 1989 1984 1981 1985
1911 6 1989 1984 1981 1986
1912 7 1993 1990 1987 1984
1913 4 1993 1990 1987 1991
1914 4 1993 1990 1987 1992
1915 4 1994 1990 1987 1984
1916 6 1994 1990 1987 1991
1917 6 1994 1990 1987 1992
1918 4 1995 1990 1987 1984
1919 6 1995 1990 1987 1991
1920 6 1995 1990 1987 1992
1921 7 1996 1993 1990 1987
1922 4 1996 1993 1990 1994
1923 4 1996 1993 1990 1995
1924 4 1997 1993 1990 1987
1925 6 1997 1993 1990 1994
1926 6 1997 1993 1990 1995
1927 4 1998 1993 1990 1987
1928 6 1998 1993 1990 1994
1929 6 1998 1993 1990 1995
1930 7 1004 1001 998 995
1931 4 1004 1001 998 1002
1932 4 1004 1001 998 1003
1933 4 1005 1001 998 995
1934 6 1005 1001 998 1002
1935 6 1005 1001 998 1003
1936 4 1006 1001 998 995
1937 6 1006 1001 998 1002
1938 6 1006 1001 998 1003
1939 7 1076 1073 1070 1067
1940 4 1076 1073 1070 1074
1941 4 1076 1073 1070 1075
1942 4 1077 1073 1070 1067
1943 6 1077 1073 1070 1074
1944 6 1077 1073 1070 1075
1945 4 1078 1073 1070 1067
1946 6 1078 1073 1070 1074
1947 6 1078 1073 1070 1075
1948 10 1287 1284 1281 1280
1949 4 1287 1284 1281 1285
1950 4 1287 1284 1281 1286
1951 11 1288 1284 1281 1280
1952 6 1288 1284 1281 1285
1953 6 1288 1284 1281 1286
1954 11 1289 1284 1281 1280
1955 6 1289 1284 1281 1285
1956 6 1289 1284 1281 1286
1957 7 1001 998 995 991
1958 4 1001 998 995 999
1959 4 1001 998 995 1000
1960 4 1002 998 995 991
1961 6 1002 998 995 999
1962 6 1002 998 995 1000
1963 4 1003 998 995 991
1964 6 1003 998 995 999
1965 6 1003 998 995 1000
1966 3 998 995 991 990
1967 4 998 995 991 996
1968 4 998 995 991 997
1969 5 999 995 991 990
1970 6 999 995 991 996
1971 6 999 995 991 997
1972 5 1000 995 991 990
1973 6 1000 995 991 996
1974 6 1000 995 991 997
1975 8 1284 1281 1280 1282
1976 8 1284 1281 1280 1283
1977 9 1285 1281 1280 1282
1978 9 1285 1281 1280 1283
1979 9 1286 1281 1280 1282
1980 9 1286 1281 1280 1283
1981 12 1281 1282 1280 1283
1982 4 1552 1549 1546 1543
1983 6 1552 1549 1546 1550
1984 6 1552 1549 1546 1551
1985 4 1553 1549 1546 1543
1986 6 1553 1549 1546 1550
1987 6 1553 1549 1546 1551
1988 4 1554 1549 1546 1543
1989 6 1554 1549 1546 1550
1990 6 1554 1549 1546 1551
1991 1 995 991 990 992
1992 1 995 991 990 993
1993 1 995 991 990 994
1994 2 996 991 990 992
1995 2 996 991 990 993
1996 2 996 991 990 994
1997 2 997 991 990 992
1998 2 997 991 990 993
1999 2 997 991 990 994
2000 4 228 225 222 219
2001 6 228 225 222 226
2002 6 228 225 222 227
2003 4 229 225 222 219
2004 6 229 225 222 226
2005 6 229 225 222 227
2006 4 230 225 222 219
2007 6 230 225 222 226
2008 6 230 225 222 227
2009 1 696 692 691 693
2010 1 696 692 691 694
2011 1 696 692 691 695
2012 2 697 692 691 693
2013 2 697 692 691 694
2014 2 697 692 691 695
2015 2 698 692 691 693
2016 2 698 692 691 694
2017 2 698 692 691 695
2018 8 2184 2181 2180 2182
2019 8 2184 2181 2180 2183
2020 9 2185 2181 2180 2182
2021 9 2185 2181 2180 2183
2022 9 2186 2181 2180 2182
2023 9 2186 2181 2180 2183
2024 3 699 696 692 691
2025 4 699 696 692 697
2026 4 699 696 692 698
2027 5 700 696 692 691
2028 6 700 696 692 697
2029 6 700 696 692 698
2030 5 701 696 692 691
2031 6 701 696 692 697
2032 6 701 696 692 698
2033 7 702 699 696 692
2034 4 702 699 696 700
2035 4 702 699 696 701
2036 4 703 699 696 692
2037 6 703 699 696 700
2038 6 703 699 696 701
2039 4 704 699 696 692
2040 6 704 699 696 700
2041 6 704 699 696 701
2042 7 705 702 699 696
2043 4 705 702 699 703
2044 4 705 702 699 704
2045 4 706 702 699 696
2046 6 706 702 699 703
2047 6 706 702 699 704
2048 4 707 702 699 696
2049 6 707 702 699 703
2050 6 707 702 699 704
2051 7 708 705 702 699
2052 4 708 705 702 706
2053 4 708 705 702 707
2054 4 709 705 702 699
2055 6 709 705 702 706
2056 6 709 705 702 707
2057 4 710 705 702 699
2058 6 710 705 702 706
2059 6 710 705 702 707
2060 4 90 87 84 81
2061 6 90 87 84 88
2062 6 90 87 84 89
2063 4 91 87 84 81
2064 6 91 87 84 88
2065 6 91 87 84 89
2066 4 92 87 84 81
2067 6 92 87 84 88
2068 6 92 87 84 89
2069 3 791 788 784 783
2070 4 791 788 784 789
2071 4 791 788 784 790
2072 5 792 788 784 783
2073 6 792 788 784 789
2074 6 792 788 784 790
2075 5 793 788 784 783
2076 6 793 788 784 789
2077 6 793 788 784 790
2078 12 2181 2182 2180 2183
2079 10 2187 2184 2181 2180
2080 4 2187 2184 2181 2185
2081 4 2187 2184 2181 2186
2082 11 2188 2184 2181 2180
2083 6 2188 2184 2181 2185
2084 6 2188 2184 2181 2186
2085 11 2189 2184 2181 2180
2086 6 2189 2184 2181 2185
2087 6 2189 2184 2181 2186
2088 12 1781 1782 1780 1783
2089 7 797 794 791 788
2090 4 797 794 791 795
2091 4 797 794 791 796
2092 4 798 794 791 788
2093 6 798 794 791 795
2094 6 798 794 791 796
2095 4 799 794 791 788
2096 6 799 794 791 795
2097 6 799 794 791 796
2098 7 1790 1787 1784 1781
2099 4 1790 1787 1784 1788
2100 4 1790 1787 1784 1789
2101 4 1791 1787 1784 1781
2102 6 1791 1787 1784 1788
2103 6 1791 1787 1784 1789
2104 4 1792 1787 1784 1781
2105 6 1792 1787 1784 1788
2106 6 1792 1787 1784 1789
2107 10 1787 1784 1781 1780
2108 4 1787 1784 1781 1785
2109 4 1787 1784 1781 1786
2110 11 1788 1784 1781 1780
2111 6 1788 1784 1781 1785
2112 6 1788 1784 1781 1786
2113 11 1789 1784 1781 1780
2114 6 1789 1784 1781 1785
2115 6 1789 1784 1781 1786
2116 8 1784 1781 1780 1782
2117 8 1784 1781 1780 1783
2118 9 1785 1781 1780 1782
2119 9 1785 1781 1780 1783
2120 9 1786 1781 1780 1782
2121 9 1786 1781 1780 1783
2122 7 1796 1793 1790 1787
2123 4 1796 1793 1790 1794
2124 4 1796 1793 1790 1795
2125 4 1797 1793 1790 1787
2126 6 1797 1793 1790 1794
2127 6 1797 1793 1790 1795
2128 4 1798 1793 1790 1787
2129 6 1798 1793 1790 1794
2130 6 1798 1793 1790 1795
2131 7 1793 1790 1787 1784
2132 4 1793 1790 1787 1791
2133 4 1793 1790 1787 1792
2134 4 1794 1790 1787 1784
2135 6 1794 1790 1787 1791
2136 6 1794 1790 1787 1792
2137 4 1795 1790 1787 1784
2138 6 1795 1790 1787 1791
2139 6 1795 1790 1787 1792
2140 3 745 742 738 737
2141 4 745 742 738 743
2142 4 745 742 738 744
2143 5 746 742 738 737
2144 6 746 742 738 743
2145 6 746 742 738 744
2146 5 747 742 738 737
2147 6 747 742 738 743
2148 6 747 742 738 744
2149 4 757 754 751 748
2150 6 757 754 751 755
2151 6 757 754 751 756
2152 4 758 754 751 748
2153 6 758 754 751 755
2154 6 758 754 751 756
2155 4 759 754 751 748
2156 6 759 754 751 755
2157 6 759 754 751 756
2158 7 1999 1996 1993 1990
2159 4 1999 1996 1993 1997
2160 4 1999 1996 1993 1998
2161 4 2000 1996 1993 1990
2162 6 2000 1996 1993 1997
2163 6 2000 1996 1993 1998
2164 4 2001 1996 1993 1990
2165 6 2001 1996 1993 1997
2166 6 2001 1996 1993 1998
2167 4 2002 1999 1996 1993
2168 6 2002 1999 1996 2000
2169 6 2002 1999 1996 2001
2170 4 2003 1999 1996 1993
2171 6 2003 1999 1996 2000
2172 6 2003 1999 1996 2001
2173 4 2004 1999 1996 1993
2174 6 2004 1999 1996 2000
2175 6 2004 1999 1996 2001
2176 7 748 745 742 738
2177 4 748 745 742 746
2178 4 748 745 742 747
2179 4 749 745 742 738
2180 6 749 745 742 746
2181 6 749 745 742 747
2182 4 750 745 742 738
2183 6 750 745 742 746
2184 6 750 745 742 747
2185 1 742 738 737 739
2186 1 742 738 737 740
2187 1 742 738 737 741
2188 2 743 738 737 739
2189 2 743 738 737 740
2190 2 743 738 737 741
2191 2 744 738 737 739
2192 2 744 738 737 740
2193 2 744 738 737 741
2194 12 1531 1532 1530 1533
2195 7 1918 1915 1912 1909
2196 4 1918 1915 1912 1916
2197 4 1918 1915 1912 1917
2198 4 1919 1915 1912 1909
2199 6 1919 1915 1912 1916
2200 6 1919 1915 1912 1917
2201 4 1920 1915 1912 1909
2202 6 1920 1915 1912 1916
2203 6 1920 1915 1912 1917
2204 7 1546 1543 1540 1537
2205 4 1546 1543 1540 1544
2206 4 1546 1543 1540 1545
2207 4 1547 1543 1540 1537
2208 6 1547 1543 1540 1544
2209 6 1547 1543 1540 1545
2210 4 1548 1543 1540 1537
2211 6 1548 1543 1540 1544
2212 6 1548 1543 1540 1545
2213 4 1852 1849 1846 1843
2214 6 1852 1849 1846 1850
2215 6 1852 1849 1846 1851
2216 4 1853 1849 1846 1843
2217 6 1853 1849 1846 1850
2218 6 1853 1849 1846 1851
2219 4 1854 1849 1846 1843
2220 6 1854 1849 1846 1850
2221 6 1854 1849 1846 1851
2222 7 1915 1912 1909 1906
2223 4 1915 1912 1909 1913
2224 4 1915 1912 1909 1914
2225 4 1916 1912 1909 1906
2226 6 1916 1912 1909 1913
2227 6 1916 1912 1909 1914
2228 4 1917 1912 1909 1906
2229 6 1917 1912 1909 1913
2230 6 1917 1912 1909 1914
2231 10 1912 1909 1906 1905
2232 4 1912 1909 1906 1910
2233 4 1912 1909 1906 1911
2234 11 1913 1909 1906 1905
2235 6 1913 1909 1906 1910
2236 6 1913 1909 1906 1911
2237 11 1914 1909 1906 1905
2238 6 1914 1909 1906 1910
2239 6 1914 1909 1906 1911
2240 7 1549 1546 1543 1540
2241 4 1549 1546 1543 1547
2242 4 1549 1546 1543 1548
2243 4 1550 1546 1543 1540
2244 6 1550 1546 1543 1547
2245 6 1550 1546 1543 1548
2246 4 1551 1546 1543 1540
2247 6 1551 1546 1543 1547
2248 6 1551 1546 1543 1548
2249 8 1909 1906 1905 1907
2250 8 1909 1906 1905 1908
2251 9 1910 1906 1905 1907
2252 9 1910 1906 1905 1908
2253 9 1911 1906 1905 1907
2254 9 1911 1906 1905 1908
2255 7 1540 1537 1534 1531
2256 4 1540 1537 1534 1538
2257 4 1540 1537 1534 1539
2258 4 1541 1537 1534 1531
2259 6 1541 1537 1534 1538
2260 6 1541 1537 1534 1539
2261 4 1542 1537 1534 1531
2262 6 1542 1537 1534 1538
2263 6 1542 1537 1534 1539
2264 7 1543 1540 1537 1534
2265 4 1543 1540 1537 1541
2266 4 1543 1540 1537 1542
2267 4 1544 1540 1537 1534
2268 6 1544 1540 1537 1541
2269 6 1544 1540 1537 1542
2270 4 1545 1540 1537 1534
2271 6 1545 1540 1537 1541
2272 6 1545 1540 1537 1542
2273 10 1537 1534 1531 1530
2274 4 1537 1534 1531 1535
2275 4 1537 1534 1531 1536
2276 11 1538 1534 1531 1530
2277 6 1538 1534 1531 1535
2278 6 1538 1534 1531 1536
2279 11 1539 1534 1531 1530
2280 6 1539 1534 1531 1535
2281 6 1539 1534 1531 1536
2282 8 1534 1531 1530 1532
2283 8 1534 1531 1530 1533
2284 9 1535 1531 1530 1532
2285 9 1535 1531 1530 1533
2286 9 1536 1531 1530 1532
2287 9 1536 1531 1530 1533
2288 4 389 386 383 380
2289 6 389 386 383 387
2290 6 389 386 383 388
2291 4 390 386 383 380
2292 6 390 386 383 387
2293 6 390 386 383 388
2294 4 391 386 383 380
2295 6 391 386 383 387
2296 6 391 386 383 388
2297 7 386 383 380 377
2298 4 386 383 380 384
2299 4 386 383 380 385
2300 4 387 383 380 377
2301 6 387 383 380 384
2302 6 387 383 380 385
2303 4 388 383 380 377
2304 6 388 383 380 384
2305 6 388 383 380 385
2306 7 935 932 929 926
2307 4 935 932 929 933
2308 4 935 932 929 934
2309 4 936 932 929 926
2310 6 936 932 929 933
2311 6 936 932 929 934
2312 4 937 932 929 926
2313 6 937 932 929 933
2314 6 937 932 929 934
2315 7 938 935 932 929
2316 4 938 935 932 936
2317 4 938 935 932 937
2318 4 939 935 932 929
2319 6 939 935 932 936
2320 6 939 935 932 937
2321 4 940 935 932 929
2322 6 940 935 932 936
2323 6 940 935 932 937
2324 4 941 938 935 932
2325 6 941 938 935 939
2326 6 941 938 935 940
2327 4 942 938 935 932
2328 6 942 938 935 939
2329 6 942 938 935 940
2330 4 943 938 935 932
2331 6 943 938 935 939
2332 6 943 938 935 940
2333 12 1906 1907 1905 1908
2334 7 225 222 219 216
2335 4 225 222 219 223
2336 4 225 222 219 224
2337 4 226 222 219 216
2338 6 226 222 219 223
2339 6 226 222 219 224
2340 4 227 222 219 216
2341 6 227 222 219 223
2342 6 227 222 219 224
2343 7 87 84 81 78
2344 4 87 84 81 85
2345 4 87 84 81 86
2346 4 88 84 81 78
2347 6 88 84 81 85
2348 6 88 84 81 86
2349 4 89 84 81 78
2350 6 89 84 81 85
2351 6 89 84 81 86
2352 7 1899 1896 1893 1890
2353 4 1899 1896 1893 1897
2354 4 1899 1896 1893 1898
2355 4 1900 1896 1893 1890
2356 6 1900 1896 1893 1897
2357 6 1900 1896 1893 1898
2358 4 1901 1896 1893 1890
2359 6 1901 1896 1893 1897
2360 6 1901 1896 1893 1898
2361 4 711 708 705 702
2362 6 711 708 705 709
2363 6 711 708 705 710
2364 4 712 708 705 702
2365 6 712 708 705 709
2366 6 712 708 705 710
2367 4 713 708 705 702
2368 6 713 708 705 709
2369 6 713 708 705 710
2370 7 2271 2268 2265 2262
2371 4 2271 2268 2265 2269
2372 4 2271 2268 2265 2270
2373 4 2272 2268 2265 2262
2374 6 2272 2268 2265 2269
2375 6 2272 2268 2265 2270
2376 4 2273 2268 2265 2262
2377 6 2273 2268 2265 2269
2378 6 2273 2268 2265 2270
2379 7 2268 2265 2262 2259
2380 4 2268 2265 2262 2266
2381 4 2268 2265 2262 2267
2382 4 2269 2265 2262 2259
2383 6 2269 2265 2262 2266
2384 6 2269 2265 2262 2267
2385 4 2270 2265 2262 2259
2386 6 2270 2265 2262 2266
2387 6 2270 2265 2262 2267
2388 3 78 75 71 70
2389 4 78 75 71 76
2390 4 78 75 71 77
2391 5 79 75 71 70
2392 6 79 75 71 76
2393 6 79 75 71 77
2394 5 80 75 71 70
2395 6 80 75 71 76
2396 6 80 75 71 77
2397 7 271 268 265 262
2398 4 271 268 265 269
2399 4 271 268 265 270
2400 4 272 268 265 262
2401 6 272 268 265 269
2402 6 272 268 265 270
2403 4 273 268 265 262
2404 6 273 268 265 269
2405 6 273 268 265 270
2406 7 268 265 262 259
2407 4 268 265 262 266
2408 4 268 265 262 267
2409 4 269 265 262 259
2410 6 269 265 262 266
2411 6 269 265 262 267
2412 4 270 265 262 259
2413 6 270 265 262 266
2414 6 270 265 262 267
2415 7 84 81 78 75
2416 4 84 81 78 82
2417 4 84 81 78 83
2418 4 85 81 78 75
2419 6 85 81 78 82
2420 6 85 81 78 83
2421 4 86 81 78 75
2422 6 86 81 78 82
2423 6 86 81 78 83
2424 3 262 259 255 254
2425 4 262 259 255 260
2426 4 262 259 255 261
2427 5 263 259 255 254
2428 6 263 259 255 260
2429 6 263 259 255 261
2430 5 264 259 255 254
2431 6 264 259 255 260
2432 6 264 259 255 261
2433 7 265 262 259 255
2434 4 265 262 259 263
2435 4 265 262 259 264
2436 4 266 262 259 255
2437 6 266 262 259 263
2438 6 266 262 259 264
2439 4 267 262 259 255
2440 6 267 262 259 263
2441 6 267 262 259 264
2442 4 274 271 268 265
2443 6 274 271 268 272
2444 6 274 271 268 273
2445 4 275 271 268 265
2446 6 275 271 268 272
2447 6 275 271 268 273
2448 4 276 271 268 265
2449 6 276 271 268 272
2450 6 276 271 268 273
2451 7 2265 2262 2259 2256
2452 4 2265 2262 2259 2263
2453 4 2265 2262 2259 2264
2454 4 2266 2262 2259 2256
2455 6 2266 2262 2259 2263
2456 6 2266 2262 2259 2264
2457 4 2267 2262 2259 2256
2458 6 2267 2262 2259 2263
2459 6 2267 2262 2259 2264
2460 7 81 78 75 71
2461 4 81 78 75 79
2462 4 81 78 75 80
2463 4 82 78 75 71
2464 6 82 78 75 79
2465 6 82 78 75 80
2466 4 83 78 75 71
2467 6 83 78 75 79
2468 6 83 78 75 80
2469 1 75 71 70 72
2470 1 75 71 70 73
2471 1 75 71 70 74
2472 2 76 71 70 72
2473 2 76 71 70 73
2474 2 76 71 70 74
2475 2 77 71 70 72
2476 2 77 71 70 73
2477 2 77 71 70 74
2478 4 182 179 176 173
2479 6 182 179 176 180
2480 6 182 179 176 181
2481 4 183 179 176 173
2482 6 183 179 176 180
2483 6 183 179 176 181
2484 4 184 179 176 173
2485 6 184 179 176 180
2486 6 184 179 176 181
2487 7 179 176 173 170
2488 4 179 176 173 177
2489 4 179 176 173 178
2490 4 180 176 173 170
2491 6 180 176 173 177
2492 6 180 176 173 178
2493 4 181 176 173 170
2494 6 181 176 173 177
2495 6 181 176 173 178
2496 1 259 255 254 256
2497 1 259 255 254 257
2498 1 259 255 254 258
2499 2 260 255 254 256
2500 2 260 255 254 257
2501 2 260 255 254 258
2502 2 261 255 254 256
2503 2 261 255 254 257
2504 2 261 255 254 258
2505 12 1956 1957 1955 1958
2506 7 176 173 170 167
2507 4 176 173 170 174
2508 4 176 173 170 175
2509 4 177 173 170 167
2510 6 177 173 170 174
2511 6 177 173 170 175
2512 4 178 173 170 167
2513 6 178 173 170 174
2514 6 178 173 170 175
2515 7 173 170 167 163
2516 4 173 170 167 171
2517 4 173 170 167 172
2518 4 174 170 167 163
2519 6 174 170 167 171
2520 6 174 170 167 172
2521 4 175 170 167 163
2522 6 175 170 167 171
2523 6 175 170 167 172
2524 3 170 167 163 162
2525 4 170 167 163 168
2526 4 170 167 163 169
2527 5 171 167 163 162
2528 6 171 167 163 168
2529 6 171 167 163 169
2530 5 172 167 163 162
2531 6 172 167 163 168
2532 6 172 167 163 169
2533 1 167 163 162 164
2534 1 167 163 162 165
2535 1 167 163 162 166
2536 2 168 163 162 164
2537 2 168 163 162 165
2538 2 168 163 162 166
2539 2 169 163 162 164
2540 2 169 163 162 165
2541 2 169 163 162 166
2542 7 1896 1893 1890 1887
2543 4 1896 1893 1890 1894
2544 4 1896 1893 1890 1895
2545 4 1897 1893 1890 1887
2546 6 1897 1893 1890 1894
2547 6 1897 1893 1890 1895
2548 4 1898 1893 1890 1887
2549 6 1898 1893 1890 1894
2550 6 1898 1893 1890 1895
2551 7 1893 1890 1887 1884
2552 4 1893 1890 1887 1891
2553 4 1893 1890 1887 1892
2554 4 1894 1890 1887 1884
2555 6 1894 1890 1887 1891
2556 6 1894 1890 1887 1892
2557 4 1895 1890 1887 1884
2558 6 1895 1890 1887 1891
2559 6 1895 1890 1887 1892
2560 3 929 926 922 921
2561 4 929 926 922 927
2562 4 929 926 922 928
2563 5 930 926 922 921
2564 6 930 926 922 927
2565 6 930 926 922 928
2566 5 931 926 922 921
2567 6 931 926 922 927
2568 6 931 926 922 928
2569 12 1731 1732 1730 1733
2570 7 932 929 926 922
2571 4 932 929 926 930
2572 4 932 929 926 931
2573 4 933 929 926 922
2574 6 933 929 926 930
2575 6 933 929 926 931
2576 4 934 929 926 922
2577 6 934 929 926 930
2578 6 934 929 926 931
2579 10 1887 1884 1881 1880
2580 4 1887 1884 1881 1885
2581 4 1887 1884 1881 1886
2582 11 1888 1884 1881 1880
2583 6 1888 1884 1881 1885
2584 6 1888 1884 1881 1886
2585 11 1889 1884 1881 1880
2586 6 1889 1884 1881 1885
2587 6 1889 1884 1881 1886
2588 12 1881 1882 1880 1883
2589 8 1884 1881 1880 1882
2590 8 1884 1881 1880 1883
2591 9 1885 1881 1880 1882
2592 9 1885 1881 1880 1883
2593 9 1886 1881 1880 1882
2594 9 1886 1881 1880 1883
2595 1 926 922 921 923
2596 1 926 922 921 924
2597 1 926 922 921 925
2598 2 927 922 921 923
2599 2 927 922 921 924
2600 2 927 922 921 925
2601 2 928 922 921 923
2602 2 928 922 921 924
2603 2 928 922 921 925
2604 7 1890 1887 1884 1881
2605 4 1890 1887 1884 1888
2606 4 1890 1887 1884 1889
2607 4 1891 1887 1884 1881
2608 6 1891 1887 1884 1888
2609 6 1891 1887 1884 1889
2610 4 1892 1887 1884 1881
2611 6 1892 1887 1884 1888
2612 6 1892 1887 1884 1889
2613 4 343 340 337 334
2614 6 343 340 337 341
2615 6 343 340 337 342
2616 4 344 340 337 334
2617 6 344 340 337 341
2618 6 344 340 337 342
2619 4 345 340 337 334
2620 6 345 340 337 341
2621 6 345 340 337 342
2622 7 202 199 196 193
2623 4 202 199 196 200
2624 4 202 199 196 201
2625 4 203 199 196 193
2626 6 203 199 196 200
2627 6 203 199 196 201
2628 4 204 199 196 193
2629 6 204 199 196 200
2630 6 204 199 196 201
2631 1 627 623 622 624
2632 1 627 623 622 625
2633 1 627 623 622 626
2634 2 628 623 622 624
2635 2 628 623 622 625
2636 2 628 623 622 626
2637 2 629 623 622 624
2638 2 629 623 622 625
2639 2 629 623 622 626
2640 4 205 202 199 196
2641 6 205 202 199 203
2642 6 205 202 199 204
2643 4 206 202 199 196
2644 6 206 202 199 203
2645 6 206 202 199 204
2646 4 207 202 199 196
2647 6 207 202 199 203
2648 6 207 202 199 204
2649 12 1131 1132 1130 1133
2650 7 35 32 29 25
2651 4 35 32 29 33
2652 4 35 32 29 34
2653 4 36 32 29 25
2654 6 36 32 29 33
2655 6 36 32 29 34
2656 4 37 32 29 25
2657 6 37 32 29 33
2658 6 37 32 29 34
2659 7 340 337 334 331
2660 4 340 337 334 338
2661 4 340 337 334 339
2662 4 341 337 334 331
2663 6 341 337 334 338
2664 6 341 337 334 339
2665 4 342 337 334 331
2666 6 342 337 334 338
2667 6 342 337 334 339
2668 4 1502 1499 1496 1493
2669 6 1502 1499 1496 1500
2670 6 1502 1499 1496 1501
2671 4 1503 1499 1496 1493
2672 6 1503 1499 1496 1500
2673 6 1503 1499 1496 1501
2674 4 1504 1499 1496 1493
2675 6 1504 1499 1496 1500
2676 6 1504 1499 1496 1501
2677 7 199 196 193 190
2678 4 199 196 193 197
2679 4 199 196 193 198
2680 4 200 196 193 190
2681 6 200 196 193 197
2682 6 200 196 193 198
2683 4 201 196 193 190
2684 6 201 196 193 197
2685 6 201 196 193 198
2686 7 2240 2237 2234 2231
2687 4 2240 2237 2234 2238
2688 4 2240 2237 2234 2239
2689 4 2241 2237 2234 2231
2690 6 2241 2237 2234 2238
2691 6 2241 2237 2234 2239
2692 4 2242 2237 2234 2231
2693 6 2242 2237 2234 2238
2694 6 2242 2237 2234 2239
2695 10 2237 2234 2231 2230
2696 4 2237 2234 2231 2235
2697 4 2237 2234 2231 2236
2698 11 2238 2234 2231 2230
2699 6 2238 2234 2231 2235
2700 6 2238 2234 2231 2236
2701 11 2239 2234 2231 2230
2702 6 2239 2234 2231 2235
2703 6 2239 2234 2231 2236
2704 7 2243 2240 2237 2234
2705 4 2243 2240 2237 2241
2706 4 2243 2240 2237 2242
2707 4 2244 2240 2237 2234
2708 6 2244 2240 2237 2241
2709 6 2244 2240 2237 2242
2710 4 2245 2240 2237 2234
2711 6 2245 2240 2237 2241
2712 6 2245 2240 2237 2242
2713 7 892 889 886 883
2714 4 892 889 886 890
2715 4 892 889 886 891
2716 4 893 889 886 883
2717 6 893 889 886 890
2718 6 893 889 886 891
2719 4 894 889 886 883
2720 6 894 889 886 890
2721 6 894 889 886 891
2722 8 2234 2231 2230 2232
2723 8 2234 2231 2230 2233
2724 9 2235 2231 2230 2232
2725 9 2235 2231 2230 2233
2726 9 2236 2231 2230 2232
2727 9 2236 2231 2230 2233
2728 4 67 64 61 58
2729 6 67 64 61 65
2730 6 67 64 61 66
2731 4 68 64 61 58
2732 6 68 64 61 65
2733 6 68 64 61 66
2734 4 69 64 61 58
2735 6 69 64 61 65
2736 6 69 64 61 66
2737 7 843 840 837 834
2738 4 843 840 837 841
2739 4 843 840 837 842
2740 4 844 840 837 834
2741 6 844 840 837 841
2742 6 844 840 837 842
2743 4 845 840 837 834
2744 6 845 840 837 841
2745 6 845 840 837 842
2746 7 64 61 58 55
2747 4 64 61 58 62
2748 4 64 61 58 63
2749 4 65 61 58 55
2750 6 65 61 58 62
2751 6 65 61 58 63
2752 4 66 61 58 55
2753 6 66 61 58 62
2754 6 66 61 58 63
2755 7 840 837 834 830
2756 4 840 837 834 838
2757 4 840 837 834 839
2758 4 841 837 834 830
2759 6 841 837 834 838
2760 6 841 837 834 839
2761 4 842 837 834 830
2762 6 842 837 834 838
2763 6 842 837 834 839
2764 3 837 834 830 829
2765 4 837 834 830 835
2766 4 837 834 830 836
2767 5 838 834 830 829
2768 6 838 834 830 835
2769 6 838 834 830 836
2770 5 839 834 830 829
2771 6 839 834 830 835
2772 6 839 834 830 836
2773 7 846 843 840 837
2774 4 846 843 840 844
2775 4 846 843 840 845
2776 4 847 843 840 837
2777 6 847 843 840 844
2778 6 847 843 840 845
2779 4 848 843 840 837
2780 6 848 843 840 844
2781 6 848 843 840 845
2782 7 889 886 883 880
2783 4 889 886 883 887
2784 4 889 886 883 888
2785 4 890 886 883 880
2786 6 890 886 883 887
2787 6 890 886 883 888
2788 4 891 886 883 880
2789 6 891 886 883 887
2790 6 891 886 883 888
2791 7 886 883 880 876
2792 4 886 883 880 884
2793 4 886 883 880 885
2794 4 887 883 880 876
2795 6 887 883 880 884
2796 6 887 883 880 885
2797 4 888 883 880 876
2798 6 888 883 880 884
2799 6 888 883 880 885
2800 4 849 846 843 840
2801 6 849 846 843 847
2802 6 849 846 843 848
2803 4 850 846 843 840
2804 6 850 846 843 847
2805 6 850 846 843 848
2806 4 851 846 843 840
2807 6 851 846 843 847
2808 6 851 846 843 848
2809 12 2231 2232 2230 2233
2810 7 978 975 972 968
2811 4 978 975 972 976
2812 4 978 975 972 977
2813 4 979 975 972 968
2814 6 979 975 972 976
2815 6 979 975 972 977
2816 4 980 975 972 968
2817 6 980 975 972 976
2818 6 980 975 972 977
2819 3 975 972 968 967
2820 4 975 972 968 973
2821 4 975 972 968 974
2822 5 976 972 968 967
2823 6 976 972 968 973
2824 6 976 972 968 974
2825 5 977 972 968 967
2826 6 977 972 968 973
2827 6 977 972 968 974
2828 7 984 981 978 975
2829 4 984 981 978 982
2830 4 984 981 978 983
2831 4 985 981 978 975
2832 6 985 981 978 982
2833 6 985 981 978 983
2834 4 986 981 978 975
2835 6 986 981 978 982
2836 6 986 981 978 983
2837 7 981 978 975 972
2838 4 981 978 975 979
2839 4 981 978 975 980
2840 4 982 978 975 972
2841 6 982 978 975 979
2842 6 982 978 975 980
2843 4 983 978 975 972
2844 6 983 978 975 979
2845 6 983 978 975 980
2846 7 1168 1165 1162 1159
2847 4 1168 1165 1162 1166
2848 4 1168 1165 1162 1167
2849 4 1169 1165 1162 1159
2850 6 1169 1165 1162 1166
2851 6 1169 1165 1162 1167
2852 4 1170 1165 1162 1159
2853 6 1170 1165 1162 1166
2854 6 1170 1165 1162 1167
2855 4 987 984 981 978
2856 6 987 984 981 985
2857 6 987 984 981 986
2858 4 988 984 981 978
2859 6 988 984 981 985
2860 6 988 984 981 986
2861 4 989 984 981 978
2862 6 989 984 981 985
2863 6 989 984 981 986
2864 3 285 282 278 277
2865 4 285 282 278 283
2866 4 285 282 278 284
2867 5 286 282 278 277
2868 6 286 282 278 283
2869 6 286 282 278 284
2870 5 287 282 278 277
2871 6 287 282 278 283
2872 6 287 282 278 284
2873 7 288 285 282 278
2874 4 288 285 282 286
2875 4 288 285 282 287
2876 4 289 285 282 278
2877 6 289 285 282 286
2878 6 289 285 282 287
2879 4 290 285 282 278
2880 6 290 285 282 286
2881 6 290 285 282 287
2882 7 291 288 285 282
2883 4 291 288 285 289
2884 4 291 288 285 290
2885 4 292 288 285 282
2886 6 292 288 285 289
2887 6 292 288 285 290
2888 4 293 288 285 282
2889 6 293 288 285 289
2890 6 293 288 285 290
2891 7 1165 1162 1159 1156
2892 4 1165 1162 1159 1163
2893 4 1165 1162 1159 1164
2894 4 1166 1162 1159 1156
2895 6 1166 1162 1159 1163
2896 6 1166 1162 1159 1164
2897 4 1167 1162 1159 1156
2898 6 1167 1162 1159 1163
2899 6 1167 1162 1159 1164
2900 7 1171 1168 1165 1162
2901 4 1171 1168 1165 1169
2902 4 1171 1168 1165 1170
2903 4 1172 1168 1165 1162
2904 6 1172 1168 1165 1169
2905 6 1172 1168 1165 1170
2906 4 1173 1168 1165 1162
2907 6 1173 1168 1165 1169
2908 6 1173 1168 1165 1170
2909 7 1174 1171 1168 1165
2910 4 1174 1171 1168 1172
2911 4 1174 1171 1168 1173
2912 4 1175 1171 1168 1165
2913 6 1175 1171 1168 1172
2914 6 1175 1171 1168 1173
2915 4 1176 1171 1168 1165
2916 6 1176 1171 1168 1172
2917 6 1176 1171 1168 1173
2918 4 297 294 291 288
2919 6 297 294 291 295
2920 6 297 294 291 296
2921 4 298 294 291 288
2922 6 298 294 291 295
2923 6 298 294 291 296
2924 4 299 294 291 288
2925 6 299 294 291 295
2926 6 299 294 291 296
2927 10 1162 1159 1156 1155
2928 4 1162 1159 1156 1160
2929 4 1162 1159 1156 1161
2930 11 1163 1159 1156 1155
2931 6 1163 1159 1156 1160
2932 6 1163 1159 1156 1161
2933 11 1164 1159 1156 1155
2934 6 1164 1159 1156 1160
2935 6 1164 1159 1156 1161
2936 7 41 38 35 32
2937 4 41 38 35 39
2938 4 41 38 35 40
2939 4 42 38 35 32
2940 6 42 38 35 39
2941 6 42 38 35 40
2942 4 43 38 35 32
2943 6 43 38 35 39
2944 6 43 38 35 40
2945 7 633 630 627 623
2946 4 633 630 627 631
2947 4 633 630 627 632
2948 4 634 630 627 623
2949 6 634 630 627 631
2950 6 634 630 627 632
2951 4 635 630 627 623
2952 6 635 630 627 631
2953 6 635 630 627 632
2954 4 44 41 38 35
2955 6 44 41 38 42
2956 6 44 41 38 43
2957 4 45 41 38 35
2958 6 45 41 38 42
2959 6 45 41 38 43
2960 4 46 41 38 35
2961 6 46 41 38 42
2962 6 46 41 38 43
2963 7 294 291 288 285
2964 4 294 291 288 292
2965 4 294 291 288 293
2966 4 295 291 288 285
2967 6 295 291 288 292
2968 6 295 291 288 293
2969 4 296 291 288 285
2970 6 296 291 288 292
2971 6 296 291 288 293
2972 4 435 432 429 426
2973 6 435 432 429 433
2974 6 435 432 429 434
2975 4 436 432 429 426
2976 6 436 432 429 433
2977 6 436 432 429 434
2978 4 437 432 429 426
2979 6 437 432 429 433
2980 6 437 432 429 434
2981 7 432 429 426 423
2982 4 432 429 426 430
2983 4 432 429 426 431
2984 4 433 429 426 423
2985 6 433 429 426 430
2986 6 433 429 426 431
2987 4 434 429 426 423
2988 6 434 429 426 430
2989 6 434 429 426 431
2990 7 636 633 630 627
2991 4 636 633 630 634
2992 4 636 633 630 635
2993 4 637 633 630 627
2994 6 637 633 630 634
2995 6 637 633 630 635
2996 4 638 633 630 627
2997 6 638 633 630 634
2998 6 638 633 630 635
2999 7 639 636 633 630
3000 4 639 636 633 637
3001 4 639 636 633 638
3002 4 640 636 633 630
3003 6 640 636 633 637
3004 6 640 636 633 638
3005 4 641 636 633 630
3006 6 641 636 633 637
3007 6 641 636 633 638
3008 7 38 35 32 29
3009 4 38 35 32 36
3010 4 38 35 32 37
3011 4 39 35 32 29
3012 6 39 35 32 36
3013 6 39 35 32 37
3014 4 40 35 32 29
3015 6 40 35 32 36
3016 6 40 35 32 37
3017 4 2302 2299 2296 2293
3018 6 2302 2299 2296 2300
3019 6 2302 2299 2296 2301
3020 4 2303 2299 2296 2293
3021 6 2303 2299 2296 2300
3022 6 2303 2299 2296 2301
3023 4 2304 2299 2296 2293
3024 6 2304 2299 2296 2300
3025 6 2304 2299 2296 2301
3026 7 2299 2296 2293 2290
3027 4 2299 2296 2293 2297
3028 4 2299 2296 2293 2298
3029 4 2300 2296 2293 2290
3030 6 2300 2296 2293 2297
3031 6 2300 2296 2293 2298
3032 4 2301 2296 2293 2290
3033 6 2301 2296 2293 2297
3034 6 2301 2296 2293 2298
3035 7 2296 2293 2290 2287
3036 4 2296 2293 2290 2294
3037 4 2296 2293 2290 2295
3038 4 2297 2293 2290 2287
3039 6 2297 2293 2290 2294
3040 6 2297 2293 2290 2295
3041 4 2298 2293 2290 2287
3042 6 2298 2293 2290 2294
3043 6 2298 2293 2290 2295
3044 12 1806 1807 1805 1808
3045 7 337 334 331 328
3046 4 337 334 331 335
3047 4 337 334 331 336
3048 4 338 334 331 328
3049 6 338 334 331 335
3050 6 338 334 331 336
3051 4 339 334 331 328
3052 6 339 334 331 335
3053 6 339 334 331 336
3054 7 334 331 328 324
3055 4 334 331 328 332
3056 4 334 331 328 333
3057 4 335 331 328 324
3058 6 335 331 328 332
3059 6 335 331 328 333
3060 4 336 331 328 324
3061 6 336 331 328 332
3062 6 336 331 328 333
3063 3 331 328 324 323
3064 4 331 328 324 329
3065 4 331 328 324 330
3066 5 332 328 324 323
3067 6 332 328 324 329
3068 6 332 328 324 330
3069 5 333 328 324 323
3070 6 333 328 324 329
3071 6 333 328 324 330
3072 1 328 324 323 325
3073 1 328 324 323 326
3074 1 328 324 323 327
3075 2 329 324 323 325
3076 2 329 324 323 326
3077 2 329 324 323 327
3078 2 330 324 323 325
3079 2 330 324 323 326
3080 2 330 324 323 327
3081 1 29 25 24 26
3082 1 29 25 24 27
3083 1 29 25 24 28
3084 2 30 25 24 26
3085 2 30 25 24 27
3086 2 30 25 24 28
3087 2 31 25 24 26
3088 2 31 25 24 27
3089 2 31 25 24 28
3090 3 32 29 25 24
3091 4 32 29 25 30
3092 4 32 29 25 31
3093 5 33 29 25 24
3094 6 33 29 25 30
3095 6 33 29 25 31
3096 5 34 29 25 24
3097 6 34 29 25 30
3098 6 34 29 25 31
3099 12 1556 1557 1555 1558
3100 3 883 880 876 875
3101 4 883 880 876 881
3102 4 883 880 876 882
3103 5 884 880 876 875
3104 6 884 880 876 881
3105 6 884 880 876 882
3106 5 885 880 876 875
3107 6 885 880 876 881
3108 6 885 880 876 882
3109 4 458 455 452 449
3110 6 458 455 452 456
3111 6 458 455 452 457
3112 4 459 455 452 449
3113 6 459 455 452 456
3114 6 459 455 452 457
3115 4 460 455 452 449
3116 6 460 455 452 456
3117 6 460 455 452 457
3118 1 880 876 875 877
3119 1 880 876 875 878
3120 1 880 876 875 879
3121 2 881 876 875 877
3122 2 881 876 875 878
3123 2 881 876 875 879
3124 2 882 876 875 877
3125 2 882 876 875 878
3126 2 882 876 875 879
3127 12 1406 1407 1405 1408
3128 8 1409 1406 1405 1407
3129 8 1409 1406 1405 1408
3130 9 1410 1406 1405 1407
3131 9 1410 1406 1405 1408
3132 9 1411 1406 1405 1407
3133 9 1411 1406 1405 1408
3134 10 1412 1409 1406 1405
3135 4 1412 1409 1406 1410
3136 4 1412 1409 1406 1411
3137 11 1413 1409 1406 1405
3138 6 1413 1409 1406 1410
3139 6 1413 1409 1406 1411
3140 11 1414 1409 1406 1405
3141 6 1414 1409 1406 1410
3142 6 1414 1409 1406 1411
3143 4 803 800 797 794
3144 6 803 800 797 801
3145 6 803 800 797 802
3146 4 804 800 797 794
3147 6 804 800 797 801
3148 6 804 800 797 802
3149 4 805 800 797 794
3150 6 805 800 797 801
3151 6 805 800 797 802
3152 1 6 2 1 3
3153 1 6 2 1 4
3154 1 6 2 1 5
3155 2 7 2 1 3
3156 2 7 2 1 4
3157 2 7 2 1 5
3158 2 8 2 1 3
3159 2 8 2 1 4
3160 2 8 2 1 5
3161 3 9 6 2 1
3162 4 9 6 2 7
3163 4 9 6 2 8
3164 5 10 6 2 1
3165 6 10 6 2 7
3166 6 10 6 2 8
3167 5 11 6 2 1
3168 6 11 6 2 7
3169 6 11 6 2 8
3170 7 800 797 794 791
3171 4 800 797 794 798
3172 4 800 797 794 799
3173 4 801 797 794 791
3174 6 801 797 794 798
3175 6 801 797 794 799
3176 4 802 797 794 791
3177 6 802 797 794 798
3178 6 802 797 794 799
3179 4 1177 1174 1171 1168
3180 6 1177 1174 1171 1175
3181 6 1177 1174 1171 1176
3182 4 1178 1174 1171 1168
3183 6 1178 1174 1171 1175
3184 6 1178 1174 1171 1176
3185 4 1179 1174 1171 1168
3186 6 1179 1174 1171 1175
3187 6 1179 1174 1171 1176
3188 4 1352 1349 1346 1343
3189 6 1352 1349 1346 1350
3190 6 1352 1349 1346 1351
3191 4 1353 1349 1346 1343
3192 6 1353 1349 1346 1350
3193 6 1353 1349 1346 1351
3194 4 1354 1349 1346 1343
3195 6 1354 1349 1346 1350
3196 6 1354 1349 1346 1351
3197 7 1121 1118 1115 1112
3198 4 1121 1118 1115 1119
3199 4 1121 1118 1115 1120
3200 4 1122 1118 1115 1112
3201 6 1122 1118 1115 1119
3202 6 1122 1118 1115 1120
3203 4 1123 1118 1115 1112
3204 6 1123 1118 1115 1119
3205 6 1123 1118 1115 1120
3206 7 570 567 564 561
3207 4 570 567 564 568
3208 4 570 567 564 569
3209 4 571 567 564 561
3210 6 571 567 564 568
3211 6 571 567 564 569
3212 4 572 567 564 561
3213 6 572 567 564 568
3214 6 572 567 564 569
3215 4 573 570 567 564
3216 6 573 570 567 571
3217 6 573 570 567 572
3218 4 574 570 567 564
3219 6 574 570 567 571
3220 6 574 570 567 572
3221 4 575 570 567 564
3222 6 575 570 567 571
3223 6 575 570 567 572
3224 4 1127 1124 1121 1118
3225 6 1127 1124 1121 1125
3226 6 1127 1124 1121 1126
3227 4 1128 1124 1121 1118
3228 6 1128 1124 1121 1125
3229 6 1128 1124 1121 1126
3230 4 1129 1124 1121 1118
3231 6 1129 1124 1121 1125
3232 6 1129 1124 1121 1126
3233 7 1124 1121 1118 1115
3234 4 1124 1121 1118 1122
3235 4 1124 1121 1118 1123
3236 4 1125 1121 1118 1115
3237 6 1125 1121 1118 1122
3238 6 1125 1121 1118 1123
3239 4 1126 1121 1118 1115
3240 6 1126 1121 1118 1122
3241 6 1126 1121 1118 1123
3242 7 1349 1346 1343 1340
3243 4 1349 1346 1343 1347
3244 4 1349 1346 1343 1348
3245 4 1350 1346 1343 1340
3246 6 1350 1346 1343 1347
3247 6 1350 1346 1343 1348
3248 4 1351 1346 1343 1340
3249 6 1351 1346 1343 1347
3250 6 1351 1346 1343 1348
3251 7 1921 1918 1915 1912
3252 4 1921 1918 1915 1919
3253 4 1921 1918 1915 1920
3254 4 1922 1918 1915 1912
3255 6 1922 1918 1915 1919
3256 6 1922 1918 1915 1920
3257 4 1923 1918 1915 1912
3258 6 1923 1918 1915 1919
3259 6 1923 1918 1915 1920
3260 7 1118 1115 1112 1109
3261 4 1118 1115 1112 1116
3262 4 1118 1115 1112 1117
3263 4 1119 1115 1112 1109
3264 6 1119 1115 1112 1116
3265 6 1119 1115 1112 1117
3266 4 1120 1115 1112 1109
3267 6 1120 1115 1112 1116
3268 6 1120 1115 1112 1117
3269 7 2293 2290 2287 2284
3270 4 2293 2290 2287 2291
3271 4 2293 2290 2287 2292
3272 4 2294 2290 2287 2284
3273 6 2294 2290 2287 2291
3274 6 2294 2290 2287 2292
3275 4 2295 2290 2287 2284
3276 6 2295 2290 2287 2291
3277 6 2295 2290 2287 2292
3278 7 1115 1112 1109 1106
3279 4 1115 1112 1109 1113
3280 4 1115 1112 1109 1114
3281 4 1116 1112 1109 1106
3282 6 1116 1112 1109 1113
3283 6 1116 1112 1109 1114
3284 4 1117 1112 1109 1106
3285 6 1117 1112 1109 1113
3286 6 1117 1112 1109 1114
3287 8 1109 1106 1105 1107
3288 8 1109 1106 1105 1108
3289 9 1110 1106 1105 1107
3290 9 1110 1106 1105 1108
3291 9 1111 1106 1105 1107
3292 9 1111 1106 1105 1108
3293 10 1112 1109 1106 1105
3294 4 1112 1109 1106 1110
3295 4 1112 1109 1106 1111
3296 11 1113 1109 1106 1105
3297 6 1113 1109 1106 1110
3298 6 1113 1109 1106 1111
3299 11 1114 1109 1106 1105
3300 6 1114 1109 1106 1110
3301 6 1114 1109 1106 1111
3302 7 2290 2287 2284 2281
3303 4 2290 2287 2284 2288
3304 4 2290 2287 2284 2289
3305 4 2291 2287 2284 2281
3306 6 2291 2287 2284 2288
3307 6 2291 2287 2284 2289
3308 4 2292 2287 2284 2281
3309 6 2292 2287 2284 2288
3310 6 2292 2287 2284 2289
3311 10 2287 2284 2281 2280
3312 4 2287 2284 2281 2285
3313 4 2287 2284 2281 2286
3314 11 2288 2284 2281 2280
3315 6 2288 2284 2281 2285
3316 6 2288 2284 2281 2286
3317 11 2289 2284 2281 2280
3318 6 2289 2284 2281 2285
3319 6 2289 2284 2281 2286
3320 8 2284 2281 2280 2282
3321 8 2284 2281 2280 2283
3322 9 2285 2281 2280 2282
3323 9 2285 2281 2280 2283
3324 9 2286 2281 2280 2282
3325 9 2286 2281 2280 2283
3326 12 1106 1107 1105 1108
3327 12 2281 2282 2280 2283
3328 7 1027 1024 1021 1018
3329 4 1027 1024 1021 1025
3330 4 1027 1024 1021 1026
3331 4 1028 1024 1021 1018
3332 6 1028 1024 1021 1025
3333 6 1028 1024 1021 1026
3334 4 1029 1024 1021 1018
3335 6 1029 1024 1021 1025
3336 6 1029 1024 1021 1026
3337 7 1030 1027 1024 1021
3338 4 1030 1027 1024 1028
3339 4 1030 1027 1024 1029
3340 4 1031 1027 1024 1021
3341 6 1031 1027 1024 1028
3342 6 1031 1027 1024 1029
3343 4 1032 1027 1024 1021
3344 6 1032 1027 1024 1028
3345 6 1032 1027 1024 1029
3346 3 1021 1018 1014 1013
3347 4 1021 1018 1014 1019
3348 4 1021 1018 1014 1020
3349 5 1022 1018 1014 1013
3350 6 1022 1018 1014 1019
3351 6 1022 1018 1014 1020
3352 5 1023 1018 1014 1013
3353 6 1023 1018 1014 1019
3354 6 1023 1018 1014 1020
3355 7 1024 1021 1018 1014
3356 4 1024 1021 1018 1022
3357 4 1024 1021 1018 1023
3358 4 1025 1021 1018 1014
3359 6 1025 1021 1018 1022
3360 6 1025 1021 1018 1023
3361 4 1026 1021 1018 1014
3362 6 1026 1021 1018 1022
3363 6 1026 1021 1018 1023
3364 1 1018 1014 1013 1015
3365 1 1018 1014 1013 1016
3366 1 1018 1014 1013 1017
3367 2 1019 1014 1013 1015
3368 2 1019 1014 1013 1016
3369 2 1019 1014 1013 1017
3370 2 1020 1014 1013 1015
3371 2 1020 1014 1013 1016
3372 2 1020 1014 1013 1017
3373 8 1559 1556 1555 1557
3374 8 1559 1556 1555 1558
3375 9 1560 1556 1555 1557
3376 9 1560 1556 1555 1558
3377 9 1561 1556 1555 1557
3378 9 1561 1556 1555 1558
3379 10 1562 1559 1556 1555
3380 4 1562 1559 1556 1560
3381 4 1562 1559 1556 1561
3382 11 1563 1559 1556 1555
3383 6 1563 1559 1556 1560
3384 6 1563 1559 1556 1561
3385 11 1564 1559 1556 1555
3386 6 1564 1559 1556 1560
3387 6 1564 1559 1556 1561
3388 1 903 899 898 900
3389 1 903 899 898 901
3390 1 903 899 898 902
3391 2 904 899 898 900
3392 2 904 899 898 901
3393 2 904 899 898 902
3394 2 905 899 898 900
3395 2 905 899 898 901
3396 2 905 899 898 902
3397 3 906 903 899 898
3398 4 906 903 899 904
3399 4 906 903 899 905
3400 5 907 903 899 898
3401 6 907 903 899 904
3402 6 907 903 899 905
3403 5 908 903 899 898
3404 6 908 903 899 904
3405 6 908 903 899 905
3406 7 1565 1562 1559 1556
3407 4 1565 1562 1559 1563
3408 4 1565 1562 1559 1564
3409 4 1566 1562 1559 1556
3410 6 1566 1562 1559 1563
3411 6 1566 1562 1559 1564
3412 4 1567 1562 1559 1556
3413 6 1567 1562 1559 1563
3414 6 1567 1562 1559 1564
3415 7 1571 1568 1565 1562
3416 4 1571 1568 1565 1569
3417 4 1571 1568 1565 1570
3418 4 1572 1568 1565 1562
3419 6 1572 1568 1565 1569
3420 6 1572 1568 1565 1570
3421 4 1573 1568 1565 1562
3422 6 1573 1568 1565 1569
3423 6 1573 1568 1565 1570
3424 7 1568 1565 1562 1559
3425 4 1568 1565 1562 1566
3426 4 1568 1565 1562 1567
3427 4 1569 1565 1562 1559
3428 6 1569 1565 1562 1566
3429 6 1569 1565 1562 1567
3430 4 1570 1565 1562 1559
3431 6 1570 1565 1562 1566
3432 6 1570 1565 1562 1567
3433 7 909 906 903 899
3434 4 909 906 903 907
3435 4 909 906 903 908
3436 4 910 906 903 899
3437 6 910 906 903 907
3438 6 910 906 903 908
3439 4 911 906 903 899
3440 6 911 906 903 907
3441 6 911 906 903 908
3442 7 1574 1571 1568 1565
3443 4 1574 1571 1568 1572
3444 4 1574 1571 1568 1573
3445 4 1575 1571 1568 1565
3446 6 1575 1571 1568 1572
3447 6 1575 1571 1568 1573
3448 4 1576 1571 1568 1565
3449 6 1576 1571 1568 1572
3450 6 1576 1571 1568 1573
3451 7 912 909 906 903
3452 4 912 909 906 910
3453 4 912 909 906 911
3454 4 913 909 906 903
3455 6 913 909 906 910
3456 6 913 909 906 911
3457 4 914 909 906 903
3458 6 914 909 906 910
3459 6 914 909 906 911
3460 4 1577 1574 1571 1568
3461 6 1577 1574 1571 1575
3462 6 1577 1574 1571 1576
3463 4 1578 1574 1571 1568
3464 6 1578 1574 1571 1575
3465 6 1578 1574 1571 1576
3466 4 1579 1574 1571 1568
3467 6 1579 1574 1571 1575
3468 6 1579 1574 1571 1576
3469 7 915 912 909 906
3470 4 915 912 909 913
3471 4 915 912 909 914
3472 4 916 912 909 906
3473 6 916 912 909 913
3474 6 916 912 909 914
3475 4 917 912 909 906
3476 6 917 912 909 913
3477 6 917 912 909 914
3478 4 918 915 912 909
3479 6 918 915 912 916
3480 6 918 915 912 917
3481 4 919 915 912 909
3482 6 919 915 912 916
3483 6 919 915 912 917
3484 4 920 915 912 909
3485 6 920 915 912 916
3486 6 920 915 912 917
3487 4 688 685 682 679
3488 6 688 685 682 686
3489 6 688 685 682 687
3490 4 689 685 682 679
3491 6 689 685 682 686
3492 6 689 685 682 687
3493 4 690 685 682 679
3494 6 690 685 682 686
3495 6 690 685 682 687
3496 7 2199 2196 2193 2190
3497 4 2199 2196 2193 2197
3498 4 2199 2196 2193 2198
3499 4 2200 2196 2193 2190
3500 6 2200 2196 2193 2197
3501 6 2200 2196 2193 2198
3502 4 2201 2196 2193 2190
3503 6 2201 2196 2193 2197
3504 6 2201 2196 2193 2198
3505 7 2196 2193 2190 2187
3506 4 2196 2193 2190 2194
3507 4 2196 2193 2190 2195
3508 4 2197 2193 2190 2187
3509 6 2197 2193 2190 2194
3510 6 2197 2193 2190 2195
3511 4 2198 2193 2190 2187
3512 6 2198 2193 2190 2194
3513 6 2198 2193 2190 2195
3514 4 2202 2199 2196 2193
3515 6 2202 2199 2196 2200
3516 6 2202 2199 2196 2201
3517 4 2203 2199 2196 2193
3518 6 2203 2199 2196 2200
3519 6 2203 2199 2196 2201
3520 4 2204 2199 2196 2193
3521 6 2204 2199 2196 2200
3522 6 2204 2199 2196 2201
3523 7 2193 2190 2187 2184
3524 4 2193 2190 2187 2191
3525 4 2193 2190 2187 2192
3526 4 2194 2190 2187 2184
3527 6 2194 2190 2187 2191
3528 6 2194 2190 2187 2192
3529 4 2195 2190 2187 2184
3530 6 2195 2190 2187 2191
3531 6 2195 2190 2187 2192
3532 7 2190 2187 2184 2181
3533 4 2190 2187 2184 2188
3534 4 2190 2187 2184 2189
3535 4 2191 2187 2184 2181
3536 6 2191 2187 2184 2188
3537 6 2191 2187 2184 2189
3538 4 2192 2187 2184 2181
3539 6 2192 2187 2184 2188
3540 6 2192 2187 2184 2189
3541 4 2177 2174 2171 2168
3542 6 2177 2174 2171 2175
3543 6 2177 2174 2171 2176
3544 4 2178 2174 2171 2168
3545 6 2178 2174 2171 2175
3546 6 2178 2174 2171 2176
3547 4 2179 2174 2171 2168
3548 6 2179 2174 2171 2175
3549 6 2179 2174 2171 2176
3550 7 685 682 679 676
3551 4 685 682 679 683
3552 4 685 682 679 684
3553 4 686 682 679 676
3554 6 686 682 679 683
3555 6 686 682 679 684
3556 4 687 682 679 676
3557 6 687 682 679 683
3558 6 687 682 679 684
3559 7 2174 2171 2168 2165
3560 4 2174 2171 2168 2172
3561 4 2174 2171 2168 2173
3562 4 2175 2171 2168 2165
3563 6 2175 2171 2168 2172
3564 6 2175 2171 2168 2173
3565 4 2176 2171 2168 2165
3566 6 2176 2171 2168 2172
3567 6 2176 2171 2168 2173
3568 7 2171 2168 2165 2162
3569 4 2171 2168 2165 2169
3570 4 2171 2168 2165 2170
3571 4 2172 2168 2165 2162
3572 6 2172 2168 2165 2169
3573 6 2172 2168 2165 2170
3574 4 2173 2168 2165 2162
3575 6 2173 2168 2165 2169
3576 6 2173 2168 2165 2170
3577 7 679 676 673 669
3578 4 679 676 673 677
3579 4 679 676 673 678
3580 4 680 676 673 669
3581 6 680 676 673 677
3582 6 680 676 673 678
3583 4 681 676 673 669
3584 6 681 676 673 677
3585 6 681 676 673 678
3586 7 2168 2165 2162 2159
3587 4 2168 2165 2162 2166
3588 4 2168 2165 2162 2167
3589 4 2169 2165 2162 2159
3590 6 2169 2165 2162 2166
3591 6 2169 2165 2162 2167
3592 4 2170 2165 2162 2159
3593 6 2170 2165 2162 2166
3594 6 2170 2165 2162 2167
3595 7 682 679 676 673
3596 4 682 679 676 680
3597 4 682 679 676 681
3598 4 683 679 676 673
3599 6 683 679 676 680
3600 6 683 679 676 681
3601 4 684 679 676 673
3602 6 684 679 676 680
3603 6 684 679 676 681
3604 3 676 673 669 668
3605 4 676 673 669 674
3606 4 676 673 669 675
3607 5 677 673 669 668
3608 6 677 673 669 674
3609 6 677 673 669 675
3610 5 678 673 669 668
3611 6 678 673 669 674
3612 6 678 673 669 675
3613 4 1802 1799 1796 1793
3614 6 1802 1799 1796 1800
3615 6 1802 1799 1796 1801
3616 4 1803 1799 1796 1793
3617 6 1803 1799 1796 1800
3618 6 1803 1799 1796 1801
3619 4 1804 1799 1796 1793
3620 6 1804 1799 1796 1800
3621 6 1804 1799 1796 1801
3622 7 1974 1971 1968 1965
3623 4 1974 1971 1968 1972
3624 4 1974 1971 1968 1973
3625 4 1975 1971 1968 1965
3626 6 1975 1971 1968 1972
3627 6 1975 1971 1968 1973
3628 4 1976 1971 1968 1965
3629 6 1976 1971 1968 1972
3630 6 1976 1971 1968 1973
3631 4 1977 1974 1971 1968
3632 6 1977 1974 1971 1975
3633 6 1977 1974 1971 1976
3634 4 1978 1974 1971 1968
3635 6 1978 1974 1971 1975
3636 6 1978 1974 1971 1976
3637 4 1979 1974 1971 1968
3638 6 1979 1974 1971 1975
3639 6 1979 1974 1971 1976
3640 7 1799 1796 1793 1790
3641 4 1799 1796 1793 1797
3642 4 1799 1796 1793 1798
3643 4 1800 1796 1793 1790
3644 6 1800 1796 1793 1797
3645 6 1800 1796 1793 1798
3646 4 1801 1796 1793 1790
3647 6 1801 1796 1793 1797
3648 6 1801 1796 1793 1798
3649 7 12 9 6 2
3650 4 12 9 6 10
3651 4 12 9 6 11
3652 4 13 9 6 2
3653 6 13 9 6 10
3654 6 13 9 6 11
3655 4 14 9 6 2
3656 6 14 9 6 10
3657 6 14 9 6 11
3658 7 15 12 9 6
3659 4 15 12 9 13
3660 4 15 12 9 14
3661 4 16 12 9 6
3662 6 16 12 9 13
3663 6 16 12 9 14
3664 4 17 12 9 6
3665 6 17 12 9 13
3666 6 17 12 9 14
3667 7 18 15 12 9
3668 4 18 15 12 16
3669 4 18 15 12 17
3670 4 19 15 12 9
3671 6 19 15 12 16
3672 6 19 15 12 17
3673 4 20 15 12 9
3674 6 20 15 12 16
3675 6 20 15 12 17
3676 4 21 18 15 12
3677 6 21 18 15 19
3678 6 21 18 15 20
3679 4 22 18 15 12
3680 6 22 18 15 19
3681 6 22 18 15 20
3682 4 23 18 15 12
3683 6 23 18 15 19
3684 6 23 18 15 20
3685 4 1033 1030 1027 1024
3686 6 1033 1030 1027 1031
3687 6 1033 1030 1027 1032
3688 4 1034 1030 1027 1024
3689 6 1034 1030 1027 1031
3690 6 1034 1030 1027 1032
3691 4 1035 1030 1027 1024
3692 6 1035 1030 1027 1031
3693 6 1035 1030 1027 1032
3694 7 1924 1921 1918 1915
3695 4 1924 1921 1918 1922
3696 4 1924 1921 1918 1923
3697 4 1925 1921 1918 1915
3698 6 1925 1921 1918 1922
3699 6 1925 1921 1918 1923
3700 4 1926 1921 1918 1915
3701 6 1926 1921 1918 1922
3702 6 1926 1921 1918 1923
3703 4 1927 1924 1921 1918
3704 6 1927 1924 1921 1925
3705 6 1927 1924 1921 1926
3706 4 1928 1924 1921 1918
3707 6 1928 1924 1921 1925
3708 6 1928 1924 1921 1926
3709 4 1929 1924 1921 1918
3710 6 1929 1924 1921 1925
3711 6 1929 1924 1921 1926
3712 7 1971 1968 1965 1962
3713 4 1971 1968 1965 1969
3714 4 1971 1968 1965 1970
3715 4 1972 1968 1965 1962
3716 6 1972 1968 1965 1969
3717 6 1972 1968 1965 1970
3718 4 1973 1968 1965 1962
3719 6 1973 1968 1965 1969
3720 6 1973 1968 1965 1970
3721 7 777 774 771 768
3722 4 777 774 771 775
3723 4 777 774 771 776
3724 4 778 774 771 768
3725 6 778 774 771 775
3726 6 778 774 771 776
3727 4 779 774 771 768
3728 6 779 774 771 775
3729 6 779 774 771 776
3730 7 1399 1396 1393 1390
3731 4 1399 1396 1393 1397
3732 4 1399 1396 1393 1398
3733 4 1400 1396 1393 1390
3734 6 1400 1396 1393 1397
3735 6 1400 1396 1393 1398
3736 4 1401 1396 1393 1390
3737 6 1401 1396 1393 1397
3738 6 1401 1396 1393 1398
3739 4 1402 1399 1396 1393
3740 6 1402 1399 1396 1400
3741 6 1402 1399 1396 1401
3742 4 1403 1399 1396 1393
3743 6 1403 1399 1396 1400
3744 6 1403 1399 1396 1401
3745 4 1404 1399 1396 1393
3746 6 1404 1399 1396 1400
3747 6 1404 1399 1396 1401
3748 7 1393 1390 1387 1384
3749 4 1393 1390 1387 1391
3750 4 1393 1390 1387 1392
3751 4 1394 1390 1387 1384
3752 6 1394 1390 1387 1391
3753 6 1394 1390 1387 1392
3754 4 1395 1390 1387 1384
3755 6 1395 1390 1387 1391
3756 6 1395 1390 1387 1392
3757 7 1390 1387 1384 1381
3758 4 1390 1387 1384 1388
3759 4 1390 1387 1384 1389
3760 4 1391 1387 1384 1381
3761 6 1391 1387 1384 1388
3762 6 1391 1387 1384 1389
3763 4 1392 1387 1384 1381
3764 6 1392 1387 1384 1388
3765 6 1392 1387 1384 1389
3766 7 1396 1393 1390 1387
3767 4 1396 1393 1390 1394
3768 4 1396 1393 1390 1395
3769 4 1397 1393 1390 1387
3770 6 1397 1393 1390 1394
3771 6 1397 1393 1390 1395
3772 4 1398 1393 1390 1387
3773 6 1398 1393 1390 1394
3774 6 1398 1393 1390 1395
3775 7 751 748 745 742
3776 4 751 748 745 749
3777 4 751 748 745 750
3778 4 752 748 745 742
3779 6 752 748 745 749
3780 6 752 748 745 750
3781 4 753 748 745 742
3782 6 753 748 745 749
3783 6 753 748 745 750
3784 7 754 751 748 745
3785 4 754 751 748 752
3786 4 754 751 748 753
3787 4 755 751 748 745
3788 6 755 751 748 752
3789 6 755 751 748 753
3790 4 756 751 748 745
3791 6 756 751 748 752
3792 6 756 751 748 753
3793 1 1041 1037 1036 1038
3794 1 1041 1037 1036 1039
3795 1 1041 1037 1036 1040
3796 2 1042 1037 1036 1038
3797 2 1042 1037 1036 1039
3798 2 1042 1037 1036 1040
3799 2 1043 1037 1036 1038
3800 2 1043 1037 1036 1039
3801 2 1043 1037 1036 1040
3802 7 1047 1044 1041 1037
3803 4 1047 1044 1041 1045
3804 4 1047 1044 1041 1046
3805 4 1048 1044 1041 1037
3806 6 1048 1044 1041 1045
3807 6 1048 1044 1041 1046
3808 4 1049 1044 1041 1037
3809 6 1049 1044 1041 1045
3810 6 1049 1044 1041 1046
3811 3 1044 1041 1037 1036
3812 4 1044 1041 1037 1042
3813 4 1044 1041 1037 1043
3814 5 1045 1041 1037 1036
3815 6 1045 1041 1037 1042
3816 6 1045 1041 1037 1043
3817 5 1046 1041 1037 1036
3818 6 1046 1041 1037 1042
3819 6 1046 1041 1037 1043
3820 7 1050 1047 1044 1041
3821 4 1050 1047 1044 1048
3822 4 1050 1047 1044 1049
3823 4 1051 1047 1044 1041
3824 6 1051 1047 1044 1048
3825 6 1051 1047 1044 1049
3826 4 1052 1047 1044 1041
3827 6 1052 1047 1044 1048
3828 6 1052 1047 1044 1049
3829 7 222 219 216 213
3830 4 222 219 216 220
3831 4 222 219 216 221
3832 4 223 219 216 213
3833 6 223 219 216 220
3834 6 223 219 216 221
3835 4 224 219 216 213
3836 6 224 219 216 220
3837 6 224 219 216 221
3838 4 1327 1324 1321 1318
3839 6 1327 1324 1321 1325
3840 6 1327 1324 1321 1326
3841 4 1328 1324 1321 1318
3842 6 1328 1324 1321 1325
3843 6 1328 1324 1321 1326
3844 4 1329 1324 1321 1318
3845 6 1329 1324 1321 1325
3846 6 1329 1324 1321 1326
3847 7 1321 1318 1315 1312
3848 4 1321 1318 1315 1319
3849 4 1321 1318 1315 1320
3850 4 1322 1318 1315 1312
3851 6 1322 1318 1315 1319
3852 6 1322 1318 1315 1320
3853 4 1323 1318 1315 1312
3854 6 1323 1318 1315 1319
3855 6 1323 1318 1315 1320
3856 7 1324 1321 1318 1315
3857 4 1324 1321 1318 1322
3858 4 1324 1321 1318 1323
3859 4 1325 1321 1318 1315
3860 6 1325 1321 1318 1322
3861 6 1325 1321 1318 1323
3862 4 1326 1321 1318 1315
3863 6 1326 1321 1318 1322
3864 6 1326 1321 1318 1323
3865 7 1318 1315 1312 1309
3866 4 1318 1315 1312 1316
3867 4 1318 1315 1312 1317
3868 4 1319 1315 1312 1309
3869 6 1319 1315 1312 1316
3870 6 1319 1315 1312 1317
3871 4 1320 1315 1312 1309
3872 6 1320 1315 1312 1316
3873 6 1320 1315 1312 1317
3874 7 1315 1312 1309 1306
3875 4 1315 1312 1309 1313
3876 4 1315 1312 1309 1314
3877 4 1316 1312 1309 1306
3878 6 1316 1312 1309 1313
3879 6 1316 1312 1309 1314
3880 4 1317 1312 1309 1306
3881 6 1317 1312 1309 1313
3882 6 1317 1312 1309 1314
3883 7 219 216 213 209
3884 4 219 216 213 217
3885 4 219 216 213 218
3886 4 220 216 213 209
3887 6 220 216 213 217
3888 6 220 216 213 218
3889 4 221 216 213 209
3890 6 221 216 213 217
3891 6 221 216 213 218
3892 7 2165 2162 2159 2156
3893 4 2165 2162 2159 2163
3894 4 2165 2162 2159 2164
3895 4 2166 2162 2159 2156
3896 6 2166 2162 2159 2163
3897 6 2166 2162 2159 2164
3898 4 2167 2162 2159 2156
3899 6 2167 2162 2159 2163
3900 6 2167 2162 2159 2164
3901 10 2162 2159 2156 2155
3902 4 2162 2159 2156 2160
3903 4 2162 2159 2156 2161
3904 11 2163 2159 2156 2155
3905 6 2163 2159 2156 2160
3906 6 2163 2159 2156 2161
3907 11 2164 2159 2156 2155
3908 6 2164 2159 2156 2160
3909 6 2164 2159 2156 2161
3910 1 213 209 208 210
3911 1 213 209 208 211
3912 1 213 209 208 212
3913 2 214 209 208 210
3914 2 214 209 208 211
3915 2 214 209 208 212
3916 2 215 209 208 210
3917 2 215 209 208 211
3918 2 215 209 208 212
3919 3 216 213 209 208
3920 4 216 213 209 214
3921 4 216 213 209 215
3922 5 217 213 209 208
3923 6 217 213 209 214
3924 6 217 213 209 215
3925 5 218 213 209 208
3926 6 218 213 209 214
3927 6 218 213 209 215
3928 10 1312 1309 1306 1305
3929 4 1312 1309 1306 1310
3930 4 1312 1309 1306 1311
3931 11 1313 1309 1306 1305
3932 6 1313 1309 1306 1310
3933 6 1313 1309 1306 1311
3934 11 1314 1309 1306 1305
3935 6 1314 1309 1306 1310
3936 6 1314 1309 1306 1311
3937 12 2156 2157 2155 2158
3938 8 2159 2156 2155 2157
3939 8 2159 2156 2155 2158
3940 9 2160 2156 2155 2157
3941 9 2160 2156 2155 2158
3942 9 2161 2156 2155 2157
3943 9 2161 2156 2155 2158
3944 1 282 278 277 279
3945 1 282 278 277 280
3946 1 282 278 277 281
3947 2 283 278 277 279
3948 2 283 278 277 280
3949 2 283 278 277 281
3950 2 284 278 277 279
3951 2 284 278 277 280
3952 2 284 278 277 281
3953 7 1965 1962 1959 1956
3954 4 1965 1962 1959 1963
3955 4 1965 1962 1959 1964
3956 4 1966 1962 1959 1956
3957 6 1966 1962 1959 1963
3958 6 1966 1962 1959 1964
3959 4 1967 1962 1959 1956
3960 6 1967 1962 1959 1963
3961 6 1967 1962 1959 1964
3962 7 1968 1965 1962 1959
3963 4 1968 1965 1962 1966
3964 4 1968 1965 1962 1967
3965 4 1969 1965 1962 1959
3966 6 1969 1965 1962 1966
3967 6 1969 1965 1962 1967
3968 4 1970 1965 1962 1959
3969 6 1970 1965 1962 1966
3970 6 1970 1965 1962 1967
3971 1 972 968 967 969
3972 1 972 968 967 970
3973 1 972 968 967 971
3974 2 973 968 967 969
3975 2 973 968 967 970
3976 2 973 968 967 971
3977 2 974 968 967 969
3978 2 974 968 967 970
3979 2 974 968 967 971
3980 10 1962 1959 1956 1955
3981 4 1962 1959 1956 1960
3982 4 1962 1959 1956 1961
3983 11 1963 1959 1956 1955
3984 6 1963 1959 1956 1960
3985 6 1963 1959 1956 1961
3986 11 1964 1959 1956 1955
3987 6 1964 1959 1956 1960
3988 6 1964 1959 1956 1961
3989 12 1156 1157 1155 1158
3990 12 2106 2107 2105 2108
3991 8 1959 1956 1955 1957
3992 8 1959 1956 1955 1958
3993 9 1960 1956 1955 1957
3994 9 1960 1956 1955 1958
3995 9 1961 1956 1955 1957
3996 9 1961 1956 1955 1958
3997 8 2109 2106 2105 2107
3998 8 2109 2106 2105 2108
3999 9 2110 2106 2105 2107
4000 9 2110 2106 2105 2108
4001 9 2111 2106 2105 2107
4002 9 2111 2106 2105 2108
4003 10 2112 2109 2106 2105
4004 4 2112 2109 2106 2110
4005 4 2112 2109 2106 2111
4006 11 2113 2109 2106 2105
4007 6 2113 2109 2106 2110
4008 6 2113 2109 2106 2111
4009 11 2114 2109 2106 2105
4010 6 2114 2109 2106 2110
4011 6 2114 2109 2106 2111
4012 7 2115 2112 2109 2106
4013 4 2115 2112 2109 2113
4014 4 2115 2112 2109 2114
4015 4 2116 2112 2109 2106
4016 6 2116 2112 2109 2113
4017 6 2116 2112 2109 2114
4018 4 2117 2112 2109 2106
4019 6 2117 2112 2109 2113
4020 6 2117 2112 2109 2114
4021 7 2118 2115 2112 2109
4022 4 2118 2115 2112 2116
4023 4 2118 2115 2112 2117
4024 4 2119 2115 2112 2109
4025 6 2119 2115 2112 2116
4026 6 2119 2115 2112 2117
4027 4 2120 2115 2112 2109
4028 6 2120 2115 2112 2116
4029 6 2120 2115 2112 2117
4030 3 630 627 623 622
4031 4 630 627 623 628
4032 4 630 627 623 629
4033 5 631 627 623 622
4034 6 631 627 623 628
4035 6 631 627 623 629
4036 5 632 627 623 622
4037 6 632 627 623 628
4038 6 632 627 623 629
4039 12 1931 1932 1930 1933
4040 8 1934 1931 1930 1932
4041 8 1934 1931 1930 1933
4042 9 1935 1931 1930 1932
4043 9 1935 1931 1930 1933
4044 9 1936 1931 1930 1932
4045 9 1936 1931 1930 1933
4046 10 1937 1934 1931 1930
4047 4 1937 1934 1931 1935
4048 4 1937 1934 1931 1936
4049 11 1938 1934 1931 1930
4050 6 1938 1934 1931 1935
4051 6 1938 1934 1931 1936
4052 11 1939 1934 1931 1930
4053 6 1939 1934 1931 1935
4054 6 1939 1934 1931 1936
4055 7 1940 1937 1934 1931
4056 4 1940 1937 1934 1938
4057 4 1940 1937 1934 1939
4058 4 1941 1937 1934 1931
4059 6 1941 1937 1934 1938
4060 6 1941 1937 1934 1939
4061 4 1942 1937 1934 1931
4062 6 1942 1937 1934 1938
4063 6 1942 1937 1934 1939
4064 7 1943 1940 1937 1934
4065 4 1943 1940 1937 1941
4066 4 1943 1940 1937 1942
4067 4 1944 1940 1937 1934
4068 6 1944 1940 1937 1941
4069 6 1944 1940 1937 1942
4070 4 1945 1940 1937 1934
4071 6 1945 1940 1937 1941
4072 6 1945 1940 1937 1942
4073 7 1946 1943 1940 1937
4074 4 1946 1943 1940 1944
4075 4 1946 1943 1940 1945
4076 4 1947 1943 1940 1937
4077 6 1947 1943 1940 1944
4078 6 1947 1943 1940 1945
4079 4 1948 1943 1940 1937
4080 6 1948 1943 1940 1944
4081 6 1948 1943 1940 1945
4082 8 1809 1806 1805 1807
4083 8 1809 1806 1805 1808
4084 9 1810 1806 1805 1807
4085 9 1810 1806 1805 1808
4086 9 1811 1806 1805 1807
4087 9 1811 1806 1805 1808
4088 4 2127 2124 2121 2118
4089 6 2127 2124 2121 2125
4090 6 2127 2124 2121 2126
4091 4 2128 2124 2121 2118
4092 6 2128 2124 2121 2125
4093 6 2128 2124 2121 2126
4094 4 2129 2124 2121 2118
4095 6 2129 2124 2121 2125
4096 6 2129 2124 2121 2126
4097 7 196 193 190 186
4098 4 196 193 190 194
4099 4 196 193 190 195
4100 4 197 193 190 186
4101 6 197 193 190 194
4102 6 197 193 190 195
4103 4 198 193 190 186
4104 6 198 193 190 194
4105 6 198 193 190 195
4106 7 521 518 515 512
4107 4 521 518 515 519
4108 4 521 518 515 520
4109 4 522 518 515 512
4110 6 522 518 515 519
4111 6 522 518 515 520
4112 4 523 518 515 512
4113 6 523 518 515 519
4114 6 523 518 515 520
4115 7 518 515 512 508
4116 4 518 515 512 516
4117 4 518 515 512 517
4118 4 519 515 512 508
4119 6 519 515 512 516
4120 6 519 515 512 517
4121 4 520 515 512 508
4122 6 520 515 512 516
4123 6 520 515 512 517
4124 7 524 521 518 515
4125 4 524 521 518 522
4126 4 524 521 518 523
4127 4 525 521 518 515
4128 6 525 521 518 522
4129 6 525 521 518 523
4130 4 526 521 518 515
4131 6 526 521 518 522
4132 6 526 521 518 523
4133 4 1527 1524 1521 1518
4134 6 1527 1524 1521 1525
4135 6 1527 1524 1521 1526
4136 4 1528 1524 1521 1518
4137 6 1528 1524 1521 1525
4138 6 1528 1524 1521 1526
4139 4 1529 1524 1521 1518
4140 6 1529 1524 1521 1525
4141 6 1529 1524 1521 1526
4142 3 193 190 186 185
4143 4 193 190 186 191
4144 4 193 190 186 192
4145 5 194 190 186 185
4146 6 194 190 186 191
4147 6 194 190 186 192
4148 5 195 190 186 185
4149 6 195 190 186 191
4150 6 195 190 186 192
4151 7 1524 1521 1518 1515
4152 4 1524 1521 1518 1522
4153 4 1524 1521 1518 1523
4154 4 1525 1521 1518 1515
4155 6 1525 1521 1518 1522
4156 6 1525 1521 1518 1523
4157 4 1526 1521 1518 1515
4158 6 1526 1521 1518 1522
4159 6 1526 1521 1518 1523
4160 1 190 186 185 187
4161 1 190 186 185 188
4162 1 190 186 185 189
4163 2 191 186 185 187
4164 2 191 186 185 188
4165 2 191 186 185 189
4166 2 192 186 185 187
4167 2 192 186 185 188
4168 2 192 186 185 189
4169 4 527 524 521 518
4170 6 527 524 521 525
4171 6 527 524 521 526
4172 4 528 524 521 518
4173 6 528 524 521 525
4174 6 528 524 521 526
4175 4 529 524 521 518
4176 6 529 524 521 525
4177 6 529 524 521 526
4178 4 895 892 889 886
4179 6 895 892 889 893
4180 6 895 892 889 894
4181 4 896 892 889 886
4182 6 896 892 889 893
4183 6 896 892 889 894
4184 4 897 892 889 886
4185 6 897 892 889 893
4186 6 897 892 889 894
4187 7 1521 1518 1515 1512
4188 4 1521 1518 1515 1519
4189 4 1521 1518 1515 1520
4190 4 1522 1518 1515 1512
4191 6 1522 1518 1515 1519
4192 6 1522 1518 1515 1520
4193 4 1523 1518 1515 1512
4194 6 1523 1518 1515 1519
4195 6 1523 1518 1515 1520
4196 3 55 52 48 47
4197 4 55 52 48 53
4198 4 55 52 48 54
4199 5 56 52 48 47
4200 6 56 52 48 53
4201 6 56 52 48 54
4202 5 57 52 48 47
4203 6 57 52 48 53
4204 6 57 52 48 54
4205 7 58 55 52 48
4206 4 58 55 52 56
4207 4 58 55 52 57
4208 4 59 55 52 48
4209 6 59 55 52 56
4210 6 59 55 52 57
4211 4 60 55 52 48
4212 6 60 55 52 56
4213 6 60 55 52 57
4214 1 52 48 47 49
4215 1 52 48 47 50
4216 1 52 48 47 51
4217 2 53 48 47 49
4218 2 53 48 47 50
4219 2 53 48 47 51
4220 2 54 48 47 49
4221 2 54 48 47 50
4222 2 54 48 47 51
4223 7 61 58 55 52
4224 4 61 58 55 59
4225 4 61 58 55 60
4226 4 62 58 55 52
4227 6 62 58 55 59
4228 6 62 58 55 60
4229 4 63 58 55 52
4230 6 63 58 55 59
4231 6 63 58 55 60
4232 7 2143 2140 2137 2134
4233 4 2143 2140 2137 2141
4234 4 2143 2140 2137 2142
4235 4 2144 2140 2137 2134
4236 6 2144 2140 2137 2141
4237 6 2144 2140 2137 2142
4238 4 2145 2140 2137 2134
4239 6 2145 2140 2137 2141
4240 6 2145 2140 2137 2142
4241 7 2146 2143 2140 2137
4242 4 2146 2143 2140 2144
4243 4 2146 2143 2140 2145
4244 4 2147 2143 2140 2137
4245 6 2147 2143 2140 2144
4246 6 2147 2143 2140 2145
4247 4 2148 2143 2140 2137
4248 6 2148 2143 2140 2144
4249 6 2148 2143 2140 2145
4250 8 2134 2131 2130 2132
4251 8 2134 2131 2130 2133
4252 9 2135 2131 2130 2132
4253 9 2135 2131 2130 2133
4254 9 2136 2131 2130 2132
4255 9 2136 2131 2130 2133
4256 7 2149 2146 2143 2140
4257 4 2149 2146 2143 2147
4258 4 2149 2146 2143 2148
4259 4 2150 2146 2143 2140
4260 6 2150 2146 2143 2147
4261 6 2150 2146 2143 2148
4262 4 2151 2146 2143 2140
4263 6 2151 2146 2143 2147
4264 6 2151 2146 2143 2148
4265 10 2137 2134 2131 2130
4266 4 2137 2134 2131 2135
4267 4 2137 2134 2131 2136
4268 11 2138 2134 2131 2130
4269 6 2138 2134 2131 2135
4270 6 2138 2134 2131 2136
4271 11 2139 2134 2131 2130
4272 6 2139 2134 2131 2135
4273 6 2139 2134 2131 2136
4274 7 2140 2137 2134 2131
4275 4 2140 2137 2134 2138
4276 4 2140 2137 2134 2139
4277 4 2141 2137 2134 2131
4278 6 2141 2137 2134 2138
4279 6 2141 2137 2134 2139
4280 4 2142 2137 2134 2131
4281 6 2142 2137 2134 2138
4282 6 2142 2137 2134 2139
4283 4 2152 2149 2146 2143
4284 6 2152 2149 2146 2150
4285 6 2152 2149 2146 2151
4286 4 2153 2149 2146 2143
4287 6 2153 2149 2146 2150
4288 6 2153 2149 2146 2151
4289 4 2154 2149 2146 2143
4290 6 2154 2149 2146 2150
4291 6 2154 2149 2146 2151
4292 7 1518 1515 1512 1509
4293 4 1518 1515 1512 1516
4294 4 1518 1515 1512 1517
4295 4 1519 1515 1512 1509
4296 6 1519 1515 1512 1516
4297 6 1519 1515 1512 1517
4298 4 1520 1515 1512 1509
4299 6 1520 1515 1512 1516
4300 6 1520 1515 1512 1517
4301 7 1515 1512 1509 1506
4302 4 1515 1512 1509 1513
4303 4 1515 1512 1509 1514
4304 4 1516 1512 1509 1506
4305 6 1516 1512 1509 1513
4306 6 1516 1512 1509 1514
4307 4 1517 1512 1509 1506
4308 6 1517 1512 1509 1513
4309 6 1517 1512 1509 1514
4310 7 1099 1096 1093 1090
4311 4 1099 1096 1093 1097
4312 4 1099 1096 1093 1098
4313 4 1100 1096 1093 1090
4314 6 1100 1096 1093 1097
4315 6 1100 1096 1093 1098
4316 4 1101 1096 1093 1090
4317 6 1101 1096 1093 1097
4318 6 1101 1096 1093 1098
4319 7 1096 1093 1090 1087
4320 4 1096 1093 1090 1094
4321 4 1096 1093 1090 1095
4322 4 1097 1093 1090 1087
4323 6 1097 1093 1090 1094
4324 6 1097 1093 1090 1095
4325 4 1098 1093 1090 1087
4326 6 1098 1093 1090 1094
4327 6 1098 1093 1090 1095
4328 7 130 127 124 121
4329 4 130 127 124 128
4330 4 130 127 124 129
4331 4 131 127 124 121
4332 6 131 127 124 128
4333 6 131 127 124 129
4334 4 132 127 124 121
4335 6 132 127 124 128
4336 6 132 127 124 129
4337 4 1102 1099 1096 1093
4338 6 1102 1099 1096 1100
4339 6 1102 1099 1096 1101
4340 4 1103 1099 1096 1093
4341 6 1103 1099 1096 1100
4342 6 1103 1099 1096 1101
4343 4 1104 1099 1096 1093
4344 6 1104 1099 1096 1100
4345 6 1104 1099 1096 1101
4346 7 133 130 127 124
4347 4 133 130 127 131
4348 4 133 130 127 132
4349 4 134 130 127 124
4350 6 134 130 127 131
4351 6 134 130 127 132
4352 4 135 130 127 124
4353 6 135 130 127 131
4354 6 135 130 127 132
4355 7 127 124 121 117
4356 4 127 124 121 125
4357 4 127 124 121 126
4358 4 128 124 121 117
4359 6 128 124 121 125
4360 6 128 124 121 126
4361 4 129 124 121 117
4362 6 129 124 121 125
4363 6 129 124 121 126
4364 4 1827 1824 1821 1818
4365 6 1827 1824 1821 1825
4366 6 1827 1824 1821 1826
4367 4 1828 1824 1821 1818
4368 6 1828 1824 1821 1825
4369 6 1828 1824 1821 1826
4370 4 1829 1824 1821 1818
4371 6 1829 1824 1821 1825
4372 6 1829 1824 1821 1826
4373 3 124 121 117 116
4374 4 124 121 117 122
4375 4 124 121 117 123
4376 5 125 121 117 116
4377 6 125 121 117 122
4378 6 125 121 117 123
4379 5 126 121 117 116
4380 6 126 121 117 122
4381 6 126 121 117 123
4382 4 136 133 130 127
4383 6 136 133 130 134
4384 6 136 133 130 135
4385 4 137 133 130 127
4386 6 137 133 130 134
4387 6 137 133 130 135
4388 4 138 133 130 127
4389 6 138 133 130 134
4390 6 138 133 130 135
4391 4 2227 2224 2221 2218
4392 6 2227 2224 2221 2225
4393 6 2227 2224 2221 2226
4394 4 2228 2224 2221 2218
4395 6 2228 2224 2221 2225
4396 6 2228 2224 2221 2226
4397 4 2229 2224 2221 2218
4398 6 2229 2224 2221 2225
4399 6 2229 2224 2221 2226
4400 7 2224 2221 2218 2215
4401 4 2224 2221 2218 2222
4402 4 2224 2221 2218 2223
4403 4 2225 2221 2218 2215
4404 6 2225 2221 2218 2222
4405 6 2225 2221 2218 2223
4406 4 2226 2221 2218 2215
4407 6 2226 2221 2218 2222
4408 6 2226 2221 2218 2223
4409 3 515 512 508 507
4410 4 515 512 508 513
4411 4 515 512 508 514
4412 5 516 512 508 507
4413 6 516 512 508 513
4414 6 516 512 508 514
4415 5 517 512 508 507
4416 6 517 512 508 513
4417 6 517 512 508 514
4418 1 121 117 116 118
4419 1 121 117 116 119
4420 1 121 117 116 120
4421 2 122 117 116 118
4422 2 122 117 116 119
4423 2 122 117 116 120
4424 2 123 117 116 118
4425 2 123 117 116 119
4426 2 123 117 116 120
4427 1 512 508 507 509
4428 1 512 508 507 510
4429 1 512 508 507 511
4430 2 513 508 507 509
4431 2 513 508 507 510
4432 2 513 508 507 511
4433 2 514 508 507 509
4434 2 514 508 507 510
4435 2 514 508 507 511
4436 8 1259 1256 1255 1257
4437 8 1259 1256 1255 1258
4438 9 1260 1256 1255 1257
4439 9 1260 1256 1255 1258
4440 9 1261 1256 1255 1257
4441 9 1261 1256 1255 1258
4442 7 2221 2218 2215 2212
4443 4 2221 2218 2215 2219
4444 4 2221 2218 2215 2220
4445 4 2222 2218 2215 2212
4446 6 2222 2218 2215 2219
4447 6 2222 2218 2215 2220
4448 4 2223 2218 2215 2212
4449 6 2223 2218 2215 2219
4450 6 2223 2218 2215 2220
4451 7 2218 2215 2212 2209
4452 4 2218 2215 2212 2216
4453 4 2218 2215 2212 2217
4454 4 2219 2215 2212 2209
4455 6 2219 2215 2212 2216
4456 6 2219 2215 2212 2217
4457 4 2220 2215 2212 2209
4458 6 2220 2215 2212 2216
4459 6 2220 2215 2212 2217
4460 10 2212 2209 2206 2205
4461 4 2212 2209 2206 2210
4462 4 2212 2209 2206 2211
4463 11 2213 2209 2206 2205
4464 6 2213 2209 2206 2210
4465 6 2213 2209 2206 2211
4466 11 2214 2209 2206 2205
4467 6 2214 2209 2206 2210
4468 6 2214 2209 2206 2211
4469 7 2215 2212 2209 2206
4470 4 2215 2212 2209 2213
4471 4 2215 2212 2209 2214
4472 4 2216 2212 2209 2206
4473 6 2216 2212 2209 2213
4474 6 2216 2212 2209 2214
4475 4 2217 2212 2209 2206
4476 6 2217 2212 2209 2213
4477 6 2217 2212 2209 2214
4478 4 642 639 636 633
4479 6 642 639 636 640
4480 6 642 639 636 641
4481 4 643 639 636 633
4482 6 643 639 636 640
4483 6 643 639 636 641
4484 4 644 639 636 633
4485 6 644 639 636 640
4486 6 644 639 636 641
4487 7 406 403 400 397
4488 4 406 403 400 404
4489 4 406 403 400 405
4490 4 407 403 400 397
4491 6 407 403 400 404
4492 6 407 403 400 405
4493 4 408 403 400 397
4494 6 408 403 400 404
4495 6 408 403 400 405
4496 7 1468 1465 1462 1459
4497 4 1468 1465 1462 1466
4498 4 1468 1465 1462 1467
4499 4 1469 1465 1462 1459
4500 6 1469 1465 1462 1466
4501 6 1469 1465 1462 1467
4502 4 1470 1465 1462 1459
4503 6 1470 1465 1462 1466
4504 6 1470 1465 1462 1467
4505 10 1462 1459 1456 1455
4506 4 1462 1459 1456 1460
4507 4 1462 1459 1456 1461
4508 11 1463 1459 1456 1455
4509 6 1463 1459 1456 1460
4510 6 1463 1459 1456 1461
4511 11 1464 1459 1456 1455
4512 6 1464 1459 1456 1460
4513 6 1464 1459 1456 1461
4514 12 1456 1457 1455 1458
4515 8 1459 1456 1455 1457
4516 8 1459 1456 1455 1458
4517 9 1460 1456 1455 1457
4518 9 1460 1456 1455 1458
4519 9 1461 1456 1455 1457
4520 9 1461 1456 1455 1458
4521 3 400 397 393 392
4522 4 400 397 393 398
4523 4 400 397 393 399
4524 5 401 397 393 392
4525 6 401 397 393 398
4526 6 401 397 393 399
4527 5 402 397 393 392
4528 6 402 397 393 398
4529 6 402 397 393 399
4530 7 1465 1462 1459 1456
4531 4 1465 1462 1459 1463
4532 4 1465 1462 1459 1464
4533 4 1466 1462 1459 1456
4534 6 1466 1462 1459 1463
4535 6 1466 1462 1459 1464
4536 4 1467 1462 1459 1456
4537 6 1467 1462 1459 1463
4538 6 1467 1462 1459 1464
4539 12 1206 1207 1205 1208
4540 8 1209 1206 1205 1207
4541 8 1209 1206 1205 1208
4542 9 1210 1206 1205 1207
4543 9 1210 1206 1205 1208
4544 9 1211 1206 1205 1207
4545 9 1211 1206 1205 1208
4546 10 1212 1209 1206 1205
4547 4 1212 1209 1206 1210
4548 4 1212 1209 1206 1211
4549 11 1213 1209 1206 1205
4550 6 1213 1209 1206 1210
4551 6 1213 1209 1206 1211
4552 11 1214 1209 1206 1205
4553 6 1214 1209 1206 1210
4554 6 1214 1209 1206 1211
4555 3 308 305 301 300
4556 4 308 305 301 306
4557 4 308 305 301 307
4558 5 309 305 301 300
4559 6 309 305 301 306
4560 6 309 305 301 307
4561 5 310 305 301 300
4562 6 310 305 301 306
4563 6 310 305 301 307
4564 10 1512 1509 1506 1505
4565 4 1512 1509 1506 1510
4566 4 1512 1509 1506 1511
4567 11 1513 1509 1506 1505
4568 6 1513 1509 1506 1510
4569 6 1513 1509 1506 1511
4570 11 1514 1509 1506 1505
4571 6 1514 1509 1506 1510
4572 6 1514 1509 1506 1511
4573 8 1509 1506 1505 1507
4574 8 1509 1506 1505 1508
4575 9 1510 1506 1505 1507
4576 9 1510 1506 1505 1508
4577 9 1511 1506 1505 1507
4578 9 1511 1506 1505 1508
4579 12 1506 1507 1505 1508
4580 7 1618 1615 1612 1609
4581 4 1618 1615 1612 1616
4582 4 1618 1615 1612 1617
4583 4 1619 1615 1612 1609
4584 6 1619 1615 1612 1616
4585 6 1619 1615 1612 1617
4586 4 1620 1615 1612 1609
4587 6 1620 1615 1612 1616
4588 6 1620 1615 1612 1617
4589 4 1627 1624 1621 1618
4590 6 1627 1624 1621 1625
4591 6 1627 1624 1621 1626
4592 4 1628 1624 1621 1618
4593 6 1628 1624 1621 1625
4594 6 1628 1624 1621 1626
4595 4 1629 1624 1621 1618
4596 6 1629 1624 1621 1625
4597 6 1629 1624 1621 1626
4598 7 1624 1621 1618 1615
4599 4 1624 1621 1618 1622
4600 4 1624 1621 1618 1623
4601 4 1625 1621 1618 1615
4602 6 1625 1621 1618 1622
4603 6 1625 1621 1618 1623
4604 4 1626 1621 1618 1615
4605 6 1626 1621 1618 1622
4606 6 1626 1621 1618 1623
4607 7 1621 1618 1615 1612
4608 4 1621 1618 1615 1619
4609 4 1621 1618 1615 1620
4610 4 1622 1618 1615 1612
4611 6 1622 1618 1615 1619
4612 6 1622 1618 1615 1620
4613 4 1623 1618 1615 1612
4614 6 1623 1618 1615 1619
4615 6 1623 1618 1615 1620
4616 1 305 301 300 302
4617 1 305 301 300 303
4618 1 305 301 300 304
4619 2 306 301 300 302
4620 2 306 301 300 303
4621 2 306 301 300 304
4622 2 307 301 300 302
4623 2 307 301 300 303
4624 2 307 301 300 304
4625 8 1609 1606 1605 1607
4626 8 1609 1606 1605 1608
4627 9 1610 1606 1605 1607
4628 9 1610 1606 1605 1608
4629 9 1611 1606 1605 1607
4630 9 1611 1606 1605 1608
4631 8 1434 1431 1430 1432
4632 8 1434 1431 1430 1433
4633 9 1435 1431 1430 1432
4634 9 1435 1431 1430 1433
4635 9 1436 1431 1430 1432
4636 9 1436 1431 1430 1433
4637 7 1440 1437 1434 1431
4638 4 1440 1437 1434 1438
4639 4 1440 1437 1434 1439
4640 4 1441 1437 1434 1431
4641 6 1441 1437 1434 1438
4642 6 1441 1437 1434 1439
4643 4 1442 1437 1434 1431
4644 6 1442 1437 1434 1438
4645 6 1442 1437 1434 1439
4646 10 1437 1434 1431 1430
4647 4 1437 1434 1431 1435
4648 4 1437 1434 1431 1436
4649 11 1438 1434 1431 1430
4650 6 1438 1434 1431 1435
4651 6 1438 1434 1431 1436
4652 11 1439 1434 1431 1430
4653 6 1439 1434 1431 1435
4654 6 1439 1434 1431 1436
4655 7 1443 1440 1437 1434
4656 4 1443 1440 1437 1441
4657 4 1443 1440 1437 1442
4658 4 1444 1440 1437 1434
4659 6 1444 1440 1437 1441
4660 6 1444 1440 1437 1442
4661 4 1445 1440 1437 1434
4662 6 1445 1440 1437 1441
4663 6 1445 1440 1437 1442
4664 7 1446 1443 1440 1437
4665 4 1446 1443 1440 1444
4666 4 1446 1443 1440 1445
4667 4 1447 1443 1440 1437
4668 6 1447 1443 1440 1444
4669 6 1447 1443 1440 1445
4670 4 1448 1443 1440 1437
4671 6 1448 1443 1440 1444
4672 6 1448 1443 1440 1445
4673 7 1449 1446 1443 1440
4674 4 1449 1446 1443 1447
4675 4 1449 1446 1443 1448
4676 4 1450 1446 1443 1440
4677 6 1450 1446 1443 1447
4678 6 1450 1446 1443 1448
4679 4 1451 1446 1443 1440
4680 6 1451 1446 1443 1447
4681 6 1451 1446 1443 1448
4682 4 1452 1449 1446 1443
4683 6 1452 1449 1446 1450
4684 6 1452 1449 1446 1451
4685 4 1453 1449 1446 1443
4686 6 1453 1449 1446 1450
4687 6 1453 1449 1446 1451
4688 4 1454 1449 1446 1443
4689 6 1454 1449 1446 1450
4690 6 1454 1449 1446 1451
4691 4 2027 2024 2021 2018
4692 6 2027 2024 2021 2025
4693 6 2027 2024 2021 2026
4694 4 2028 2024 2021 2018
4695 6 2028 2024 2021 2025
4696 6 2028 2024 2021 2026
4697 4 2029 2024 2021 2018
4698 6 2029 2024 2021 2025
4699 6 2029 2024 2021 2026
4700 7 2021 2018 2015 2012
4701 4 2021 2018 2015 2019
4702 4 2021 2018 2015 2020
4703 4 2022 2018 2015 2012
4704 6 2022 2018 2015 2019
4705 6 2022 2018 2015 2020
4706 4 2023 2018 2015 2012
4707 6 2023 2018 2015 2019
4708 6 2023 2018 2015 2020
4709 7 2018 2015 2012 2009
4710 4 2018 2015 2012 2016
4711 4 2018 2015 2012 2017
4712 4 2019 2015 2012 2009
4713 6 2019 2015 2012 2016
4714 6 2019 2015 2012 2017
4715 4 2020 2015 2012 2009
4716 6 2020 2015 2012 2016
4717 6 2020 2015 2012 2017
4718 7 2024 2021 2018 2015
4719 4 2024 2021 2018 2022
4720 4 2024 2021 2018 2023
4721 4 2025 2021 2018 2015
4722 6 2025 2021 2018 2022
4723 6 2025 2021 2018 2023
4724 4 2026 2021 2018 2015
4725 6 2026 2021 2018 2022
4726 6 2026 2021 2018 2023
4727 7 1346 1343 1340 1337
4728 4 1346 1343 1340 1344
4729 4 1346 1343 1340 1345
4730 4 1347 1343 1340 1337
4731 6 1347 1343 1340 1344
4732 6 1347 1343 1340 1345
4733 4 1348 1343 1340 1337
4734 6 1348 1343 1340 1344
4735 6 1348 1343 1340 1345
4736 7 245 242 239 236
4737 4 245 242 239 243
4738 4 245 242 239 244
4739 4 246 242 239 236
4740 6 246 242 239 243
4741 6 246 242 239 244
4742 4 247 242 239 236
4743 6 247 242 239 243
4744 6 247 242 239 244
4745 7 248 245 242 239
4746 4 248 245 242 246
4747 4 248 245 242 247
4748 4 249 245 242 239
4749 6 249 245 242 246
4750 6 249 245 242 247
4751 4 250 245 242 239
4752 6 250 245 242 246
4753 6 250 245 242 247
4754 7 1343 1340 1337 1334
4755 4 1343 1340 1337 1341
4756 4 1343 1340 1337 1342
4757 4 1344 1340 1337 1334
4758 6 1344 1340 1337 1341
4759 6 1344 1340 1337 1342
4760 4 1345 1340 1337 1334
4761 6 1345 1340 1337 1341
4762 6 1345 1340 1337 1342
4763 4 734 731 728 725
4764 6 734 731 728 732
4765 6 734 731 728 733
4766 4 735 731 728 725
4767 6 735 731 728 732
4768 6 735 731 728 733
4769 4 736 731 728 725
4770 6 736 731 728 732
4771 6 736 731 728 733
4772 7 731 728 725 722
4773 4 731 728 725 729
4774 4 731 728 725 730
4775 4 732 728 725 722
4776 6 732 728 725 729
4777 6 732 728 725 730
4778 4 733 728 725 722
4779 6 733 728 725 729
4780 6 733 728 725 730
4781 7 728 725 722 719
4782 4 728 725 722 726
4783 4 728 725 722 727
4784 4 729 725 722 719
4785 6 729 725 722 726
4786 6 729 725 722 727
4787 4 730 725 722 719
4788 6 730 725 722 726
4789 6 730 725 722 727
4790 7 2015 2012 2009 2006
4791 4 2015 2012 2009 2013
4792 4 2015 2012 2009 2014
4793 4 2016 2012 2009 2006
4794 6 2016 2012 2009 2013
4795 6 2016 2012 2009 2014
4796 4 2017 2012 2009 2006
4797 6 2017 2012 2009 2013
4798 6 2017 2012 2009 2014
4799 8 2209 2206 2205 2207
4800 8 2209 2206 2205 2208
4801 9 2210 2206 2205 2207
4802 9 2210 2206 2205 2208
4803 9 2211 2206 2205 2207
4804 9 2211 2206 2205 2208
4805 7 567 564 561 558
4806 4 567 564 561 565
4807 4 567 564 561 566
4808 4 568 564 561 558
4809 6 568 564 561 565
4810 6 568 564 561 566
4811 4 569 564 561 558
4812 6 569 564 561 565
4813 6 569 564 561 566
4814 1 397 393 392 394
4815 1 397 393 392 395
4816 1 397 393 392 396
4817 2 398 393 392 394
4818 2 398 393 392 395
4819 2 398 393 392 396
4820 2 399 393 392 394
4821 2 399 393 392 395
4822 2 399 393 392 396
4823 12 2206 2207 2205 2208
4824 12 2006 2007 2005 2008
4825 10 2012 2009 2006 2005
4826 4 2012 2009 2006 2010
4827 4 2012 2009 2006 2011
4828 11 2013 2009 2006 2005
4829 6 2013 2009 2006 2010
4830 6 2013 2009 2006 2011
4831 11 2014 2009 2006 2005
4832 6 2014 2009 2006 2010
4833 6 2014 2009 2006 2011
4834 8 2009 2006 2005 2007
4835 8 2009 2006 2005 2008
4836 9 2010 2006 2005 2007
4837 9 2010 2006 2005 2008
4838 9 2011 2006 2005 2007
4839 9 2011 2006 2005 2008
4840 7 403 400 397 393
4841 4 403 400 397 401
4842 4 403 400 397 402
4843 4 404 400 397 393
4844 6 404 400 397 401
4845 6 404 400 397 402
4846 4 405 400 397 393
4847 6 405 400 397 401
4848 6 405 400 397 402
4849 7 564 561 558 554
4850 4 564 561 558 562
4851 4 564 561 558 563
4852 4 565 561 558 554
4853 6 565 561 558 562
4854 6 565 561 558 563
4855 4 566 561 558 554
4856 6 566 561 558 562
4857 6 566 561 558 563
4858 3 561 558 554 553
4859 4 561 558 554 559
4860 4 561 558 554 560
4861 5 562 558 554 553
4862 6 562 558 554 559
4863 6 562 558 554 560
4864 5 563 558 554 553
4865 6 563 558 554 559
4866 6 563 558 554 560
4867 1 558 554 553 555
4868 1 558 554 553 556
4869 1 558 554 553 557
4870 2 559 554 553 555
4871 2 559 554 553 556
4872 2 559 554 553 557
4873 2 560 554 553 555
4874 2 560 554 553 556
4875 2 560 554 553 557
4876 7 317 314 311 308
4877 4 317 314 311 315
4878 4 317 314 311 316
4879 4 318 314 311 308
4880 6 318 314 311 315
4881 6 318 314 311 316
4882 4 319 314 311 308
4883 6 319 314 311 315
4884 6 319 314 311 316
4885 7 1215 1212 1209 1206
4886 4 1215 1212 1209 1213
4887 4 1215 1212 1209 1214
4888 4 1216 1212 1209 1206
4889 6 1216 1212 1209 1213
4890 6 1216 1212 1209 1214
4891 4 1217 1212 1209 1206
4892 6 1217 1212 1209 1213
4893 6 1217 1212 1209 1214
4894 7 1218 1215 1212 1209
4895 4 1218 1215 1212 1216
4896 4 1218 1215 1212 1217
4897 4 1219 1215 1212 1209
4898 6 1219 1215 1212 1216
4899 6 1219 1215 1212 1217
4900 4 1220 1215 1212 1209
4901 6 1220 1215 1212 1216
4902 6 1220 1215 1212 1217
4903 7 314 311 308 305
4904 4 314 311 308 312
4905 4 314 311 308 313
4906 4 315 311 308 305
4907 6 315 311 308 312
4908 6 315 311 308 313
4909 4 316 311 308 305
4910 6 316 311 308 312
4911 6 316 311 308 313
4912 7 311 308 305 301
4913 4 311 308 305 309
4914 4 311 308 305 310
4915 4 312 308 305 301
4916 6 312 308 305 309
4917 6 312 308 305 310
4918 4 313 308 305 301
4919 6 313 308 305 309
4920 6 313 308 305 310
4921 7 1221 1218 1215 1212
4922 4 1221 1218 1215 1219
4923 4 1221 1218 1215 1220
4924 4 1222 1218 1215 1212
4925 6 1222 1218 1215 1219
4926 6 1222 1218 1215 1220
4927 4 1223 1218 1215 1212
4928 6 1223 1218 1215 1219
4929 6 1223 1218 1215 1220
4930 7 1224 1221 1218 1215
4931 4 1224 1221 1218 1222
4932 4 1224 1221 1218 1223
4933 4 1225 1221 1218 1215
4934 6 1225 1221 1218 1222
4935 6 1225 1221 1218 1223
4936 4 1226 1221 1218 1215
4937 6 1226 1221 1218 1222
4938 6 1226 1221 1218 1223
4939 4 1227 1224 1221 1218
4940 6 1227 1224 1221 1225
4941 6 1227 1224 1221 1226
4942 4 1228 1224 1221 1218
4943 6 1228 1224 1221 1225
4944 6 1228 1224 1221 1226
4945 4 1229 1224 1221 1218
4946 6 1229 1224 1221 1225
4947 6 1229 1224 1221 1226
4948 7 357 354 351 347
4949 4 357 354 351 355
4950 4 357 354 351 356
4951 4 358 354 351 347
4952 6 358 354 351 355
4953 6 358 354 351 356
4954 4 359 354 351 347
4955 6 359 354 351 355
4956 6 359 354 351 356
4957 1 351 347 346 348
4958 1 351 347 346 349
4959 1 351 347 346 350
4960 2 352 347 346 348
4961 2 352 347 346 349
4962 2 352 347 346 350
4963 2 353 347 346 348
4964 2 353 347 346 349
4965 2 353 347 346 350
4966 3 354 351 347 346
4967 4 354 351 347 352
4968 4 354 351 347 353
4969 5 355 351 347 346
4970 6 355 351 347 352
4971 6 355 351 347 353
4972 5 356 351 347 346
4973 6 356 351 347 352
4974 6 356 351 347 353
4975 4 320 317 314 311
4976 6 320 317 314 318
4977 6 320 317 314 319
4978 4 321 317 314 311
4979 6 321 317 314 318
4980 6 321 317 314 319
4981 4 322 317 314 311
4982 6 322 317 314 318
4983 6 322 317 314 319
4984 12 1431 1432 1430 1433
4985 1 857 853 852 854
4986 1 857 853 852 855
4987 1 857 853 852 856
4988 2 858 853 852 854
4989 2 858 853 852 855
4990 2 858 853 852 856
4991 2 859 853 852 854
4992 2 859 853 852 855
4993 2 859 853 852 856
4994 3 860 857 853 852
4995 4 860 857 853 858
4996 4 860 857 853 859
4997 5 861 857 853 852
4998 6 861 857 853 858
4999 6 861 857 853 859
5000 5 862 857 853 852
5001 6 862 857 853 858
5002 6 862 857 853 859
5003 1 673 669 668 670
5004 1 673 669 668 671
5005 1 673 669 668 672
5006 2 674 669 668 670
5007 2 674 669 668 671
5008 2 674 669 668 672
5009 2 675 669 668 670
5010 2 675 669 668 671
5011 2 675 669 668 672
5012 12 1331 1332 1330 1333
5013 7 1340 1337 1334 1331
5014 4 1340 1337 1334 1338
5015 4 1340 1337 1334 1339
5016 4 1341 1337 1334 1331
5017 6 1341 1337 1334 1338
5018 6 1341 1337 1334 1339
5019 4 1342 1337 1334 1331
5020 6 1342 1337 1334 1338
5021 6 1342 1337 1334 1339
5022 4 251 248 245 242
5023 6 251 248 245 249
5024 6 251 248 245 250
5025 4 252 248 245 242
5026 6 252 248 245 249
5027 6 252 248 245 250
5028 4 253 248 245 242
5029 6 253 248 245 249
5030 6 253 248 245 250
5031 8 1334 1331 1330 1332
5032 8 1334 1331 1330 1333
5033 9 1335 1331 1330 1332
5034 9 1335 1331 1330 1333
5035 9 1336 1331 1330 1332
5036 9 1336 1331 1330 1333
5037 10 1337 1334 1331 1330
5038 4 1337 1334 1331 1335
5039 4 1337 1334 1331 1336
5040 11 1338 1334 1331 1330
5041 6 1338 1334 1331 1335
5042 6 1338 1334 1331 1336
5043 11 1339 1334 1331 1330
5044 6 1339 1334 1331 1335
5045 6 1339 1334 1331 1336
5046 4 780 777 774 771
5047 6 780 777 774 778
5048 6 780 777 774 779
5049 4 781 777 774 771
5050 6 781 777 774 778
5051 6 781 777 774 779
5052 4 782 777 774 771
5053 6 782 777 774 778
5054 6 782 777 774 779
5055 7 774 771 768 765
5056 4 774 771 768 772
5057 4 774 771 768 773
5058 4 775 771 768 765
5059 6 775 771 768 772
5060 6 775 771 768 773
5061 4 776 771 768 765
5062 6 776 771 768 772
5063 6 776 771 768 773
5064 7 771 768 765 761
5065 4 771 768 765 769
5066 4 771 768 765 770
5067 4 772 768 765 761
5068 6 772 768 765 769
5069 6 772 768 765 770
5070 4 773 768 765 761
5071 6 773 768 765 769
5072 6 773 768 765 770
5073 1 765 761 760 762
5074 1 765 761 760 763
5075 1 765 761 760 764
5076 2 766 761 760 762
5077 2 766 761 760 763
5078 2 766 761 760 764
5079 2 767 761 760 762
5080 2 767 761 760 763
5081 2 767 761 760 764
5082 3 768 765 761 760
5083 4 768 765 761 766
5084 4 768 765 761 767
5085 5 769 765 761 760
5086 6 769 765 761 766
5087 6 769 765 761 767
5088 5 770 765 761 760
5089 6 770 765 761 766
5090 6 770 765 761 767
5091 12 1756 1757 1755 1758
5092 7 725 722 719 715
5093 4 725 722 719 723
5094 4 725 722 719 724
5095 4 726 722 719 715
5096 6 726 722 719 723
5097 6 726 722 719 724
5098 4 727 722 719 715
5099 6 727 722 719 723
5100 6 727 722 719 724
5101 3 722 719 715 714
5102 4 722 719 715 720
5103 4 722 719 715 721
5104 5 723 719 715 714
5105 6 723 719 715 720
5106 6 723 719 715 721
5107 5 724 719 715 714
5108 6 724 719 715 720
5109 6 724 719 715 721
5110 1 719 715 714 716
5111 1 719 715 714 717
5112 1 719 715 714 718
5113 2 720 715 714 716
5114 2 720 715 714 717
5115 2 720 715 714 718
5116 2 721 715 714 716
5117 2 721 715 714 717
5118 2 721 715 714 718
5119 12 1381 1382 1380 1383
5120 8 1384 1381 1380 1382
5121 8 1384 1381 1380 1383
5122 9 1385 1381 1380 1382
5123 9 1385 1381 1380 1383
5124 9 1386 1381 1380 1382
5125 9 1386 1381 1380 1383
5126 10 1387 1384 1381 1380
5127 4 1387 1384 1381 1385
5128 4 1387 1384 1381 1386
5129 11 1388 1384 1381 1380
5130 6 1388 1384 1381 1385
5131 6 1388 1384 1381 1386
5132 11 1389 1384 1381 1380
5133 6 1389 1384 1381 1385
5134 6 1389 1384 1381 1386
5135 7 1053 1050 1047 1044
5136 4 1053 1050 1047 1051
5137 4 1053 1050 1047 1052
5138 4 1054 1050 1047 1044
5139 6 1054 1050 1047 1051
5140 6 1054 1050 1047 1052
5141 4 1055 1050 1047 1044
5142 6 1055 1050 1047 1051
5143 6 1055 1050 1047 1052
5144 4 1056 1053 1050 1047
5145 6 1056 1053 1050 1054
5146 6 1056 1053 1050 1055
5147 4 1057 1053 1050 1047
5148 6 1057 1053 1050 1054
5149 6 1057 1053 1050 1055
5150 4 1058 1053 1050 1047
5151 6 1058 1053 1050 1054
5152 6 1058 1053 1050 1055
5153 8 2059 2056 2055 2057
5154 8 2059 2056 2055 2058
5155 9 2060 2056 2055 2057
5156 9 2060 2056 2055 2058
5157 9 2061 2056 2055 2057
5158 9 2061 2056 2055 2058
5159 4 2102 2099 2096 2093
5160 6 2102 2099 2096 2100
5161 6 2102 2099 2096 2101
5162 4 2103 2099 2096 2093
5163 6 2103 2099 2096 2100
5164 6 2103 2099 2096 2101
5165 4 2104 2099 2096 2093
5166 6 2104 2099 2096 2100
5167 6 2104 2099 2096 2101
5168 8 1309 1306 1305 1307
5169 8 1309 1306 1305 1308
5170 9 1310 1306 1305 1307
5171 9 1310 1306 1305 1308
5172 9 1311 1306 1305 1307
5173 9 1311 1306 1305 1308
5174 4 1277 1274 1271 1268
5175 6 1277 1274 1271 1275
5176 6 1277 1274 1271 1276
5177 4 1278 1274 1271 1268
5178 6 1278 1274 1271 1275
5179 6 1278 1274 1271 1276
5180 4 1279 1274 1271 1268
5181 6 1279 1274 1271 1275
5182 6 1279 1274 1271 1276
5183 7 2099 2096 2093 2090
5184 4 2099 2096 2093 2097
5185 4 2099 2096 2093 2098
5186 4 2100 2096 2093 2090
5187 6 2100 2096 2093 2097
5188 6 2100 2096 2093 2098
5189 4 2101 2096 2093 2090
5190 6 2101 2096 2093 2097
5191 6 2101 2096 2093 2098
5192 7 2096 2093 2090 2087
5193 4 2096 2093 2090 2094
5194 4 2096 2093 2090 2095
5195 4 2097 2093 2090 2087
5196 6 2097 2093 2090 2094
5197 6 2097 2093 2090 2095
5198 4 2098 2093 2090 2087
5199 6 2098 2093 2090 2094
5200 6 2098 2093 2090 2095
5201 10 2087 2084 2081 2080
5202 4 2087 2084 2081 2085
5203 4 2087 2084 2081 2086
5204 11 2088 2084 2081 2080
5205 6 2088 2084 2081 2085
5206 6 2088 2084 2081 2086
5207 11 2089 2084 2081 2080
5208 6 2089 2084 2081 2085
5209 6 2089 2084 2081 2086
5210 7 2090 2087 2084 2081
5211 4 2090 2087 2084 2088
5212 4 2090 2087 2084 2089
5213 4 2091 2087 2084 2081
5214 6 2091 2087 2084 2088
5215 6 2091 2087 2084 2089
5216 4 2092 2087 2084 2081
5217 6 2092 2087 2084 2088
5218 6 2092 2087 2084 2089
5219 7 2093 2090 2087 2084
5220 4 2093 2090 2087 2091
5221 4 2093 2090 2087 2092
5222 4 2094 2090 2087 2084
5223 6 2094 2090 2087 2091
5224 6 2094 2090 2087 2092
5225 4 2095 2090 2087 2084
5226 6 2095 2090 2087 2091
5227 6 2095 2090 2087 2092
5228 8 2084 2081 2080 2082
5229 8 2084 2081 2080 2083
5230 9 2085 2081 2080 2082
5231 9 2085 2081 2080 2083
5232 9 2086 2081 2080 2082
5233 9 2086 2081 2080 2083
5234 12 2131 2132 2130 2133
5235 12 1306 1307 1305 1308
5236 12 2031 2032 2030 2033
5237 12 2081 2082 2080 2083
5238 8 2034 2031 2030 2032
5239 8 2034 2031 2030 2033
5240 9 2035 2031 2030 2032
5241 9 2035 2031 2030 2033
5242 9 2036 2031 2030 2032
5243 9 2036 2031 2030 2033
5244 10 2037 2034 2031 2030
5245 4 2037 2034 2031 2035
5246 4 2037 2034 2031 2036
5247 11 2038 2034 2031 2030
5248 6 2038 2034 2031 2035
5249 6 2038 2034 2031 2036
5250 11 2039 2034 2031 2030
5251 6 2039 2034 2031 2035
5252 6 2039 2034 2031 2036
5253 7 2040 2037 2034 2031
5254 4 2040 2037 2034 2038
5255 4 2040 2037 2034 2039
5256 4 2041 2037 2034 2031
5257 6 2041 2037 2034 2038
5258 6 2041 2037 2034 2039
5259 4 2042 2037 2034 2031
5260 6 2042 2037 2034 2038
5261 6 2042 2037 2034 2039
5262 1 489 485 484 486
5263 1 489 485 484 487
5264 1 489 485 484 488
5265 2 490 485 484 486
5266 2 490 485 484 487
5267 2 490 485 484 488
5268 2 491 485 484 486
5269 2 491 485 484 487
5270 2 491 485 484 488
5271 12 1231 1232 1230 1233
5272 7 2043 2040 2037 2034
5273 4 2043 2040 2037 2041
5274 4 2043 2040 2037 2042
5275 4 2044 2040 2037 2034
5276 6 2044 2040 2037 2041
5277 6 2044 2040 2037 2042
5278 4 2045 2040 2037 2034
5279 6 2045 2040 2037 2041
5280 6 2045 2040 2037 2042
5281 1 1087 1083 1082 1084
5282 1 1087 1083 1082 1085
5283 1 1087 1083 1082 1086
5284 2 1088 1083 1082 1084
5285 2 1088 1083 1082 1085
5286 2 1088 1083 1082 1086
5287 2 1089 1083 1082 1084
5288 2 1089 1083 1082 1085
5289 2 1089 1083 1082 1086
5290 4 2052 2049 2046 2043
5291 6 2052 2049 2046 2050
5292 6 2052 2049 2046 2051
5293 4 2053 2049 2046 2043
5294 6 2053 2049 2046 2050
5295 6 2053 2049 2046 2051
5296 4 2054 2049 2046 2043
5297 6 2054 2049 2046 2050
5298 6 2054 2049 2046 2051
5299 7 1093 1090 1087 1083
5300 4 1093 1090 1087 1091
5301 4 1093 1090 1087 1092
5302 4 1094 1090 1087 1083
5303 6 1094 1090 1087 1091
5304 6 1094 1090 1087 1092
5305 4 1095 1090 1087 1083
5306 6 1095 1090 1087 1091
5307 6 1095 1090 1087 1092
5308 7 2049 2046 2043 2040
5309 4 2049 2046 2043 2047
5310 4 2049 2046 2043 2048
5311 4 2050 2046 2043 2040
5312 6 2050 2046 2043 2047
5313 6 2050 2046 2043 2048
5314 4 2051 2046 2043 2040
5315 6 2051 2046 2043 2047
5316 6 2051 2046 2043 2048
5317 7 2046 2043 2040 2037
5318 4 2046 2043 2040 2044
5319 4 2046 2043 2040 2045
5320 4 2047 2043 2040 2037
5321 6 2047 2043 2040 2044
5322 6 2047 2043 2040 2045
5323 4 2048 2043 2040 2037
5324 6 2048 2043 2040 2044
5325 6 2048 2043 2040 2045
5326 3 1090 1087 1083 1082
5327 4 1090 1087 1083 1088
5328 4 1090 1087 1083 1089
5329 5 1091 1087 1083 1082
5330 6 1091 1087 1083 1088
5331 6 1091 1087 1083 1089
5332 5 1092 1087 1083 1082
5333 6 1092 1087 1083 1088
5334 6 1092 1087 1083 1089
5335 7 1818 1815 1812 1809
5336 4 1818 1815 1812 1816
5337 4 1818 1815 1812 1817
5338 4 1819 1815 1812 1809
5339 6 1819 1815 1812 1816
5340 6 1819 1815 1812 1817
5341 4 1820 1815 1812 1809
5342 6 1820 1815 1812 1816
5343 6 1820 1815 1812 1817
5344 7 2121 2118 2115 2112
5345 4 2121 2118 2115 2119
5346 4 2121 2118 2115 2120
5347 4 2122 2118 2115 2112
5348 6 2122 2118 2115 2119
5349 6 2122 2118 2115 2120
5350 4 2123 2118 2115 2112
5351 6 2123 2118 2115 2119
5352 6 2123 2118 2115 2120
5353 7 1821 1818 1815 1812
5354 4 1821 1818 1815 1819
5355 4 1821 1818 1815 1820
5356 4 1822 1818 1815 1812
5357 6 1822 1818 1815 1819
5358 6 1822 1818 1815 1820
5359 4 1823 1818 1815 1812
5360 6 1823 1818 1815 1819
5361 6 1823 1818 1815 1820
5362 7 1824 1821 1818 1815
5363 4 1824 1821 1818 1822
5364 4 1824 1821 1818 1823
5365 4 1825 1821 1818 1815
5366 6 1825 1821 1818 1822
5367 6 1825 1821 1818 1823
5368 4 1826 1821 1818 1815
5369 6 1826 1821 1818 1822
5370 6 1826 1821 1818 1823
5371 10 1237 1234 1231 1230
5372 4 1237 1234 1231 1235
5373 4 1237 1234 1231 1236
5374 11 1238 1234 1231 1230
5375 6 1238 1234 1231 1235
5376 6 1238 1234 1231 1236
5377 11 1239 1234 1231 1230
5378 6 1239 1234 1231 1235
5379 6 1239 1234 1231 1236
5380 8 1234 1231 1230 1232
5381 8 1234 1231 1230 1233
5382 9 1235 1231 1230 1232
5383 9 1235 1231 1230 1233
5384 9 1236 1231 1230 1232
5385 9 1236 1231 1230 1233
5386 10 1812 1809 1806 1805
5387 4 1812 1809 1806 1810
5388 4 1812 1809 1806 1811
5389 11 1813 1809 1806 1805
5390 6 1813 1809 1806 1810
5391 6 1813 1809 1806 1811
5392 11 1814 1809 1806 1805
5393 6 1814 1809 1806 1810
5394 6 1814 1809 1806 1811
5395 7 1274 1271 1268 1265
5396 4 1274 1271 1268 1272
5397 4 1274 1271 1268 1273
5398 4 1275 1271 1268 1265
5399 6 1275 1271 1268 1272
5400 6 1275 1271 1268 1273
5401 4 1276 1271 1268 1265
5402 6 1276 1271 1268 1272
5403 6 1276 1271 1268 1273
5404 7 1271 1268 1265 1262
5405 4 1271 1268 1265 1269
5406 4 1271 1268 1265 1270
5407 4 1272 1268 1265 1262
5408 6 1272 1268 1265 1269
5409 6 1272 1268 1265 1270
5410 4 1273 1268 1265 1262
5411 6 1273 1268 1265 1269
5412 6 1273 1268 1265 1270
5413 7 1243 1240 1237 1234
5414 4 1243 1240 1237 1241
5415 4 1243 1240 1237 1242
5416 4 1244 1240 1237 1234
5417 6 1244 1240 1237 1241
5418 6 1244 1240 1237 1242
5419 4 1245 1240 1237 1234
5420 6 1245 1240 1237 1241
5421 6 1245 1240 1237 1242
5422 4 1252 1249 1246 1243
5423 6 1252 1249 1246 1250
5424 6 1252 1249 1246 1251
5425 4 1253 1249 1246 1243
5426 6 1253 1249 1246 1250
5427 6 1253 1249 1246 1251
5428 4 1254 1249 1246 1243
5429 6 1254 1249 1246 1250
5430 6 1254 1249 1246 1251
5431 7 1949 1946 1943 1940
5432 4 1949 1946 1943 1947
5433 4 1949 1946 1943 1948
5434 4 1950 1946 1943 1940
5435 6 1950 1946 1943 1947
5436 6 1950 1946 1943 1948
5437 4 1951 1946 1943 1940
5438 6 1951 1946 1943 1947
5439 6 1951 1946 1943 1948
5440 7 1240 1237 1234 1231
5441 4 1240 1237 1234 1238
5442 4 1240 1237 1234 1239
5443 4 1241 1237 1234 1231
5444 6 1241 1237 1234 1238
5445 6 1241 1237 1234 1239
5446 4 1242 1237 1234 1231
5447 6 1242 1237 1234 1238
5448 6 1242 1237 1234 1239
5449 7 1815 1812 1809 1806
5450 4 1815 1812 1809 1813
5451 4 1815 1812 1809 1814
5452 4 1816 1812 1809 1806
5453 6 1816 1812 1809 1813
5454 6 1816 1812 1809 1814
5455 4 1817 1812 1809 1806
5456 6 1817 1812 1809 1813
5457 6 1817 1812 1809 1814
5458 7 2124 2121 2118 2115
5459 4 2124 2121 2118 2122
5460 4 2124 2121 2118 2123
5461 4 2125 2121 2118 2115
5462 6 2125 2121 2118 2122
5463 6 2125 2121 2118 2123
5464 4 2126 2121 2118 2115
5465 6 2126 2121 2118 2122
5466 6 2126 2121 2118 2123
5467 10 1262 1259 1256 1255
5468 4 1262 1259 1256 1260
5469 4 1262 1259 1256 1261
5470 11 1263 1259 1256 1255
5471 6 1263 1259 1256 1260
5472 6 1263 1259 1256 1261
5473 11 1264 1259 1256 1255
5474 6 1264 1259 1256 1260
5475 6 1264 1259 1256 1261
5476 7 1265 1262 1259 1256
5477 4 1265 1262 1259 1263
5478 4 1265 1262 1259 1264
5479 4 1266 1262 1259 1256
5480 6 1266 1262 1259 1263
5481 6 1266 1262 1259 1264
5482 4 1267 1262 1259 1256
5483 6 1267 1262 1259 1263
5484 6 1267 1262 1259 1264
5485 7 1268 1265 1262 1259
5486 4 1268 1265 1262 1266
5487 4 1268 1265 1262 1267
5488 4 1269 1265 1262 1259
5489 6 1269 1265 1262 1266
5490 6 1269 1265 1262 1267
5491 4 1270 1265 1262 1259
5492 6 1270 1265 1262 1266
5493 6 1270 1265 1262 1267
5494 7 1249 1246 1243 1240
5495 4 1249 1246 1243 1247
5496 4 1249 1246 1243 1248
5497 4 1250 1246 1243 1240
5498 6 1250 1246 1243 1247
5499 6 1250 1246 1243 1248
5500 4 1251 1246 1243 1240
5501 6 1251 1246 1243 1247
5502 6 1251 1246 1243 1248
5503 4 1952 1949 1946 1943
5504 6 1952 1949 1946 1950
5505 6 1952 1949 1946 1951
5506 4 1953 1949 1946 1943
5507 6 1953 1949 1946 1950
5508 6 1953 1949 1946 1951
5509 4 1954 1949 1946 1943
5510 6 1954 1949 1946 1950
5511 6 1954 1949 1946 1951
5512 7 1246 1243 1240 1237
5513 4 1246 1243 1240 1244
5514 4 1246 1243 1240 1245
5515 4 1247 1243 1240 1237
5516 6 1247 1243 1240 1244
5517 6 1247 1243 1240 1245
5518 4 1248 1243 1240 1237
5519 6 1248 1243 1240 1244
5520 6 1248 1243 1240 1245
