LAMMPS (10 Dec 2025)
OMP_NUM_THREADS environment is not set. Defaulting to 1 thread.
  using 1 OpenMP thread(s) per MPI task
# created by fftool

units real
boundary p p p

atom_style full
bond_style harmonic
angle_style harmonic
dihedral_style opls

special_bonds lj/coul 0.0 0.0 0.5

# remove hybrid if not necessary
pair_style hybrid lj/cut/coul/long 10.0 10.0
pair_modify mix geometric tail yes
read_data data.lmp
Reading data file ...
  orthogonal box = (0 0 0) to (34.81 34.81 34.81)
  1 by 1 by 2 MPI processor grid
  reading atoms ...
  2880 atoms
  scanning bonds ...
  1 = max bonds/atom
  scanning angles ...
  6 = max angles/atom
  scanning dihedrals ...
  9 = max dihedrals/atom
  orthogonal box = (0 0 0) to (34.81 34.81 34.81)
  1 by 1 by 2 MPI processor grid
  reading bonds ...
  2592 bonds
  reading angles ...
  4368 angles
  reading dihedrals ...
  5520 dihedrals
Finding 1-2 1-3 1-4 neighbors ...
  special bond factors lj:    0        0        0.5     
  special bond factors coul:  0        0        0.5     
     4 = max # of 1-2 neighbors
     6 = max # of 1-3 neighbors
    12 = max # of 1-4 neighbors
    16 = max # of special neighbors
  special bonds CPU = 0.004 seconds
  read_data CPU = 0.332 seconds
# read_restart restart1.lmp

kspace_style pppm 1.0e-5

# remove pair style if not using hybrid
pair_coeff    1    1 lj/cut/coul/long     0.170000     3.250000  # N1 N1
pair_coeff    2    2 lj/cut/coul/long     0.065999     3.500000  # C1N C1N
pair_coeff    3    3 lj/cut/coul/long     0.000000     0.000000  # HN HN
pair_coeff    4    4 lj/cut/coul/long     0.065999     3.500000  # CS CS
pair_coeff    5    5 lj/cut/coul/long     0.030000     2.500000  # H1N H1N
pair_coeff    6    6 lj/cut/coul/long     0.030000     2.500000  # HC HC
pair_coeff    7    7 lj/cut/coul/long     0.065999     3.500000  # CEN CEN
pair_coeff    8    8 lj/cut/coul/long     0.030000     2.500000  # HCN HCN
pair_coeff    9    9 lj/cut/coul/long     0.105000     3.750000  # CO2 CO2
pair_coeff   10   10 lj/cut/coul/long     0.065999     3.500000  # C2C C2C
pair_coeff   11   11 lj/cut/coul/long     0.210000     2.960000  # O2 O2
pair_coeff   12   12 lj/cut/coul/long     0.065999     3.500000  # CT CT
pair_coeff   13   13 lj/cut/coul/long     0.000000     1.000000  # Hw Hw
pair_coeff   14   14 lj/cut/coul/long     0.155425     3.165500  # Ow Ow

# minimize 1.0e-4 1.0e-6 100 1000
# reset_timestep 0

fix SHAKE all shake 0.0001 20 0 b 2 4 7
Finding SHAKE clusters ...
       0 = # of size 2 clusters
     720 = # of size 3 clusters
     144 = # of size 4 clusters
       0 = # of frozen angles
  find clusters CPU = 0.018 seconds

neighbor 2.0 bin
neigh_modify delay 0 every 1 check yes








#fix VAVG all ave/time 10 1000 50000 v_vinst

# ---------------------------------------------------------------------------
# RENEU 2026 simulation protocol (stage2 M3 hexylammonium octanoate)
# 1 minimise  2 NVT relaxation  3 NPT equilibration  4 NPT production
# ---------------------------------------------------------------------------
timestep 1.0

variable TK      equal 300.0
variable PBAR    equal 1.0
variable NVTRUN  equal 20000
variable EQRUN   equal 100000
variable PRODRUN equal 200000

variable dens equal density
variable vol  equal vol

thermo 1000
thermo_style custom step temp press vol v_dens pe etotal

# --- 1. energy minimisation ------------------------------------------------
print "RENEU >>> stage 1 of 4: energy minimisation"
RENEU >>> stage 1 of 4: energy minimisation
minimize 1.0e-4 1.0e-6 10000 100000
PPPM initialization ...
  using 12-bit tables for long-range coulomb
  G vector (1/distance) = 0.28735757
  grid = 24 24 24
  stencil order = 5
  estimated absolute RMS force accuracy = 0.0024075284
  estimated relative force accuracy = 7.2502003e-06
  using double precision FFTW3
  3d grid and FFT values/proc = 18259 6912
Generated 91 of 91 mixed pair_coeff terms from geometric mixing rule
WARNING: Using fix shake with minimization.
  Substituting constraints with harmonic restraint forces using kbond=1987206.7 (src/RIGID/fix_shake.cpp:397)
Neighbor list info ...
  update: every = 1 steps, delay = 0 steps, check = yes
  max neighbors/atom: 2000, page size: 100000
  master list distance cutoff = 12
  ghost atom cutoff = 12
  binsize = 6, bins = 6 6 6
  1 neighbor lists, perpetual/occasional/extra = 1 0 0
  (1) pair lj/cut/coul/long, perpetual
      attributes: half, newton on
      pair build: half/bin/newton
      stencil: half/bin/3d
      bin: standard
Per MPI rank memory allocation (min/avg/max) = 17.11 | 17.3 | 17.5 Mbytes
   Step          Temp          Press          Volume         v_dens         PotEng         TotEng    
         0   0             -12644241       42180.534      0.59989717     206316.04      206316.04    
         8   0              426.91866      42180.534      0.59989717     402.81545      402.81545    
Loop time of 2.56529 on 2 procs for 8 steps with 2880 atoms

99.4% CPU use with 2 MPI tasks x 1 OpenMP threads

Minimization stats:
  Stopping criterion = energy tolerance
  Energy initial, next-to-last, final = 
      206316.038353252   402.851854653047   402.815446884004
  Force two-norm initial, final = 1585189.4 4661.0029
  Force max component initial, final = 81987.907 302.60042
  Final line search alpha, max atom move = 2.0477079e-05 0.0061963727
  Iterations, force evaluations = 8 42

MPI task timing breakdown:
Section |  min time  |  avg time  |  max time  |%varavg| %total
---------------------------------------------------------------
Pair    | 1.6332     | 1.7772     | 1.9212     |  10.8 | 69.28
Bond    | 0.071312   | 0.085331   | 0.099351   |   4.8 |  3.33
Kspace  | 0.46397    | 0.62205    | 0.78012    |  20.0 | 24.25
Neigh   | 0          | 0          | 0          |   0.0 |  0.00
Comm    | 0.029789   | 0.036014   | 0.042238   |   3.3 |  1.40
Output  | 0          | 0          | 0          |   0.0 |  0.00
Modify  | 0.018386   | 0.020199   | 0.022012   |   1.3 |  0.79
Other   |            | 0.02449    |            |       |  0.95

Nlocal:           1440 ave        1648 max        1232 min
Histogram: 1 0 0 0 0 0 0 0 0 1
Nghost:           7859 ave        8351 max        7367 min
Histogram: 1 0 0 0 0 0 0 0 0 1
Neighs:         401250 ave      440059 max      362441 min
Histogram: 1 0 0 0 0 0 0 0 0 1

Total # of neighbors = 802500
Ave neighs/atom = 278.64583
Ave special neighs/atom = 8.6333333
Neighbor list builds = 0
Dangerous builds = 0
reset_timestep 0

# --- 2. NVT relaxation (lets the packed box relax before the barostat) ------
print "RENEU >>> stage 2 of 4: NVT relaxation"
RENEU >>> stage 2 of 4: NVT relaxation
velocity all create ${TK} 12345 mom yes rot yes dist gaussian
velocity all create 300 12345 mom yes rot yes dist gaussian
fix NVTRELAX all nvt temp ${TK} ${TK} 100
fix NVTRELAX all nvt temp 300 ${TK} 100
fix NVTRELAX all nvt temp 300 300 100
run ${NVTRUN}
run 20000
PPPM initialization ...
  using 12-bit tables for long-range coulomb
  G vector (1/distance) = 0.28735757
  grid = 24 24 24
  stencil order = 5
  estimated absolute RMS force accuracy = 0.0024075284
  estimated relative force accuracy = 7.2502003e-06
  using double precision FFTW3
  3d grid and FFT values/proc = 18259 6912
Generated 91 of 91 mixed pair_coeff terms from geometric mixing rule
Per MPI rank memory allocation (min/avg/max) = 15.99 | 16.18 | 16.37 Mbytes
   Step          Temp          Press          Volume         v_dens         PotEng         TotEng    
         0   300            21456.271      42180.534      0.59989717     400.96681      2417.4848    
      1000   310.97578     -267.48404      42180.534      0.59989717    -6952.6582     -4862.364     
      2000   301.91018     -22.680853      42180.534      0.59989717    -7416.0047     -5386.6469    
      3000   298.8687       96.829361      42180.534      0.59989717    -7498.2955     -5489.3817    
      4000   302.97898     -584.52646      42180.534      0.59989717    -7600.7971     -5564.2552    
      5000   305.63978      163.07422      42180.534      0.59989717    -7639.8803     -5585.4532    
      6000   297.50613     -1493.661       42180.534      0.59989717    -7827.0564     -5827.3016    
      7000   299.09635     -1025.8051      42180.534      0.59989717    -7789.0981     -5778.6542    
      8000   289.48655      455.08542      42180.534      0.59989717    -7846.0666     -5900.2172    
      9000   297.41555     -328.66406      42180.534      0.59989717    -7967.8382     -5968.6922    
     10000   308.37626     -773.16297      42180.534      0.59989717    -7900.184      -5827.3631    
     11000   309.75412     -475.65509      42180.534      0.59989717    -8074.6032     -5992.5207    
     12000   290.17362     -274.06534      42180.534      0.59989717    -8060.978      -6110.5102    
     13000   301.29288     -559.18272      42180.534      0.59989717    -8066.8075     -6041.5992    
     14000   295.86989     -1677.6465      42180.534      0.59989717    -8125.0112     -6136.2547    
     15000   307.10855     -1206.5696      42180.534      0.59989717    -8144.5751     -6080.2754    
     16000   304.06103     -530.32358      42180.534      0.59989717    -8155.8977     -6112.0826    
     17000   300.70559     -824.70649      42180.534      0.59989717    -8105.6622     -6084.4015    
     18000   303.40925     -228.58519      42180.534      0.59989717    -8175.5115     -6136.0775    
     19000   291.85539     -1066.3921      42180.534      0.59989717    -8196.002      -6234.2298    
     20000   301.76151      304.50655      42180.534      0.59989717    -8107.0276     -6078.6692    
Loop time of 1133.95 on 2 procs for 20000 steps with 2880 atoms

Performance: 1.524 ns/day, 15.749 hours/ns, 17.637 timesteps/s, 50.796 katom-step/s
98.3% CPU use with 2 MPI tasks x 1 OpenMP threads

MPI task timing breakdown:
Section |  min time  |  avg time  |  max time  |%varavg| %total
---------------------------------------------------------------
Pair    | 518.57     | 576.71     | 634.86     | 242.1 | 50.86
Bond    | 46.094     | 50.198     | 54.303     |  57.9 |  4.43
Kspace  | 306.33     | 365.6      | 424.87     | 310.0 | 32.24
Neigh   | 66.839     | 66.976     | 67.114     |   1.7 |  5.91
Comm    | 37.907     | 40.608     | 43.309     |  42.4 |  3.58
Output  | 0.0025825  | 0.014587   | 0.026591   |   9.9 |  0.00
Modify  | 28.374     | 28.801     | 29.227     |   8.0 |  2.54
Other   |            | 5.045      |            |       |  0.44

Nlocal:           1440 ave        1645 max        1235 min
Histogram: 1 0 0 0 0 0 0 0 0 1
Nghost:           7781 ave        8331 max        7231 min
Histogram: 1 0 0 0 0 0 0 0 0 1
Neighs:         382506 ave      450916 max      314097 min
Histogram: 1 0 0 0 0 0 0 0 0 1

Total # of neighbors = 765013
Ave neighs/atom = 265.62951
Ave special neighs/atom = 8.6333333
Neighbor list builds = 980
Dangerous builds = 0
unfix NVTRELAX

# --- 3. NPT equilibration (this is where the density finds its own value) ---
# restart files are written every 25000 steps. If the run stops for any
# reason you can pick up from the last one instead of starting over:
#     read_restart rst_a.lmp      (or rst_b.lmp, whichever is newer)
print "RENEU >>> stage 3 of 4: NPT equilibration - watch the density column"
RENEU >>> stage 3 of 4: NPT equilibration - watch the density column
restart 25000 rst_a.lmp rst_b.lmp
fix NPTEQ all npt temp ${TK} ${TK} 100 iso ${PBAR} ${PBAR} 1000
fix NPTEQ all npt temp 300 ${TK} 100 iso ${PBAR} ${PBAR} 1000
fix NPTEQ all npt temp 300 300 100 iso ${PBAR} ${PBAR} 1000
fix NPTEQ all npt temp 300 300 100 iso 1 ${PBAR} 1000
fix NPTEQ all npt temp 300 300 100 iso 1 1 1000
run ${EQRUN}
run 100000
PPPM initialization ...
  using 12-bit tables for long-range coulomb
  G vector (1/distance) = 0.28735757
  grid = 24 24 24
  stencil order = 5
  estimated absolute RMS force accuracy = 0.0024075284
  estimated relative force accuracy = 7.2502003e-06
  using double precision FFTW3
  3d grid and FFT values/proc = 18259 6912
Generated 91 of 91 mixed pair_coeff terms from geometric mixing rule
Per MPI rank memory allocation (min/avg/max) = 15.99 | 16.18 | 16.37 Mbytes
   Step          Temp          Press          Volume         v_dens         PotEng         TotEng    
     20000   301.76151      304.53255      42180.534      0.59989717    -8107.0276     -6078.6692    
     21000   305.54922     -527.75703      38038.697      0.66521687    -8273.1935     -6219.3752    
     22000   304.92603     -165.71008      35336.468      0.71608693    -8324.3342     -6274.7047    
     23000   301.08967     -254.64314      33718.253      0.75045355    -8390.954      -6367.1115    
     24000   295.75726      757.2186       32105.733      0.78814532    -8449.1827     -6461.1832    
     25000   302.15284      1227.277       31264.628      0.80934861    -8445.884      -6414.8952    
     26000   300.94875     -544.28945      31393.6        0.8060236     -8418.8853     -6395.99      
     27000   300.13116     -180.64417      31028.409      0.81551017    -8446.2362     -6428.8366    
     28000   306.21046     -462.12123      30373.418      0.83309632    -8523.1973     -6464.9343    
     29000   288.8264      -413.77572      29658.491      0.85317836    -8548.7771     -6607.365     
     30000   300.48503     -426.00941      29327.066      0.86282012    -8495.68       -6475.9018    
     31000   304.2228      -285.57002      29233.982      0.86556744    -8507.342      -6462.4394    
     32000   295.96845      736.86909      28950.392      0.87404631    -8530.3779     -6540.9588    
     33000   293.34554      86.710818      29097.272      0.86963421    -8504.9608     -6533.1722    
     34000   296.8853       353.03135      28940.384      0.87434855    -8570.863      -6575.2812    
     35000   296.26873     -432.95489      29143.271      0.86826159    -8556.0506     -6564.6131    
     36000   294.05044     -713.79127      29204.844      0.86643101    -8464.6635     -6488.1368    
     37000   299.09486     -590.24012      28755.842      0.87995973    -8604.9389     -6594.505     
     38000   301.52797      27.671727      28463.802      0.88898817    -8552.0599     -6525.2713    
     39000   305.9426       1308.5923      28591.643      0.88501326    -8597.5006     -6541.0381    
     40000   296.17844     -273.147        28376.461      0.89172441    -8519.5144     -6528.684     
     41000   305.67313     -779.22163      28662.388      0.88282884    -8622.1955     -6567.5443    
     42000   298.22171     -838.1875       28793.659      0.87880401    -8592.7832     -6588.2184    
     43000   298.98732     -374.12459      28234.37       0.89621206    -8655.1307     -6645.4197    
     44000   300.09951      6.1820245      28215.562      0.89680947    -8633.1203     -6615.9334    
     45000   302.791        524.58609      28199.547      0.89731876    -8685.5614     -6650.2831    
     46000   300.79476     -1471.6557      28245.878      0.89584691    -8656.6481     -6634.788     
     47000   295.47673     -556.52745      28115.449      0.90000279    -8619.282      -6633.1682    
     48000   290.79458      576.09566      27684.427      0.91401504    -8648.6349     -6693.9931    
     49000   298.19552     -863.60585      28425.297      0.89019237    -8608.3033     -6603.9145    
     50000   294.16682     -1947.3946      28042.527      0.90234317    -8615.5689     -6638.26      
     51000   296.11295     -104.23364      27993.802      0.90391376    -8625.245      -6634.8547    
     52000   302.73091     -2154.4761      27853.678      0.90846111    -8731.174      -6696.2996    
     53000   296.57877     -731.33994      27651.333      0.91510897    -8709.1044     -6715.5829    
     54000   303.76023      1762.9277      27842.244      0.90883418    -8689.4831     -6647.6899    
     55000   305.68591      974.72418      27565.433      0.91796067    -8623.8344     -6569.0973    
     56000   297.52661      367.49337      27496.37       0.92026632    -8690.2982     -6690.4057    
     57000   304.80631     -1088.166       27856.586      0.90836625    -8651.1095     -6602.2848    
     58000   294.16608      1002.7093      27494.136      0.92034108    -8692.1701     -6714.8662    
     59000   304.35859      626.702        27361.086      0.92481645    -8689.8605     -6644.0453    
     60000   298.83843     -243.27959      27813.771      0.90976456    -8653.8122     -6645.102     
     61000   295.53001     -696.64027      27104.519      0.93357063    -8728.427      -6741.955     
     62000   300.63022      376.03617      27541.888      0.9187454     -8685.47       -6664.7159    
     63000   296.35454     -197.71239      27303.326      0.92677292    -8714.6187     -6722.6045    
     64000   294.7859       191.25756      27433.903      0.92236175    -8681.1854     -6699.7151    
     65000   301.56087      786.28183      27867.493      0.90801074    -8646.4061     -6619.3963    
     66000   306.24357      67.094947      27454.72       0.92166238    -8714.589      -6656.1034    
     67000   297.02015      486.68991      27286.569      0.92734204    -8700.9845     -6704.4962    
     68000   290.34643     -1270.2328      27559.095      0.91817177    -8715.2359     -6763.6065    
     69000   294.97335      339.93732      27490.098      0.92047627    -8627.0616     -6644.3314    
     70000   297.76181     -551.32154      27796.849      0.91031838    -8628.6424     -6627.1689    
     71000   302.17559      664.66808      27351.456      0.92514209    -8602.3773     -6571.2356    
     72000   304.27426      625.33804      27348.217      0.92525165    -8658.1053     -6612.8569    
     73000   304.52069      408.06586      27050.948      0.93541946    -8697.9408     -6651.036     
     74000   299.76849     -473.44059      27702.898      0.91340562    -8639.8728     -6624.911     
     75000   312.06036     -258.10671      27886.338      0.90739712    -8649.9335     -6552.349     
     76000   301.95325     -1721.4247      27589.851      0.91714822    -8734.5258     -6704.8786    
     77000   296.59619     -241.30491      27369.789      0.92452239    -8663.5961     -6669.9576    
     78000   305.61251      1122.8825      27477.72       0.92089092    -8732.9809     -6678.7371    
     79000   291.85422      177.89378      27518.548      0.91952462    -8693.0392     -6731.2749    
     80000   301.16983     -962.2351       27575.328      0.91763127    -8718.2816     -6693.9003    
     81000   294.21432     -1012.5037      27712.6        0.91308584    -8659.3437     -6681.7155    
     82000   292.29933      459.4246       27322.114      0.92613561    -8712.8422     -6748.086     
     83000   298.09355     -708.18866      27880.042      0.90760205    -8701.0118     -6697.3084    
     84000   297.95106      1287.3291      27378.448      0.92423001    -8694.3477     -6691.6021    
     85000   296.0905      -1467.4565      27432.755      0.92240036    -8645.3954     -6655.156     
     86000   297.15666      233.88556      27427.635      0.92257253    -8701.3386     -6703.9327    
     87000   302.08418      568.59407      27154.779      0.93184272    -8754.9454     -6724.4181    
     88000   292.55036     -458.34849      27270.355      0.92789343    -8725.1319     -6758.6884    
     89000   291.21158     -362.42915      27347.476      0.92527673    -8723.0329     -6765.5882    
     90000   299.66523     -600.34637      27490.287      0.92046994    -8663.9403     -6649.6725    
     91000   295.20729     -232.05228      27228.327      0.92932566    -8750.6693     -6766.3665    
     92000   294.06837      355.25398      27757.16       0.91162001    -8674.5176     -6697.8704    
     93000   298.42519      779.45541      27621.047      0.91611236    -8629.8275     -6623.8949    
     94000   302.07637     -1087.7529      27265.461      0.92805995    -8724.3942     -6693.9194    
     95000   303.61497     -1303.8462      27795.873      0.91035034    -8702.6078     -6661.791     
     96000   297.18105      853.4315       27759.634      0.91153879    -8714.6588     -6717.0891    
     97000   296.35399      1069.0467      27723.497      0.91272694    -8617.0242     -6625.0137    
     98000   305.7283       891.54875      27292.87       0.92712797    -8690.9461     -6635.9241    
     99000   293.60489      555.88148      27358.226      0.92491314    -8786.4146     -6812.8828    
    100000   296.87328      460.63229      27648.132      0.91521491    -8651.5738     -6656.0728    
    101000   298.19224      954.23475      27054.576      0.935294      -8766.6766     -6762.3099    
    102000   298.56757     -1130.6396      27628.093      0.91587875    -8671.4057     -6664.5161    
    103000   299.08059      1324.6017      26998.361      0.93724144    -8685.0155     -6674.6776    
    104000   301.06665     -1124.4658      27539.876      0.91881252    -8750.5219     -6726.8342    
    105000   300.04         133.46852      27278.525      0.92761553    -8781.8748     -6765.0879    
    106000   291.30569     -241.49713      27445.886      0.92195903    -8666.5757     -6708.4985    
    107000   299.50986     -344.98914      27577.071      0.91757326    -8674.3737     -6661.1503    
    108000   295.02863     -170.89807      27440.085      0.92215396    -8705.8265     -6722.7247    
    109000   300.76369      1049.8549      27917.297      0.90639087    -8671.801      -6650.1497    
    110000   298.96793      1419.3215      27785.517      0.91068964    -8710.7145     -6701.1338    
    111000   304.56269      279.24013      27844.762      0.90875198    -8622.4747     -6575.2875    
    112000   300.20201      714.64057      27424.096      0.92269158    -8688.9838     -6671.1079    
    113000   294.76657     -298.84842      27237.811      0.92900208    -8741.2973     -6759.957     
    114000   299.85793      88.338131      27676.966      0.91426146    -8761.7836     -6746.2205    
    115000   299.29593      205.1052       27361.552      0.92480073    -8677.5283     -6665.7428    
    116000   298.39823     -257.56589      27656.335      0.91494346    -8636.9051     -6631.1538    
    117000   301.9664      -1106.3682      27658.931      0.91485757    -8734.9845     -6705.2489    
    118000   307.57794      740.5673       27498.461      0.92019632    -8690.6207     -6623.1659    
    119000   304.64774      125.94177      27774.286      0.9110579     -8670.7174     -6622.9586    
    120000   300.72166     -1011.3634      27280.237      0.92755728    -8716.4262     -6695.0574    
Loop time of 7478.01 on 2 procs for 100000 steps with 2880 atoms

Performance: 1.155 ns/day, 20.772 hours/ns, 13.373 timesteps/s, 38.513 katom-step/s
98.4% CPU use with 2 MPI tasks x 1 OpenMP threads

MPI task timing breakdown:
Section |  min time  |  avg time  |  max time  |%varavg| %total
---------------------------------------------------------------
Pair    | 3858       | 4049.2     | 4240.4     | 300.5 | 54.15
Bond    | 278.94     | 280.44     | 281.94     |   9.0 |  3.75
Kspace  | 1725.4     | 1919.2     | 2113.1     | 442.4 | 25.67
Neigh   | 332.58     | 332.94     | 333.3      |   2.0 |  4.45
Comm    | 199.75     | 201.69     | 203.63     |  13.6 |  2.70
Output  | 0.39341    | 0.43226    | 0.47112    |   5.9 |  0.01
Modify  | 595.89     | 599.16     | 602.42     |  13.3 |  8.01
Other   |            | 94.92      |            |       |  1.27

Nlocal:           1440 ave        1462 max        1418 min
Histogram: 1 0 0 0 0 0 0 0 0 1
Nghost:          10479 ave       10539 max       10419 min
Histogram: 1 0 0 0 0 0 0 0 0 1
Neighs:         549985 ave      578012 max      521958 min
Histogram: 1 0 0 0 0 0 0 0 0 1

Total # of neighbors = 1099970
Ave neighs/atom = 381.93403
Ave special neighs/atom = 8.6333333
Neighbor list builds = 3933
Dangerous builds = 0
unfix NPTEQ
write_data data.after_equilibration.lmp
System init for write_data ...
PPPM initialization ...
  using 12-bit tables for long-range coulomb
  G vector (1/distance) = 0.28442846
  grid = 20 20 20
  stencil order = 5
  estimated absolute RMS force accuracy = 0.0035391412
  estimated relative force accuracy = 1.0658019e-05
  using double precision FFTW3
  3d grid and FFT values/proc = 12393 4000
Generated 91 of 91 mixed pair_coeff terms from geometric mixing rule

# --- 4. NPT production - this is the trajectory you analyse ----------------
print "RENEU >>> stage 4 of 4: NPT production"
RENEU >>> stage 4 of 4: NPT production
reset_timestep 0
fix NPTPROD all npt temp ${TK} ${TK} 100 iso ${PBAR} ${PBAR} 1000
fix NPTPROD all npt temp 300 ${TK} 100 iso ${PBAR} ${PBAR} 1000
fix NPTPROD all npt temp 300 300 100 iso ${PBAR} ${PBAR} 1000
fix NPTPROD all npt temp 300 300 100 iso 1 ${PBAR} 1000
fix NPTPROD all npt temp 300 300 100 iso 1 1 1000
fix DENSAVG all ave/time 10 100 1000 v_dens v_vol file density.dat

dump TRAJ all custom 500 dump.lammpstrj id mol type element q xu yu zu
dump_modify TRAJ element N C H C H H C H C C O C H O

run ${PRODRUN}
run 200000
PPPM initialization ...
  using 12-bit tables for long-range coulomb
  G vector (1/distance) = 0.28442846
  grid = 20 20 20
  stencil order = 5
  estimated absolute RMS force accuracy = 0.0035391412
  estimated relative force accuracy = 1.0658019e-05
  using double precision FFTW3
  3d grid and FFT values/proc = 12393 4000
Generated 91 of 91 mixed pair_coeff terms from geometric mixing rule
Per MPI rank memory allocation (min/avg/max) = 16.31 | 16.5 | 16.69 Mbytes
   Step          Temp          Press          Volume         v_dens         PotEng         TotEng    
         0   300.72166     -998.58742      27280.237      0.92755728    -8716.4434     -6695.0746    
      1000   299.35083      48.835418      27068.293      0.93482006    -8713.0977     -6700.9432    
      2000   302.55249      937.09369      27235.76       0.92907204    -8736.7648     -6703.0897    
      3000   301.58678      674.20985      27336.907      0.92563444    -8713.651      -6686.4671    
      4000   309.46382     -653.59101      27576.479      0.91759295    -8694.4083     -6614.2771    
      5000   299.13857      582.19239      27599.563      0.9168255     -8659.9145     -6649.1868    
      6000   304.93806     -711.48968      27491.525      0.92042848    -8765.472      -6715.7617    
      7000   300.23786     -1171.621       27355.714      0.92499809    -8724.8541     -6706.7373    
      8000   294.75966      1459.2474      26927.069      0.93972289    -8737.5291     -6756.2352    
      9000   304.13189     -1333.1963      27114.264      0.93323508    -8748.6287     -6704.3373    
     10000   296.87398      97.22767       27107.179      0.93347901    -8789.7609     -6794.2551    
     11000   313.17901      161.30019      27196.1        0.93042688    -8732.9945     -6627.8908    
     12000   293.99163     -1806.0608      27322.782      0.92611297    -8755.0824     -6778.951     
     13000   302.09067     -830.33756      27532.833      0.91904754    -8696.8205     -6666.2496    
     14000   294.74728     -959.12916      27447.062      0.92191954    -8692.7767     -6711.5661    
     15000   296.47715     -742.90026      26903.028      0.94056264    -8705.8762     -6713.0379    
     16000   295.84426     -151.70232      27099.031      0.9337597     -8693.5341     -6704.9499    
     17000   295.23423      5.5313026      26918.154      0.94003412    -8743.203      -6758.7192    
     18000   305.80078      111.01573      27113.327      0.93326735    -8731.5071     -6675.9978    
     19000   298.74457      852.92428      26688.848      0.94811073    -8766.5606     -6758.4813    
     20000   304.16954      736.5722       27064.311      0.9349576     -8779.4654     -6734.9209    
     21000   300.27434      216.09805      26732.45       0.94656431    -8761.3343     -6742.9723    
     22000   304.18151     -239.05271      26886.083      0.94115541    -8785.9036     -6741.2787    
     23000   303.038       -227.03519      26958.214      0.9386372     -8791.18       -6754.2414    
     24000   303.61679     -1009.1409      26978.98       0.93791473    -8738.6711     -6697.842     
     25000   300.57385     -905.38862      26939.273      0.93929716    -8772.4423     -6752.067     
     26000   301.40618     -277.21197      27017.45       0.93657924    -8735.0972     -6709.1273    
     27000   295.77291      249.62858      26858.119      0.94213534    -8765.0483     -6776.9436    
     28000   304.97277     -88.058198      26894.086      0.94087537    -8819.5172     -6769.5736    
     29000   306.14075      240.05727      27163.012      0.93156026    -8698.9299     -6641.1355    
     30000   299.88241      511.06631      26832.671      0.94302886    -8802.1143     -6786.3867    
     31000   286.71105      321.95456      26407.12       0.95822575    -8785.2935     -6858.1001    
     32000   295.64381      890.41497      27101.854      0.93366243    -8757.2664     -6770.0295    
     33000   302.40251     -1628.7026      26832.253      0.94304355    -8718.6916     -6686.0246    
     34000   300.24032      1022.2832      26575.224      0.95216443    -8782.1755     -6764.0422    
     35000   295.38725      777.67954      26487.129      0.95533129    -8794.1016     -6808.5892    
     36000   305.08716      47.073621      26939.723      0.93928148    -8708.8211     -6658.1086    
     37000   300.78005      449.75582      26677.767      0.94850453    -8817.4897     -6795.7284    
     38000   298.3913       842.13125      26649.549      0.94950887    -8774.8587     -6769.154     
     39000   300.48354      955.85726      26888.898      0.94105688    -8793.2318     -6773.4635    
     40000   302.46353     -183.64908      26866.702      0.94183437    -8830.604      -6797.5269    
     41000   295.0769      -177.90038      27094.968      0.93389971    -8845.5195     -6862.0933    
     42000   300.84992     -1115.8162      26921.655      0.93991185    -8771.2182     -6748.9872    
     43000   309.31177      550.15718      26584.315      0.95183882    -8785.9692     -6706.86      
     44000   300.25934      896.82431      26848.379      0.94247712    -8689.7471     -6671.4859    
     45000   299.98846      908.25626      26700.263      0.94770539    -8839.1672     -6822.7268    
     46000   303.76145      172.15588      27025.966      0.93628411    -8824.9497     -6783.1483    
     47000   295.64724     -460.59975      27141.446      0.93230047    -8726.0978     -6738.8379    
     48000   298.12586     -193.3467       27209.221      0.92997822    -8739.4269     -6735.5064    
     49000   293.73613     -937.62244      27290.025      0.9272246     -8815.9833     -6841.5694    
     50000   301.62885     -23.113066      26917.184      0.94006799    -8778.7252     -6751.2585    
     51000   293.14757     -31.063038      26781.452      0.94483236    -8830.5543     -6860.0965    
     52000   302.47869      364.05192      27012.5        0.93675087    -8803.5856     -6770.4065    
     53000   288.45272      68.536614      27103.024      0.93362212    -8783.1522     -6844.2518    
     54000   296.69569      18.021498      26810.179      0.94381999    -8774.0686     -6779.7613    
     55000   302.95674     -276.27577      26983.146      0.93776994    -8750.8737     -6714.4813    
     56000   292.37134      641.58654      26791.554      0.9444761     -8784.1985     -6818.9583    
     57000   305.22457     -357.2593       27072.732      0.93466676    -8766.2471     -6714.611     
     58000   309.64895     -630.81282      26877.161      0.94146785    -8785.6717     -6704.2961    
     59000   291.873       -1944.5781      27107.883      0.93345479    -8793.1144     -6831.2239    
     60000   302.30349     -285.22023      26929.527      0.9396371     -8800.0649     -6768.0635    
     61000   299.14656      818.30613      27096.523      0.93384613    -8767.6123     -6756.8309    
     62000   297.22867      1246.5782      27060.978      0.93507275    -8799.8432     -6801.9533    
     63000   294.12901     -500.73663      27103.415      0.93360866    -8807.2453     -6830.1905    
     64000   299.9161       208.13801      26927.996      0.93969054    -8782.647      -6766.693     
     65000   302.54461     -203.47553      27047.383      0.93554275    -8689.5925     -6655.9703    
     66000   305.18349      67.730586      26904.58       0.94050837    -8791.0768     -6739.7168    
     67000   297.96315     -338.23467      27052.197      0.93537626    -8797.5563     -6794.7294    
     68000   304.5652      -415.23658      27000.483      0.93716777    -8742.5722     -6695.3682    
     69000   307.25866      309.63087      27012.609      0.9367471     -8847.7801     -6782.4714    
     70000   289.12254     -883.27815      26927.72       0.93970016    -8819.8477     -6876.445     
     71000   295.70107     -225.83094      26988.062      0.93759911    -8776.5754     -6788.9536    
     72000   306.33481     -514.81162      27023.421      0.93637229    -8732.3958     -6673.297     
     73000   300.28117      965.52417      26730.722      0.9466255     -8776.2758     -6757.8678    
     74000   310.36606     -1847.6332      27221.97       0.92954269    -8723.3221     -6637.1263    
     75000   304.11933      1154.2073      27076.886      0.93452338    -8765.1863     -6720.9793    
     76000   309.46785     -25.382701      27413.214      0.92305787    -8798.7402     -6718.5819    
     77000   300.9521       751.00653      26933.03       0.93951489    -8786.0526     -6763.1349    
     78000   309.68075      1662.7737      27305.174      0.92671017    -8723.467      -6641.8777    
     79000   303.36337      120.08067      27515.882      0.91961373    -8836.7001     -6797.5744    
     80000   308.84457     -171.44641      27640.33       0.91547327    -8797.3488     -6721.3801    
     81000   303.50671     -435.86402      27265.706      0.92805162    -8745.1917     -6705.1025    
     82000   304.3743       84.04732       27343.459      0.92541264    -8759.1569     -6713.2361    
     83000   303.06103     -49.439048      27466.686      0.92126086    -8794.4382     -6757.3448    
     84000   297.41888      1083.0895      27106.972      0.93348615    -8824.2858     -6825.1173    
     85000   302.73462      597.38726      27095.297      0.93388836    -8765.4187     -6730.5194    
     86000   296.55284     -169.43897      27523.227      0.91936832    -8789.4204     -6796.0733    
     87000   294.34342     -85.660123      27171.419      0.93127204    -8820.9788     -6842.4828    
     88000   311.59472     -1569.3581      27291.458      0.92717594    -8805.0494     -6710.5948    
     89000   299.23564      39.924287      27273.223      0.92779583    -8822.1265     -6810.7463    
     90000   307.87733      255.14797      27221.865      0.92954626    -8780.6012     -6711.1339    
     91000   298.92636     -867.75502      27392.562      0.9237538     -8797.7075     -6788.4062    
     92000   302.19087     -525.56609      27711.31       0.91312834    -8785.4964     -6754.252     
     93000   304.91138      57.875686      27024.197      0.93634542    -8791.4569     -6741.926     
     94000   300.76031      238.36753      27179.995      0.93097822    -8772.9807     -6751.3522    
     95000   296.30833      1578.8518      26946.89       0.93903167    -8784.0176     -6792.314     
     96000   299.99255     -663.47234      27348.294      0.92524906    -8821.5885     -6805.1206    
     97000   301.0786      -774.35211      27054.549      0.93529494    -8792.6482     -6768.8801    
     98000   296.49676     -519.12543      27136.227      0.93247979    -8754.001      -6761.0308    
     99000   296.78201     -170.47271      27344.266      0.92538535    -8800.6929     -6805.8053    
    100000   306.41313      245.36442      27152.01       0.93193776    -8771.0954     -6711.4701    
    101000   298.4803       334.99576      26902.767      0.94057177    -8811.0539     -6804.7509    
    102000   292.78108     -1215.6669      27181.371      0.93093106    -8755.7403     -6787.7459    
    103000   302.81915     -900.78003      27216.393      0.92973316    -8769.4043     -6733.9368    
    104000   306.18139      1304.3234      27090.832      0.93404229    -8710.1103     -6652.0427    
    105000   305.68266      554.64283      27133.058      0.93258868    -8798.5545     -6743.8392    
    106000   299.76118      126.60288      26956.487      0.93869736    -8804.3446     -6789.4319    
    107000   295.74504      652.5218       27700.073      0.91349878    -8747.2518     -6759.3345    
    108000   297.62402      311.88091      27317.459      0.92629343    -8696.7059     -6696.1586    
    109000   298.08759      1189.803       27092.928      0.93397003    -8807.7607     -6804.0974    
    110000   303.66451     -470.10936      27132.241      0.93261678    -8787.6228     -6746.4729    
    111000   298.60271      734.06254      26924.141      0.93982508    -8832.0495     -6824.9238    
    112000   294.71187     -91.599967      27283.843      0.92743472    -8748.5347     -6767.5621    
    113000   301.17075      932.29299      27018.145      0.93655514    -8694.3956     -6670.0081    
    114000   290.31636      304.70317      26619.337      0.95058653    -8763.4813     -6812.054     
    115000   300.56566      399.7767       27088.248      0.93413139    -8854.0347     -6833.7145    
    116000   292.69006     -890.51278      27214.736      0.92978977    -8771.8259     -6804.4433    
    117000   302.65022      984.1815       26975.771      0.9380263     -8835.8382     -6801.5062    
    118000   301.39511      1513.2416      26907.196      0.94041694    -8766.7919     -6740.8964    
    119000   313.0191       1365.3975      26940.648      0.93924922    -8872.234      -6768.2052    
    120000   300.93995     -280.26027      26803.414      0.94405822    -8876.9213     -6854.0852    
    121000   302.05937     -336.08367      27098.62       0.93377385    -8796.2669     -6765.9064    
    122000   295.72501      831.59976      27100.416      0.93371196    -8805.199      -6817.4163    
    123000   294.21155     -291.1223       26671.111      0.94874122    -8838.907      -6861.2974    
    124000   292.92576     -561.27162      27158.49       0.93171539    -8723.5752     -6754.6083    
    125000   295.78594      168.06777      26911.873      0.9402535     -8821.9097     -6833.7175    
    126000   299.13368     -620.83703      27140.764      0.93232389    -8799.5438     -6788.849     
    127000   312.84477      875.97433      26807.695      0.94390745    -8814.1112     -6711.2542    
    128000   295.3537       119.56811      26704.067      0.94757039    -8837.0331     -6851.7462    
    129000   310.31983     -49.914746      26988.235      0.93759309    -8845.1464     -6759.2614    
    130000   296.06834      1355.4531      26806.382      0.94395366    -8856.6141     -6866.5236    
    131000   303.64239     -1203.9634      26781.942      0.9448151     -8810.6524     -6769.6512    
    132000   296.31822      1358.8591      26797.566      0.94426423    -8847.5041     -6855.7341    
    133000   302.44011      292.14767      26775.708      0.94503506    -8805.0287     -6772.109     
    134000   297.99429     -1638.5957      27022.242      0.93641314    -8785.3457     -6782.3096    
    135000   296.58447     -217.68313      26852.711      0.94232506    -8788.4009     -6794.8412    
    136000   300.02885     -81.560857      26926.039      0.93975884    -8856.3389     -6839.627     
    137000   301.94131     -367.70512      26728.27       0.94671233    -8798.943      -6769.3761    
    138000   306.52527      1160.5921      26987.458      0.93762009    -8816.7968     -6756.4177    
    139000   290.31072      439.77936      26834.899      0.94295056    -8852.2966     -6900.9073    
    140000   303.61012      1291.7711      26697.437      0.94780568    -8830.0075     -6789.2232    
    141000   292.4842       950.5695       27031.76       0.93608343    -8835.7458     -6869.747     
    142000   297.77061     -593.85535      27066.561      0.93487987    -8809.2531     -6807.7204    
    143000   307.54605     -230.32121      27073.685      0.93463386    -8814.391      -6747.1505    
    144000   294.37127     -1182.6343      26843.975      0.94263173    -8737.9814     -6759.2982    
    145000   290.90002     -119.62904      27349.063      0.92522304    -8773.033      -6817.6826    
    146000   300.84177      215.25106      27309.157      0.92657501    -8785.2258     -6763.0497    
    147000   294.05872      521.75753      26801.756      0.94411659    -8781.0677     -6804.4853    
    148000   305.02225     -274.64917      26963.403      0.93845658    -8773.5477     -6723.2715    
    149000   299.17002      585.41676      27186.164      0.93076695    -8717.4935     -6706.5544    
    150000   294.43123     -661.12615      27167.824      0.93139526    -8786.4641     -6807.3779    
    151000   298.41534     -1038.4785      27186.386      0.93075936    -8873.0387     -6867.1724    
    152000   299.76018     -734.69304      27015.547      0.93664521    -8777.3745     -6762.4685    
    153000   306.23559      41.922461      26856.26       0.94220053    -8752.9783     -6694.5464    
    154000   299.16117     -279.74252      26613.023      0.95081206    -8762.0354     -6751.1558    
    155000   299.24688      481.88302      26845.046      0.94259413    -8878.5559     -6867.1002    
    156000   295.86902     -923.90694      26836.084      0.94290891    -8783.6363     -6794.8857    
    157000   302.44029     -1422.303       27194.916      0.93046739    -8764.8568     -6731.9358    
    158000   296.85856     -855.52248      26908.512      0.94037094    -8783.0435     -6787.6414    
    159000   297.7954       421.5031       26821.09       0.94343605    -8832.1454     -6830.4461    
    160000   292.91385      425.37679      26601.941      0.95120813    -8765.579      -6796.6922    
    161000   299.22455     -1741.0831      27070.163      0.93475546    -8829.0475     -6817.7419    
    162000   303.6372       1069.7632      26978.521      0.93793071    -8824.4766     -6783.5103    
    163000   304.05872     -859.76172      26525.543      0.95394779    -8942.6146     -6898.815     
    164000   295.2917       65.07644       26898.237      0.94073015    -8817.0873     -6832.2173    
    165000   301.15906      1079.8685      26686.678      0.9481878     -8749.444      -6725.1352    
    166000   291.04678     -908.60026      26869.529      0.94173526    -8794.216      -6837.8791    
    167000   301.36141      1370.5554      26709.746      0.94736891    -8807.1551     -6781.4861    
    168000   308.18044      210.64617      26653.006      0.94938569    -8846.5296     -6775.0249    
    169000   295.3408       82.23054       26994.716      0.93736798    -8847.141      -6861.9409    
    170000   307.70925     -199.66096      26615.995      0.95070588    -8859.0234     -6790.6859    
    171000   293.30192     -1034.5451      27170.78       0.93129394    -8800.6746     -6829.1793    
    172000   298.3481      -288.53543      26866.734      0.94183322    -8800.8501     -6795.4357    
    173000   297.89778     -441.07154      26581.859      0.95192674    -8858.8788     -6856.4913    
    174000   298.20461      207.87739      26567.317      0.95244782    -8810.1863     -6805.7364    
    175000   298.81965     -132.97119      26972.239      0.93814914    -8838.3241     -6829.7401    
    176000   300.98511      77.582459      26773.871      0.94509991    -8851.6516     -6828.512     
    177000   309.42761      512.30561      26599.788      0.95128513    -8941.4864     -6861.5986    
    178000   300.68033     -755.57844      26990.073      0.93752924    -8780.2657     -6759.1747    
    179000   298.83545      1323.9782      27000.308      0.93717384    -8860.3412     -6851.651     
    180000   299.03145      66.933131      26715.924      0.94714984    -8736.2796     -6726.272     
    181000   292.58913     -1083.433       27523.615      0.91935534    -8749.2033     -6782.4992    
    182000   305.63564     -30.625535      26916.048      0.94010766    -8799.2516     -6744.8524    
    183000   291.63673      1159.9435      26631.431      0.95015485    -8833.2006     -6872.8982    
    184000   299.04122      764.81491      27191.634      0.93057971    -8821.8024     -6811.7291    
    185000   295.68375      70.444172      26636.244      0.94998316    -8786.7986     -6799.2932    
    186000   296.29544     -478.87467      27153.322      0.93189272    -8790.0962     -6798.4792    
    187000   296.40598      362.02358      26876.396      0.94149464    -8800.8461     -6808.4861    
    188000   297.94218     -715.91531      27229.893      0.92927221    -8789.0566     -6786.3707    
    189000   291.94302      282.30063      27491.042      0.92044465    -8805.972      -6843.6108    
    190000   305.166       -621.46678      26853.348      0.94230273    -8840.1064     -6788.8639    
    191000   297.90368      301.37186      26952.691      0.93882954    -8859.3558     -6856.9286    
    192000   299.31243      1652.2385      26753.762      0.94581025    -8842.6851     -6830.7887    
    193000   298.81959      265.38547      26736.815      0.94640978    -8806.1437     -6797.5601    
    194000   293.27214      80.131083      26838.343      0.94282957    -8877.9709     -6906.6757    
    195000   302.83355     -749.25552      26989.13       0.937562      -8781.7662     -6746.2019    
    196000   293.97215     -773.90159      26827.939      0.94319519    -8791.9236     -6815.9232    
    197000   301.61866      1040.0048      27006.551      0.93695722    -8802.6023     -6775.2041    
    198000   311.96775      57.725567      26973.624      0.93810096    -8820.4834     -6723.5215    
    199000   295.32789      111.94797      27020.582      0.93647067    -8730.2152     -6745.1019    
    200000   300.25822      1944.9999      26301.14       0.96208693    -8818.3425     -6800.0888    
Loop time of 13041.2 on 2 procs for 200000 steps with 2880 atoms

Performance: 1.325 ns/day, 18.113 hours/ns, 15.336 timesteps/s, 44.168 katom-step/s
98.1% CPU use with 2 MPI tasks x 1 OpenMP threads

MPI task timing breakdown:
Section |  min time  |  avg time  |  max time  |%varavg| %total
---------------------------------------------------------------
Pair    | 7499.3     | 7706.8     | 7914.3     | 236.4 | 59.10
Bond    | 500.68     | 504.48     | 508.29     |  16.9 |  3.87
Kspace  | 2474.5     | 2690.7     | 2907       | 416.9 | 20.63
Neigh   | 653.39     | 653.69     | 653.99     |   1.2 |  5.01
Comm    | 443.84     | 445.22     | 446.6      |   6.5 |  3.41
Output  | 13.329     | 15.448     | 17.566     |  53.9 |  0.12
Modify  | 879.63     | 879.77     | 879.91     |   0.5 |  6.75
Other   |            | 145.1      |            |       |  1.11

Nlocal:           1440 ave        1476 max        1404 min
Histogram: 1 0 0 0 0 0 0 0 0 1
Nghost:        10686.5 ave       10696 max       10677 min
Histogram: 1 0 0 0 0 0 0 0 0 1
Neighs:         569796 ave      584467 max      555124 min
Histogram: 1 0 0 0 0 0 0 0 0 1

Total # of neighbors = 1139591
Ave neighs/atom = 395.69132
Ave special neighs/atom = 8.6333333
Neighbor list builds = 7560
Dangerous builds = 0

write_data data.final.lmp
System init for write_data ...
PPPM initialization ...
  using 12-bit tables for long-range coulomb
  G vector (1/distance) = 0.28539241
  grid = 20 20 20
  stencil order = 5
  estimated absolute RMS force accuracy = 0.0034115362
  estimated relative force accuracy = 1.027374e-05
  using double precision FFTW3
  3d grid and FFT values/proc = 12393 4000
Generated 91 of 91 mixed pair_coeff terms from geometric mixing rule
print "RENEU >>> finished. trajectory = dump.lammpstrj, density log = density.dat"
RENEU >>> finished. trajectory = dump.lammpstrj, density log = density.dat
Total wall time: 6:00:57
