LAMMPS (10 Dec 2025)
OMP_NUM_THREADS environment is not set. Defaulting to 1 thread.
  using 1 OpenMP thread(s) per MPI task
# created by fftool

units real
boundary p p p

atom_style full
bond_style harmonic
angle_style harmonic
dihedral_style opls

special_bonds lj/coul 0.0 0.0 0.5

# remove hybrid if not necessary
pair_style hybrid lj/cut/coul/long 10.0 10.0
pair_modify mix geometric tail yes
read_data data.lmp
Reading data file ...
  orthogonal box = (0 0 0) to (36.29 36.29 36.29)
  1 by 1 by 2 MPI processor grid
  reading atoms ...
  3108 atoms
  scanning bonds ...
  1 = max bonds/atom
  scanning angles ...
  6 = max angles/atom
  scanning dihedrals ...
  9 = max dihedrals/atom
  orthogonal box = (0 0 0) to (36.29 36.29 36.29)
  1 by 1 by 2 MPI processor grid
  reading bonds ...
  2664 bonds
  reading angles ...
  4070 angles
  reading dihedrals ...
  4514 dihedrals
Finding 1-2 1-3 1-4 neighbors ...
  special bond factors lj:    0        0        0.5     
  special bond factors coul:  0        0        0.5     
     4 = max # of 1-2 neighbors
     9 = max # of 1-3 neighbors
    18 = max # of 1-4 neighbors
    22 = max # of special neighbors
  special bonds CPU = 0.005 seconds
  read_data CPU = 0.396 seconds
# read_restart restart1.lmp

kspace_style pppm 1.0e-5

# remove pair style if not using hybrid
pair_coeff    1    1 lj/cut/coul/long     0.170000     3.250000  # N3 N3
pair_coeff    2    2 lj/cut/coul/long     0.065999     3.500000  # C1 C1
pair_coeff    3    3 lj/cut/coul/long     0.000000     1.000000  # H3 H3
pair_coeff    4    4 lj/cut/coul/long     0.065999     3.500000  # CE CE
pair_coeff    5    5 lj/cut/coul/long     0.030000     2.500000  # H1 H1
pair_coeff    6    6 lj/cut/coul/long     0.030000     2.500000  # HC HC
pair_coeff    7    7 lj/cut/coul/long     0.105000     3.750000  # CO2 CO2
pair_coeff    8    8 lj/cut/coul/long     0.065999     3.500000  # CTA CTA
pair_coeff    9    9 lj/cut/coul/long     0.210000     2.960000  # O2 O2
pair_coeff   10   10 lj/cut/coul/long     0.000000     1.000000  # Hw Hw
pair_coeff   11   11 lj/cut/coul/long     0.155425     3.165500  # Ow Ow

# minimize 1.0e-4 1.0e-6 100 1000
# reset_timestep 0

fix SHAKE all shake 0.0001 20 0 b 2 4 7
Finding SHAKE clusters ...
      74 = # of size 2 clusters
     518 = # of size 3 clusters
     296 = # of size 4 clusters
       0 = # of frozen angles
  find clusters CPU = 0.105 seconds

neighbor 2.0 bin
neigh_modify delay 0 every 1 check yes








#fix VAVG all ave/time 10 1000 50000 v_vinst

# ---------------------------------------------------------------------------
# RENEU 2026 simulation protocol (stage2 M6 triethylammonium acetate)
# 1 minimise  2 NVT relaxation  3 NPT equilibration  4 NPT production
# ---------------------------------------------------------------------------
timestep 1.0

variable TK      equal 300.0
variable PBAR    equal 1.0
variable NVTRUN  equal 20000
variable EQRUN   equal 100000
variable PRODRUN equal 200000

variable dens equal density
variable vol  equal vol

thermo 1000
thermo_style custom step temp press vol v_dens pe etotal

# --- 1. energy minimisation ------------------------------------------------
print "RENEU >>> stage 1 of 4: energy minimisation"
RENEU >>> stage 1 of 4: energy minimisation
minimize 1.0e-4 1.0e-6 10000 100000
PPPM initialization ...
  using 12-bit tables for long-range coulomb
  G vector (1/distance) = 0.28406554
  grid = 24 24 24
  stencil order = 5
  estimated absolute RMS force accuracy = 0.0036656653
  estimated relative force accuracy = 1.1039042e-05
  using double precision FFTW3
  3d grid and FFT values/proc = 18259 6912
Generated 55 of 55 mixed pair_coeff terms from geometric mixing rule
WARNING: Using fix shake with minimization.
  Substituting constraints with harmonic restraint forces using kbond=1987206.7 (src/RIGID/fix_shake.cpp:397)
Neighbor list info ...
  update: every = 1 steps, delay = 0 steps, check = yes
  max neighbors/atom: 2000, page size: 100000
  master list distance cutoff = 12
  ghost atom cutoff = 12
  binsize = 6, bins = 7 7 7
  1 neighbor lists, perpetual/occasional/extra = 1 0 0
  (1) pair lj/cut/coul/long, perpetual
      attributes: half, newton on
      pair build: half/bin/newton
      stencil: half/bin/3d
      bin: standard
Per MPI rank memory allocation (min/avg/max) = 17.37 | 17.57 | 17.76 Mbytes
   Step          Temp          Press          Volume         v_dens         PotEng         TotEng    
         0   0             -7427193.9      47792.627      0.59985174     110997.64      110997.64    
        24   0              17324.349      47792.627      0.59985174     1941.0649      1941.0649    
Loop time of 6.77662 on 2 procs for 24 steps with 3108 atoms

98.1% CPU use with 2 MPI tasks x 1 OpenMP threads

Minimization stats:
  Stopping criterion = energy tolerance
  Energy initial, next-to-last, final = 
      110997.640523326   1941.09765997119   1941.06491813597
  Force two-norm initial, final = 1216224.1 2322.0641
  Force max component initial, final = 75013.496 1020.1704
  Final line search alpha, max atom move = 1.1858023e-05 0.012097203
  Iterations, force evaluations = 24 98

MPI task timing breakdown:
Section |  min time  |  avg time  |  max time  |%varavg| %total
---------------------------------------------------------------
Pair    | 3.9648     | 4.1226     | 4.2803     |   7.8 | 60.84
Bond    | 0.21691    | 0.22084    | 0.22476    |   0.8 |  3.26
Kspace  | 1.8429     | 1.9886     | 2.1343     |  10.3 | 29.34
Neigh   | 0          | 0          | 0          |   0.0 |  0.00
Comm    | 0.25143    | 0.25254    | 0.25365    |   0.2 |  3.73
Output  | 0          | 0          | 0          |   0.0 |  0.00
Modify  | 0.05332    | 0.058633   | 0.063947   |   2.2 |  0.87
Other   |            | 0.1334     |            |       |  1.97

Nlocal:           1554 ave        1592 max        1516 min
Histogram: 1 0 0 0 0 0 0 0 0 1
Nghost:           7570 ave        7613 max        7527 min
Histogram: 1 0 0 0 0 0 0 0 0 1
Neighs:         411224 ave      437942 max      384507 min
Histogram: 1 0 0 0 0 0 0 0 0 1

Total # of neighbors = 822449
Ave neighs/atom = 264.62323
Ave special neighs/atom = 7.1904762
Neighbor list builds = 0
Dangerous builds = 0
reset_timestep 0

# --- 2. NVT relaxation (lets the packed box relax before the barostat) ------
print "RENEU >>> stage 2 of 4: NVT relaxation"
RENEU >>> stage 2 of 4: NVT relaxation
velocity all create ${TK} 12345 mom yes rot yes dist gaussian
velocity all create 300 12345 mom yes rot yes dist gaussian
fix NVTRELAX all nvt temp ${TK} ${TK} 100
fix NVTRELAX all nvt temp 300 ${TK} 100
fix NVTRELAX all nvt temp 300 300 100
run ${NVTRUN}
run 20000
PPPM initialization ...
  using 12-bit tables for long-range coulomb
  G vector (1/distance) = 0.28406554
  grid = 24 24 24
  stencil order = 5
  estimated absolute RMS force accuracy = 0.0036656653
  estimated relative force accuracy = 1.1039042e-05
  using double precision FFTW3
  3d grid and FFT values/proc = 18259 6912
Generated 55 of 55 mixed pair_coeff terms from geometric mixing rule
Per MPI rank memory allocation (min/avg/max) = 16.25 | 16.44 | 16.64 Mbytes
   Step          Temp          Press          Volume         v_dens         PotEng         TotEng    
         0   300            23638.478      47792.627      0.59985174     1940.7626      4123.6098    
      1000   291.99586     -987.95314      47792.627      0.59985174    -8711.8688     -6587.261     
      2000   298.29726     -821.90499      47792.627      0.59985174    -9165.7294     -6995.2716    
      3000   299.07639     -737.62444      47792.627      0.59985174    -9284.8756     -7108.7487    
      4000   297.0541      -917.50867      47792.627      0.59985174    -9523.786      -7362.3737    
      5000   304.19472     -1094.0376      47792.627      0.59985174    -9658.7634     -7445.3947    
      6000   304.43521     -1384.1646      47792.627      0.59985174    -9769.1817     -7554.0633    
      7000   296.3612      -32.307746      47792.627      0.59985174    -9916.5859     -7760.2152    
      8000   299.41086     -523.09665      47792.627      0.59985174    -9936.155      -7757.5944    
      9000   291.37691     -410.15618      47792.627      0.59985174    -10000.457     -7880.3526    
     10000   301.1225      -364.25059      47792.627      0.59985174    -10043.422     -7852.4077    
     11000   302.18776     -866.20763      47792.627      0.59985174    -10121.188     -7922.4226    
     12000   303.55878     -814.94694      47792.627      0.59985174    -10197.12      -7988.3789    
     13000   303.19398     -264.6892       47792.627      0.59985174    -10120.92      -7914.8326    
     14000   295.02252     -606.75821      47792.627      0.59985174    -10202.003     -8055.3728    
     15000   305.40241     -1675.2061      47792.627      0.59985174    -10095.789     -7873.6327    
     16000   304.37879     -524.63491      47792.627      0.59985174    -10263.147     -8048.4387    
     17000   308.79998     -1517.6316      47792.627      0.59985174    -10226.457     -7979.5794    
     18000   305.74329     -697.25371      47792.627      0.59985174    -10245.005     -8020.3686    
     19000   301.48545     -633.0233       47792.627      0.59985174    -10331.506     -8137.8501    
     20000   302.75615     -662.78732      47792.627      0.59985174    -10133.01      -7930.1082    
Loop time of 994.364 on 2 procs for 20000 steps with 3108 atoms

Performance: 1.738 ns/day, 13.811 hours/ns, 20.113 timesteps/s, 62.512 katom-step/s
98.3% CPU use with 2 MPI tasks x 1 OpenMP threads

MPI task timing breakdown:
Section |  min time  |  avg time  |  max time  |%varavg| %total
---------------------------------------------------------------
Pair    | 507.31     | 535.87     | 564.42     | 123.4 | 53.89
Bond    | 36.073     | 36.78      | 37.487     |  11.7 |  3.70
Kspace  | 277.32     | 305.62     | 333.92     | 161.9 | 30.74
Neigh   | 52.593     | 52.727     | 52.861     |   1.8 |  5.30
Comm    | 32.563     | 33.196     | 33.829     |  11.0 |  3.34
Output  | 0.02132    | 0.031639   | 0.041959   |   5.8 |  0.00
Modify  | 25.529     | 25.722     | 25.915     |   3.8 |  2.59
Other   |            | 4.425      |            |       |  0.44

Nlocal:           1554 ave        1639 max        1469 min
Histogram: 1 0 0 0 0 0 0 0 0 1
Nghost:           7325 ave        7547 max        7103 min
Histogram: 1 0 0 0 0 0 0 0 0 1
Neighs:         441928 ave      469634 max      414223 min
Histogram: 1 0 0 0 0 0 0 0 0 1

Total # of neighbors = 883857
Ave neighs/atom = 284.38127
Ave special neighs/atom = 7.1904762
Neighbor list builds = 967
Dangerous builds = 0
unfix NVTRELAX

# --- 3. NPT equilibration (this is where the density finds its own value) ---
# restart files are written every 25000 steps. If the run stops for any
# reason you can pick up from the last one instead of starting over:
#     read_restart rst_a.lmp      (or rst_b.lmp, whichever is newer)
print "RENEU >>> stage 3 of 4: NPT equilibration - watch the density column"
RENEU >>> stage 3 of 4: NPT equilibration - watch the density column
restart 25000 rst_a.lmp rst_b.lmp
fix NPTEQ all npt temp ${TK} ${TK} 100 iso ${PBAR} ${PBAR} 1000
fix NPTEQ all npt temp 300 ${TK} 100 iso ${PBAR} ${PBAR} 1000
fix NPTEQ all npt temp 300 300 100 iso ${PBAR} ${PBAR} 1000
fix NPTEQ all npt temp 300 300 100 iso 1 ${PBAR} 1000
fix NPTEQ all npt temp 300 300 100 iso 1 1 1000
run ${EQRUN}
run 100000
PPPM initialization ...
  using 12-bit tables for long-range coulomb
  G vector (1/distance) = 0.28406554
  grid = 24 24 24
  stencil order = 5
  estimated absolute RMS force accuracy = 0.0036656653
  estimated relative force accuracy = 1.1039042e-05
  using double precision FFTW3
  3d grid and FFT values/proc = 18259 6912
Generated 55 of 55 mixed pair_coeff terms from geometric mixing rule
Per MPI rank memory allocation (min/avg/max) = 16.64 | 16.65 | 16.65 Mbytes
   Step          Temp          Press          Volume         v_dens         PotEng         TotEng    
     20000   302.75615     -662.66666      47792.627      0.59985174    -10133.01      -7930.1082    
     21000   304.86503      24.380809      43757.59       0.65516611    -10454.405     -8236.1587    
     22000   301.67079      653.51523      41769.439      0.68635086    -10413.588     -8218.5836    
     23000   294.91559     -275.67667      41021.148      0.698871      -10490.505     -8344.6525    
     24000   300.04719      34.601525      40439.963      0.70891486    -10599.143     -8415.9526    
     25000   296.04505     -378.50568      39215.772      0.7310449     -10486.92      -8332.85      
     26000   293.69923     -402.89773      39308.585      0.72931881    -10530.305     -8393.3032    
     27000   308.13611     -856.45822      38630.209      0.7421262     -10472.457     -8230.4102    
     28000   302.47574     -897.23742      39243.22       0.73053359    -10574.399     -8373.5384    
     29000   301.95319      66.809135      38275.676      0.74900023    -10511.613     -8314.5543    
     30000   293.73355     -63.02092       38604.184      0.74262651    -10537.501     -8400.2493    
     31000   295.74905     -774.67468      38748.369      0.73986315    -10506.809     -8354.8928    
     32000   313.48806     -787.24591      38101.749      0.75241928    -10542.09      -8261.1015    
     33000   304.77684     -136.79392      37666.667      0.76111037    -10548.152     -8330.5476    
     34000   296.8214       1384.1747      36761.948      0.77984144    -10615.895     -8456.1763    
     35000   303.30661     -716.70939      37054.407      0.7736864     -10599.893     -8392.9866    
     36000   302.03838     -77.820737      36681.525      0.78155122    -10592.822     -8395.143     
     37000   298.14917     -364.58004      35935.937      0.7977666     -10638.884     -8469.5042    
     38000   296.59509      36.623831      36060.624      0.79500815    -10623.653     -8465.5802    
     39000   301.67797      474.62157      36203.159      0.79187815    -10627.993     -8432.9367    
     40000   302.09999      352.94922      36033.685      0.79560252    -10629.886     -8431.7591    
     41000   303.32693      64.630305      35952.597      0.79739693    -10572.665     -8365.6103    
     42000   299.68164     -42.999941      35818.088      0.80039143    -10641.428     -8460.8968    
     43000   294.94636      1476.4602      35166.762      0.81521553    -10685.939     -8539.8631    
     44000   293.87412     -458.03868      35331.832      0.81140686    -10628.553     -8490.2785    
     45000   305.41351     -222.04806      35061.669      0.81765904    -10726.654     -8504.417     
     46000   301.96416     -666.03264      34816.844      0.82340865    -10643.829     -8446.6907    
     47000   294.65496     -106.67678      34970.971      0.81977966    -10624.61      -8480.6539    
     48000   298.71743     -1204.4098      35067.516      0.8175227     -10620.112     -8446.5967    
     49000   297.67599     -909.44474      34504.865      0.83085358    -10629.442     -8463.505     
     50000   302.21744      48.760441      34230.77       0.83750643    -10637.924     -8438.9426    
     51000   298.42043     -460.0821       34321.715      0.83528724    -10685.067     -8513.7125    
     52000   298.90273      263.11017      34365.583      0.83422098    -10693.132     -8518.2691    
     53000   295.59884      304.47091      34002.121      0.84313829    -10725.988     -8575.1642    
     54000   294.39527      371.84645      33997.626      0.84324976    -10729.443     -8587.3763    
     55000   303.95722      821.48585      34113.385      0.84038832    -10699.595     -8487.9546    
     56000   307.64183      706.68899      33921.236      0.84514875    -10721.199     -8482.7489    
     57000   302.15493      365.24564      33557.223      0.85431654    -10786.41      -8587.8836    
     58000   296.80725     -610.05295      33982.206      0.84363242    -10701.462     -8541.846     
     59000   298.43784     -84.993859      33605.843      0.85308054    -10739.131     -8567.6503    
     60000   296.69954      219.73083      32857.846      0.87250061    -10738.578     -8579.7451    
     61000   300.56263      893.71641      32932.535      0.87052183    -10623.169     -8436.2285    
     62000   295.08171      439.43909      33321.633      0.86035672    -10710.55      -8563.4888    
     63000   293.71508     -1330.2167      33131.166      0.86530279    -10692.407     -8555.2896    
     64000   292.11437     -235.21192      33123.116      0.86551309    -10726.182     -8600.7115    
     65000   296.2682       81.523122      32904.258      0.87126991    -10695.754     -8540.0595    
     66000   303.51305      166.07887      32441.228      0.88370547    -10772.823     -8564.4148    
     67000   298.07362     -183.55587      32734.99       0.87577513    -10750.437     -8581.6068    
     68000   292.32209     -730.08374      33225.021      0.86285846    -10685.322     -8558.3404    
     69000   306.76676      1057.5421      32248.727      0.88898053    -10749.827     -8517.7441    
     70000   300.18371     -1235.1222      32368.757      0.88568402    -10768.856     -8584.6722    
     71000   301.67249     -1319.1599      32709.939      0.87644586    -10729.411     -8534.3948    
     72000   298.99365     -383.13503      32283.058      0.88803516    -10676.214     -8500.6887    
     73000   301.03794     -534.07233      32488.164      0.88242876    -10811.453     -8621.0537    
     74000   298.11533      1924.9795      32566.759      0.88029914    -10749.96      -8580.8262    
     75000   294.13017      522.92066      32492.659      0.88230669    -10786.365     -8646.2276    
     76000   302.56728     -992.23904      32096.649      0.89319263    -10713.169     -8511.642     
     77000   302.329       -1.7332088      32059.537      0.89422659    -10801.419     -8601.6258    
     78000   305.80336     -175.26719      32110.665      0.89280275    -10714.503     -8489.4293    
     79000   300.16241     -930.09597      32331.147      0.8867143     -10764.7       -8580.6711    
     80000   299.72953     -10.133866      32005.838      0.89572692    -10692.053     -8511.1736    
     81000   301.25501      1261.1603      31859.67       0.8998364     -10761.733     -8569.7541    
     82000   311.81546      1553.583       32071.29       0.8938989     -10741.817     -8472.999     
     83000   297.34074      144.71994      31566.464      0.90819455    -10753.259     -8589.7615    
     84000   294.93774     -413.62842      31930.334      0.89784499    -10777.596     -8631.5824    
     85000   291.60697      1466.8396      31497.582      0.91018067    -10818.404     -8696.6261    
     86000   302.71729     -447.04318      31694.721      0.90451941    -10783.714     -8581.0951    
     87000   294.26241     -153.06396      32262.841      0.88859162    -10739.964     -8598.8642    
     88000   299.07598      110.27631      32001.806      0.89583976    -10768.309     -8592.1853    
     89000   304.47046      51.640484      31507.286      0.90990036    -10866.636     -8651.2614    
     90000   300.5865       272.66419      31671.635      0.90517874    -10798.513     -8611.3983    
     91000   296.0841      -1070.5384      31599.775      0.90723718    -10810.06      -8655.7052    
     92000   301.55869      385.38789      31987.274      0.89624674    -10842.489     -8648.3001    
     93000   294.92208      258.05474      31546.974      0.90875563    -10822.691     -8676.7916    
     94000   295.87083      441.05352      31203.625      0.91875513    -10813.236     -8660.4331    
     95000   311.25558      2122.3462      31087.858      0.92217645    -10796.911     -8532.166     
     96000   302.64988     -780.15719      31601.373      0.9071913     -10813.632     -8611.5035    
     97000   294.78078      316.2205       31581.252      0.90776928    -10814.805     -8669.9336    
     98000   299.17401      14.428847      31609.128      0.90696874    -10841.764     -8664.9271    
     99000   301.09981     -811.40798      31511.203      0.90978724    -10829.291     -8638.4415    
    100000   295.71614     -402.21646      31572.63       0.90801719    -10762.723     -8611.0456    
    101000   307.20129     -408.77564      31466.378      0.91108328    -10814.218     -8578.9733    
    102000   298.4352      -428.32995      31211.993      0.9185088     -10813.925     -8642.4631    
    103000   299.28306      322.41999      31240.616      0.91766726    -10898.124     -8720.4929    
    104000   296.29168      1063.1767      31594.689      0.90738322    -10911.796     -8755.9313    
    105000   293.85857      336.87362      31298.503      0.91597003    -10827.045     -8688.8839    
    106000   301.45229     -459.60544      31468.419      0.91102417    -10758.183     -8564.7692    
    107000   298.58146     -728.36701      31646.106      0.90590895    -10805.772     -8633.2468    
    108000   302.97286      874.47196      31685.438      0.90478442    -10778.966     -8574.4878    
    109000   303.3766       253.94845      31310.212      0.91562749    -10787.005     -8579.5887    
    110000   302.14132     -447.23556      30937.383      0.92666179    -10836.154     -8637.7257    
    111000   290.03812     -304.07428      30717.519      0.93329446    -10893.938     -8783.5748    
    112000   297.99575     -511.26561      31242.326      0.91761703    -10853.578     -8685.314     
    113000   308.51332      900.33162      30804.728      0.93065229    -10786.848     -8542.0569    
    114000   300.70906      1695.6899      30688.132      0.9341882     -10876.425     -8688.4181    
    115000   297.07244     -60.114408      30774.237      0.93157437    -10750.746     -8589.2       
    116000   290.95891     -412.25039      30952.983      0.92619476    -10779.684     -8662.6209    
    117000   305.29789     -759.8214       30990.463      0.92507462    -10858.694     -8637.2986    
    118000   305.7129      -379.96038      30618.424      0.93631503    -10887.868     -8663.453     
    119000   302.62026      364.39177      30659.826      0.93505065    -10847.931     -8646.0184    
    120000   298.596        199.33775      30620.271      0.93625856    -10857.097     -8684.4652    
Loop time of 6404.72 on 2 procs for 100000 steps with 3108 atoms

Performance: 1.349 ns/day, 17.791 hours/ns, 15.613 timesteps/s, 48.527 katom-step/s
98.4% CPU use with 2 MPI tasks x 1 OpenMP threads

MPI task timing breakdown:
Section |  min time  |  avg time  |  max time  |%varavg| %total
---------------------------------------------------------------
Pair    | 3598.7     | 3625.9     | 3653       |  45.1 | 56.61
Bond    | 200.44     | 206.45     | 212.46     |  41.8 |  3.22
Kspace  | 1509.1     | 1542.8     | 1576.5     |  85.8 | 24.09
Neigh   | 296.65     | 296.77     | 296.89     |   0.7 |  4.63
Comm    | 154.29     | 155.21     | 156.13     |   7.4 |  2.42
Output  | 0.035729   | 0.070249   | 0.10477    |  13.0 |  0.00
Modify  | 510.54     | 511.2      | 511.86     |   2.9 |  7.98
Other   |            | 66.35      |            |       |  1.04

Nlocal:           1554 ave        1596 max        1512 min
Histogram: 1 0 0 0 0 0 0 0 0 1
Nghost:          10627 ave       10817 max       10437 min
Histogram: 1 0 0 0 0 0 0 0 0 1
Neighs:         580008 ave      595800 max      564216 min
Histogram: 1 0 0 0 0 0 0 0 0 1

Total # of neighbors = 1160016
Ave neighs/atom = 373.23552
Ave special neighs/atom = 7.1904762
Neighbor list builds = 3907
Dangerous builds = 0
unfix NPTEQ
write_data data.after_equilibration.lmp
System init for write_data ...
PPPM initialization ...
  using 12-bit tables for long-range coulomb
  G vector (1/distance) = 0.29562101
  grid = 24 24 24
  stencil order = 5
  estimated absolute RMS force accuracy = 0.0023438966
  estimated relative force accuracy = 7.0585748e-06
  using double precision FFTW3
  3d grid and FFT values/proc = 18259 6912
Generated 55 of 55 mixed pair_coeff terms from geometric mixing rule

# --- 4. NPT production - this is the trajectory you analyse ----------------
print "RENEU >>> stage 4 of 4: NPT production"
RENEU >>> stage 4 of 4: NPT production
reset_timestep 0
fix NPTPROD all npt temp ${TK} ${TK} 100 iso ${PBAR} ${PBAR} 1000
fix NPTPROD all npt temp 300 ${TK} 100 iso ${PBAR} ${PBAR} 1000
fix NPTPROD all npt temp 300 300 100 iso ${PBAR} ${PBAR} 1000
fix NPTPROD all npt temp 300 300 100 iso 1 ${PBAR} 1000
fix NPTPROD all npt temp 300 300 100 iso 1 1 1000
fix DENSAVG all ave/time 10 100 1000 v_dens v_vol file density.dat

dump TRAJ all custom 500 dump.lammpstrj id mol type element q xu yu zu
dump_modify TRAJ element N C H C H H C C O H O

run ${PRODRUN}
run 200000
PPPM initialization ...
  using 12-bit tables for long-range coulomb
  G vector (1/distance) = 0.29562101
  grid = 24 24 24
  stencil order = 5
  estimated absolute RMS force accuracy = 0.0023438966
  estimated relative force accuracy = 7.0585748e-06
  using double precision FFTW3
  3d grid and FFT values/proc = 18259 6912
Generated 55 of 55 mixed pair_coeff terms from geometric mixing rule
Per MPI rank memory allocation (min/avg/max) = 17.17 | 17.36 | 17.55 Mbytes
   Step          Temp          Press          Volume         v_dens         PotEng         TotEng    
         0   298.596        225.42065      30620.271      0.93625856    -10857.07      -8684.4387    
      1000   307.85189      103.45821      30013.597      0.95518341    -10827.701     -8587.7223    
      2000   293.95862     -743.65279      30545.115      0.93856219    -10791.265     -8652.3758    
      3000   296.39349     -1509.63        30613.2        0.93647482    -10938.495     -8781.8892    
      4000   301.18067     -916.07374      30609.074      0.93660105    -10832.966     -8641.5284    
      5000   294.55384     -981.63834      31117.719      0.9212915     -10845.686     -8702.4656    
      6000   294.1231      -812.52638      30574.535      0.93765909    -10856.853     -8716.7671    
      7000   306.24245     -1081.5823      30651.281      0.93531133    -10822.395     -8594.127     
      8000   298.76229      188.71237      30876.275      0.92849577    -10836.028     -8662.1869    
      9000   297.34781     -1167.7307      30807.942      0.93055519    -10893.702     -8730.1524    
     10000   303.35646     -452.02886      30273.822      0.94697295    -10887.165     -8679.896     
     11000   300.14821     -1258.0183      30842.955      0.92949882    -10869.63      -8685.7043    
     12000   299.30601     -798.11755      30876.304      0.9284949     -10818.05      -8640.2524    
     13000   303.07194      1122.4062      30586.681      0.93728672    -10810.324     -8605.1254    
     14000   295.66585      244.15352      30402.642      0.94296049    -10866.03      -8714.7192    
     15000   300.05202     -632.67045      30894.559      0.92794627    -10839.98      -8656.7541    
     16000   312.71099      20.427859      30652.024      0.93528867    -10857.644     -8582.31      
     17000   296.92965      380.30121      30534.077      0.93890148    -10927.98      -8767.4726    
     18000   299.69434     -335.26954      30872.236      0.92861725    -10797.499     -8616.8762    
     19000   302.16096      285.85693      30512.198      0.93957473    -10904.993     -8706.4223    
     20000   295.78115     -254.1097       30440.127      0.94179929    -10956.493     -8804.3431    
     21000   300.92115      1321.4899      30557.737      0.93817453    -10873.639     -8684.0896    
     22000   286.84701      1880.8638      30323.629      0.94541752    -10864.169     -8777.0251    
     23000   303.4886      -44.745579      30526.84       0.93912408    -10915.741     -8707.5101    
     24000   298.62183      1222.5106      30511.17       0.9396064     -10858.453     -8685.6334    
     25000   296.92216     -896.09328      30804.442      0.93066092    -10893.095     -8732.6426    
     26000   301.21676     -334.3998       30397.863      0.94310873    -10902.559     -8710.8583    
     27000   288.95798     -365.19016      30453.68       0.94138018    -10900.166     -8797.6624    
     28000   290.88948     -721.43922      30467.695      0.94094712    -10919.179     -8802.6217    
     29000   307.94608      134.97163      30637.22       0.9357406     -10915.679     -8675.0152    
     30000   296.89423     -162.81472      30336.351      0.94502105    -10926.518     -8766.2691    
     31000   306.31118      196.08964      30691.534      0.93408465    -10825.8       -8597.0314    
     32000   294.5971      -1594.9868      30642.586      0.93557672    -10822.599     -8679.0646    
     33000   302.0117      -110.73043      30359.168      0.9443108     -10930.271     -8732.7867    
     34000   293.60835      295.07744      30395.421      0.94318452    -10940.98      -8804.6391    
     35000   302.2961      -128.40063      30779.366      0.93141915    -10863.447     -8663.893     
     36000   300.73413      207.66776      30252.653      0.94763557    -10943.968     -8755.7788    
     37000   301.0383       1031.443       30475.687      0.94070037    -10782.757     -8592.3551    
     38000   287.57017     -1408.7291      30183.096      0.94981942    -10836.336     -8743.9301    
     39000   296.53069      60.466622      30452.15       0.94142747    -10869.445     -8711.8407    
     40000   303.65821      375.5062       30435.776      0.94193394    -10869.277     -8659.8123    
     41000   302.78469     -420.1883       30555.075      0.93825626    -10876.908     -8673.7992    
     42000   301.90207      296.90329      30242.842      0.947943      -10919.921     -8723.2342    
     43000   309.1877       234.42822      30745.745      0.93243765    -10893.134     -8643.4357    
     44000   297.08499     -1218.0116      30118.906      0.95184368    -10953.467     -8791.8297    
     45000   302.88369      1179.5747      30234.722      0.94819758    -10834.624     -8630.7948    
     46000   295.19985     -45.495431      30644.451      0.93551979    -10781.973     -8634.0528    
     47000   298.44888      980.55508      30116.916      0.95190658    -10890.703     -8719.1424    
     48000   302.08119      350.76895      30440.914      0.94177495    -10891.144     -8693.1533    
     49000   297.96528     -287.3377       30387.493      0.94343059    -10833.016     -8664.9738    
     50000   303.74395      97.88961       30416.348      0.9425356     -10893.425     -8683.3359    
     51000   300.2799       774.71404      30488.067      0.9403184     -10854.084     -8669.1999    
     52000   296.25965      406.61152      29913.16       0.95839056    -10842.048     -8686.416     
     53000   303.40733     -1000.2136      30170.792      0.95020676    -10946.616     -8738.9766    
     54000   296.74213      372.49977      30116.92       0.95190645    -10881.431     -8722.2883    
     55000   308.75454     -311.40954      29852.695      0.96033174    -10860.08      -8613.5334    
     56000   293.91942      505.43144      30075.856      0.95320612    -10931.581     -8792.9775    
     57000   306.30099     -607.4586       29885.745      0.95926972    -10879.481     -8650.7868    
     58000   296.15709      1352.4522      29713.597      0.96482733    -10912.999     -8758.1139    
     59000   304.82053      517.52995      30204.568      0.94914418    -10847.834     -8629.9115    
     60000   297.34631     -120.52365      30097.048      0.95253496    -10935.556     -8772.0177    
     61000   297.37643      1039.252       30001.409      0.95557147    -10909.028     -8745.2704    
     62000   291.00209      73.700455      29785.713      0.96249131    -10915.619     -8798.2416    
     63000   293.82756     -1476.7307      30215.268      0.94880809    -10927.225     -8789.2895    
     64000   302.74016     -990.14839      30011.336      0.95525537    -10903.522     -8700.7366    
     65000   304.64422      1380.7583      29796.651      0.96213801    -10937.247     -8720.6078    
     66000   306.56675      1021.0081      30106.834      0.95222536    -10874.082     -8643.4537    
     67000   292.39024     -914.09866      30329.497      0.94523461    -10868.76      -8741.2829    
     68000   298.46945      872.62012      29876.426      0.95956893    -10853.173     -8681.4621    
     69000   305.5272      -131.19241      30073.323      0.95328643    -10879.232     -8656.1679    
     70000   302.30101      108.54816      30376.636      0.94376777    -10945.037     -8745.4475    
     71000   307.42918     -133.03867      30181.882      0.94985762    -10879.746     -8642.843     
     72000   292.99075      302.05125      29927.843      0.95792039    -10869.5       -8737.6528    
     73000   298.71788      869.33711      29849.819      0.96042426    -10961.559     -8788.0406    
     74000   306.39682     -1427.3175      30167.771      0.95030191    -10949.097     -8719.7057    
     75000   303.13553      71.25986       29888.65       0.9591765     -10928.814     -8723.1526    
     76000   297.81096      841.5083       29999.652      0.95562744    -10896.012     -8729.0925    
     77000   293.39903     -652.95865      30211.294      0.9489329     -10936.294     -8801.4768    
     78000   302.43241      504.65488      29598.264      0.96858687    -10981.747     -8781.2013    
     79000   298.96856      505.78547      30018.213      0.95503653    -10905.021     -8729.6784    
     80000   303.29473      779.29204      29833.965      0.96093466    -10929.677     -8722.857     
     81000   301.29439     -1170.9807      29885.727      0.9592703     -10975.6       -8783.3346    
     82000   296.50354     -126.22185      29807.554      0.96178608    -10914.181     -8756.7748    
     83000   310.4012      -648.22908      30281.521      0.94673217    -10943.999     -8685.471     
     84000   304.44283     -687.09315      30043.196      0.95424238    -10913.817     -8698.6431    
     85000   305.67996     -1257.1782      30302.497      0.94607685    -10901.334     -8677.1583    
     86000   293.83879     -490.38894      30203.53       0.94917681    -10861.105     -8723.0882    
     87000   305.13907     -40.189915      30049.15       0.9540533     -10839.421     -8619.1807    
     88000   302.54268      149.23302      30067.008      0.95348665    -10968.688     -8767.3403    
     89000   309.87532      331.37005      29698.012      0.96533365    -10923.02      -8668.3187    
     90000   292.06819     -1486.5109      30304.888      0.94600218    -10854.055     -8728.9204    
     91000   287.88818      288.4011       30008.392      0.9553491     -10930.139     -8835.4192    
     92000   305.07214      517.68071      29904.752      0.95866004    -10894.515     -8674.7623    
     93000   290.52954     -887.55489      29815.855      0.9615183     -10923.416     -8809.4777    
     94000   299.36686      1028.855       29987.053      0.95602895    -10936.525     -8758.2848    
     95000   296.47145     -288.95178      29935.189      0.95768529    -10955.738     -8798.565     
     96000   291.49358      1032.5906      30040.935      0.95431419    -10882.561     -8761.6082    
     97000   304.32977     -1537.1973      29934.005      0.95772317    -10969.228     -8754.8766    
     98000   295.5463      -1152.0349      30280.001      0.9467797     -10902.599     -8752.1581    
     99000   306.49509     -1534.1333      30182.222      0.94984692    -10897.567     -8667.461     
    100000   301.49415      892.0095       29531.988      0.97076059    -10941.64      -8747.9216    
    101000   296.88825     -352.14264      30062.913      0.95361651    -10882.608     -8722.402     
    102000   308.45053      113.82722      29832.941      0.96096763    -10916.235     -8671.9002    
    103000   304.65621      668.16153      29647.712      0.96697143    -10967.56      -8750.8337    
    104000   303.85454      1225.4044      29534.829      0.97066722    -10997.42      -8786.5265    
    105000   299.43628      43.230326      29684.16       0.96578412    -10966.851     -8788.106     
    106000   306.27698     -652.99187      29746.903      0.96374706    -10934.744     -8706.2241    
    107000   304.32024      901.17398      29441.615      0.97374042    -10984.493     -8770.2108    
    108000   300.71987      839.57638      29659.597      0.96658394    -10919.913     -8731.8282    
    109000   303.81904      8.4350627      29513.588      0.97136581    -10954.521     -8743.8859    
    110000   300.29739     -1643.418       29696.27       0.96539027    -10938.907     -8753.8964    
    111000   303.88017      94.595125      30025.802      0.95479517    -10889.863     -8678.7829    
    112000   291.64455     -819.6215       29783.858      0.96255127    -10957.009     -8834.9571    
    113000   300.82979     -403.53902      29750.783      0.96362139    -10950.005     -8761.1203    
    114000   295.02493     -78.712554      29817.694      0.961459      -10894.317     -8747.6694    
    115000   294.82221      638.67068      29602.26       0.96845615    -10871.281     -8726.108     
    116000   299.27395      509.73863      29747.092      0.96374093    -10945.928     -8768.3638    
    117000   294.57351     -1240.0926      30067.825      0.95346073    -10940.478     -8797.1152    
    118000   302.69295     -91.070707      29976.726      0.95635829    -10919.725     -8717.2835    
    119000   306.34005      652.12161      29596.224      0.96865366    -10962.73      -8733.7519    
    120000   304.08977      426.40862      29858.485      0.9601455     -10942.59      -8729.9851    
    121000   292.04141     -103.51035      29612.506      0.96812105    -10944.321     -8819.3815    
    122000   302.22086      552.84935      29706.346      0.96506285    -10921.374     -8722.3677    
    123000   287.22193     -572.67476      29599.105      0.96855936    -10935.523     -8845.6508    
    124000   299.93415      462.26672      29716.429      0.96473538    -10877.126     -8694.7576    
    125000   306.06802      278.23513      29707.843      0.96501421    -10924.513     -8697.514     
    126000   303.33442     -245.33926      29490.528      0.97212536    -11005.38      -8798.2714    
    127000   294.87798     -285.71468      29624.622      0.96772509    -10936.066     -8790.4877    
    128000   308.13221      98.732987      29586.514      0.96897157    -10889.014     -8646.996     
    129000   302.97783     -739.32212      29723.465      0.96450702    -10937.272     -8732.7576    
    130000   304.69296     -475.11279      29708.556      0.96499106    -10911.935     -8694.9411    
    131000   299.88836      454.12807      29460.039      0.97313144    -10965.915     -8783.88      
    132000   296.34914      400.55876      29720.151      0.96461457    -10945.711     -8789.4277    
    133000   304.86071      490.12038      29397.318      0.97520768    -10967.477     -8749.2621    
    134000   305.19762      519.86713      29365.305      0.97627082    -11028.603     -8807.9374    
    135000   299.88682      462.9983       29569.379      0.96953306    -10974.371     -8792.3474    
    136000   295.04708     -397.67841      29571.729      0.969456      -10900.804     -8753.9945    
    137000   308.07916     -3.0241367      29578.558      0.9692322     -10938.619     -8696.9867    
    138000   291.79491     -789.6076       29545.301      0.97032318    -10968.032     -8844.8859    
    139000   294.0546       455.55364      29675.885      0.96605341    -10822.148     -8682.5606    
    140000   296.67249      489.54761      29067.603      0.98626949    -10966.275     -8807.6396    
    141000   294.04332     -1491.0369      29627.072      0.96764508    -10921.231     -8781.7258    
    142000   302.96806     -937.43554      29341.26       0.97707089    -10961.888     -8757.445     
    143000   297.06887      1241.7704      29201.791      0.98173739    -10990.432     -8828.9124    
    144000   303.22523      635.83755      29375.755      0.97592354    -10919.275     -8712.9601    
    145000   300.43065     -489.94218      29256.747      0.97989331    -11023.877     -8837.8963    
    146000   310.91047     -687.36197      29498.287      0.97186968    -10920.244     -8658.0107    
    147000   298.35912     -759.7377       29467.617      0.97288119    -11016.848     -8845.9398    
    148000   303.03908      692.17158      29574.663      0.96935985    -10903.671     -8698.7111    
    149000   302.21196      176.30163      29366.337      0.97623651    -10959.585     -8760.6433    
    150000   300.40677     -602.54876      29123.151      0.98438835    -10912.3       -8726.4933    
    151000   299.71034     -155.39706      28808.206      0.99515016    -11036.728     -8855.9887    
    152000   297.91189     -88.53735       29246.923      0.98022245    -10958.751     -8791.0974    
    153000   304.23803     -75.994909      29238.769      0.98049582    -10948.021     -8734.3369    
    154000   292.50201     -241.45629      29078.708      0.98589286    -10933.361     -8805.0705    
    155000   288.18545      252.31909      29160.6        0.98312416    -10943.003     -8846.1207    
    156000   301.4748      -554.00737      29145.247      0.98364205    -11012.074     -8818.4963    
    157000   295.24652     -1415.6837      29090.896      0.9854798     -10978.842     -8830.5818    
    158000   298.78531     -1838.5796      29286.575      0.97889531    -10982.887     -8808.8785    
    159000   308.6985       150.53059      29042.521      0.98712127    -11001.559     -8755.4199    
    160000   299.08425      724.79776      28770.989      0.99643743    -11033.784     -8857.6       
    161000   298.18637      680.57938      28829.559      0.99441307    -10920.254     -8750.6031    
    162000   302.12946     -78.765371      28611.504      1.0019917     -11034.415     -8836.0733    
    163000   304.63833      105.34829      28911.755      0.99158596    -10971.063     -8754.4666    
    164000   295.4966      -342.37059      29081.749      0.98578976    -11008.78      -8858.6998    
    165000   301.86436     -437.01204      29199.707      0.98180746    -11003.451     -8807.0383    
    166000   309.69891      86.916692      28738.071      0.99757879    -10959.997     -8706.5788    
    167000   295.8925      -510.83679      28485.695      1.0064171     -11022.85      -8869.8898    
    168000   299.22648      980.54951      28683.804      0.99946612    -11043.366     -8866.1472    
    169000   294.8965      -1017.7187      29052.096      0.98679593    -10957.824     -8812.1105    
    170000   297.21694      1645.6959      28671.654      0.99988966    -11012.046     -8849.4488    
    171000   295.55285     -102.08501      28937.519      0.99070313    -10919.713     -8769.2242    
    172000   297.89151     -673.36762      28998.085      0.98863393    -10978.38      -8810.8743    
    173000   296.49062      529.50002      29029.855      0.98755197    -10944.026     -8786.714     
    174000   301.02103      1043.5166      28852.779      0.99361279    -10933.662     -8743.386     
    175000   293.26081     -1001.0355      28865.301      0.99318175    -10962.036     -8828.2245    
    176000   301.48611     -303.46249      29025.267      0.98770807    -10985.979     -8792.3187    
    177000   298.98647      1540.924       28692.96       0.99914718    -10920.454     -8744.9816    
    178000   303.77841      471.13156      29036.445      0.98732785    -10895.736     -8685.3967    
    179000   296.05921     -773.84374      28971.33       0.98954691    -10998.898     -8844.7244    
    180000   295.36338     -242.94232      29007.152      0.9883249     -10995.707     -8846.5962    
    181000   299.01745     -323.31907      29071.233      0.98614636    -11018.941     -8843.2429    
    182000   307.74954      1484.9749      29184.525      0.98231821    -10986.663     -8747.4287    
    183000   296.70739      753.02458      28990.81       0.98888201    -10972.102     -8813.2119    
    184000   297.94052      250.16515      29372.306      0.97603814    -10984.532     -8816.6699    
    185000   305.82122      2038.4716      28887.914      0.99240431    -10985.302     -8760.0991    
    186000   298.1008       576.49174      29227.98       0.98085774    -10951.046     -8782.0177    
    187000   296.66612      33.302626      29167.989      0.98287513    -10972.759     -8814.17      
    188000   297.26        -878.82585      28939.797      0.99062515    -11011.688     -8848.7772    
    189000   305.34573      581.38701      28830.192      0.99439125    -11031.725     -8809.9811    
    190000   308.58328     -1090.6386      28769.384      0.99649302    -10923.867     -8678.5665    
    191000   303.97026     -692.42004      29127.76       0.98423259    -10941.828     -8730.0927    
    192000   294.37867     -986.03544      28898.633      0.99203623    -10979.606     -8837.6608    
    193000   300.70332     -26.05348       29065.447      0.98634268    -10899.202     -8711.237     
    194000   295.91286      796.36787      28896.226      0.99211884    -10988.539     -8835.4307    
    195000   304.83138      259.13342      28792.646      0.99568795    -10968.678     -8750.6771    
    196000   297.3076       1517.4998      28857.724      0.99344254    -11006.86      -8843.6031    
    197000   304.9512       583.55152      29179.57       0.98248502    -10936.251     -8717.3782    
    198000   302.85239      801.32051      28753.418      0.99704636    -11001.338     -8797.7361    
    199000   303.37642      351.54545      28762.388      0.9967354     -11032.089     -8824.6745    
    200000   304.26041     -980.27019      28847.734      0.99378655    -11007.471     -8793.624     
Loop time of 14095.9 on 2 procs for 200000 steps with 3108 atoms

Performance: 1.226 ns/day, 19.578 hours/ns, 14.189 timesteps/s, 44.098 katom-step/s
98.2% CPU use with 2 MPI tasks x 1 OpenMP threads

MPI task timing breakdown:
Section |  min time  |  avg time  |  max time  |%varavg| %total
---------------------------------------------------------------
Pair    | 8114.2     | 8289.7     | 8465.3     | 192.8 | 58.81
Bond    | 414.13     | 415.89     | 417.65     |   8.6 |  2.95
Kspace  | 3031.9     | 3210.5     | 3389.2     | 315.3 | 22.78
Neigh   | 603.7      | 603.88     | 604.06     |   0.7 |  4.28
Comm    | 325.37     | 327.16     | 328.96     |   9.9 |  2.32
Output  | 44.626     | 52.186     | 59.747     | 104.7 |  0.37
Modify  | 1053.7     | 1060.3     | 1067       |  20.4 |  7.52
Other   |            | 136.2      |            |       |  0.97

Nlocal:           1554 ave        1587 max        1521 min
Histogram: 1 0 0 0 0 0 0 0 0 1
Nghost:        11147.5 ave       11260 max       11035 min
Histogram: 1 0 0 0 0 0 0 0 0 1
Neighs:         607345 ave      630600 max      584090 min
Histogram: 1 0 0 0 0 0 0 0 0 1

Total # of neighbors = 1214690
Ave neighs/atom = 390.8269
Ave special neighs/atom = 7.1904762
Neighbor list builds = 7608
Dangerous builds = 0

write_data data.final.lmp
System init for write_data ...
PPPM initialization ...
  using 12-bit tables for long-range coulomb
  G vector (1/distance) = 0.29713209
  grid = 24 24 24
  stencil order = 5
  estimated absolute RMS force accuracy = 0.0022079255
  estimated relative force accuracy = 6.649102e-06
  using double precision FFTW3
  3d grid and FFT values/proc = 18259 6912
Generated 55 of 55 mixed pair_coeff terms from geometric mixing rule
print "RENEU >>> finished. trajectory = dump.lammpstrj, density log = density.dat"
RENEU >>> finished. trajectory = dump.lammpstrj, density log = density.dat
Total wall time: 5:58:23
