        3108
  Built with Packmol                                             
  N           10.681892       26.171507       19.091208
  C           11.721345       25.283783       18.419633
  C            9.651719       25.433415       19.930473
  C           10.107880       27.142864       18.071201
  H           11.207454       26.749969       19.760541
  C           12.428931       24.376926       19.408684
  H           12.452433       25.958919       17.960375
  H           11.224557       24.711878       17.630353
  C            8.707649       24.589568       19.098680
  H           10.196178       24.823604       20.654462
  H            9.105150       26.184731       20.508072
  C            9.172127       28.155969       18.703082
  H           10.961954       27.667328       17.627678
  H            9.606997       26.559381       17.291656
  H           13.305458       23.923289       18.934408
  H           12.768416       24.927344       20.292321
  H           11.781679       23.556609       19.732693
  H            9.237002       23.926527       18.408029
  H            8.101854       23.959764       19.758516
  H            8.017754       25.212174       18.521408
  H            9.641856       28.662289       19.551510
  H            8.898806       28.915987       17.963695
  H            8.241490       27.692165       19.043135
  N           26.672973       32.153664       20.301867
  C           27.548859       30.937912       20.029291
  C           26.300016       32.363406       21.760398
  C           25.504578       32.166805       19.328152
  H           27.250616       32.968251       20.053641
  C           28.805066       30.931475       20.879698
  H           27.828468       30.990867       18.970881
  H           26.946599       30.038985       20.190690
  C           25.359760       31.299189       22.288212
  H           27.228615       32.392903       22.334243
  H           25.854726       33.359385       21.841511
  C           24.670779       33.428683       19.445324
  H           25.938025       32.112176       18.322987
  H           24.905676       31.267293       19.504847
  H           29.503049       30.175833       20.504400
  H           29.312830       31.901433       20.860193
  H           28.582907       30.671805       21.918954
  H           25.721362       30.285756       22.090644
  H           25.258659       31.405628       23.373326
  H           24.359075       31.400330       21.857820
  H           25.290281       34.327605       19.374671
  H           23.934395       33.459926       18.635515
  H           24.112682       33.460627       20.385719
  N           28.146496        7.015027       23.625928
  C           28.441029        5.545371       23.355942
  C           28.796494        7.989531       22.657298
  C           28.377442        7.317392       25.098572
  H           27.134331        7.123364       23.475510
  C           28.106483        5.143663       21.931864
  H           27.814877        4.973231       24.050064
  H           29.492530        5.357865       23.592635
  C           30.304039        8.043859       22.797235
  H           28.501740        7.693196       21.648452
  H           28.347688        8.971344       22.834641
  C           27.962448        8.728667       25.469209
  H           27.767284        6.601766       25.661425
  H           29.433806        7.133850       25.320904
  H           28.120915        4.052513       21.841263
  H           27.113204        5.495451       21.634096
  H           28.843992        5.531987       21.223259
  H           30.763628        7.051649       22.763577
  H           30.727155        8.629387       21.974342
  H           30.601924        8.532506       23.729611
  H           26.938745        8.943668       25.148830
  H           28.010778        8.853217       26.556029
  H           28.630854        9.476366       25.032156
  N           13.823296       28.069755       26.525842
  C           15.279456       28.510704       26.457345
  C           12.899477       29.016169       27.275015
  C           13.752873       26.615482       26.965808
  H           13.487566       28.082296       25.553233
  C           15.430261       29.913421       25.899730
  H           15.785292       27.800739       25.793044
  H           15.710504       28.425247       27.459208
  C           13.180243       29.060367       28.763115
  H           13.005579       30.003799       26.821370
  H           11.873339       28.693225       27.076063
  C           12.339970       26.065592       26.914680
  H           14.385768       26.050610       26.271847
  H           14.179396       26.544443       27.971819
  H           16.481468       30.106889       25.661912
  H           14.844788       30.051067       24.984689
  H           15.124501       30.668756       26.629672
  H           14.235760       29.243692       28.984727
  H           12.603478       29.871025       29.220498
  H           12.879111       28.130655       29.254840
  H           11.878169       26.234598       25.937433
  H           12.358012       24.986373       27.099039
  H           11.703098       26.510439       27.684966
  N           24.416617       20.686854       18.299680
  C           25.894079       20.961189       18.051937
  C           23.710293       21.710532       19.173517
  C           24.233114       19.238132       18.725086
  H           23.965521       20.765032       17.378137
  C           26.136054       22.352906       17.498891
  H           26.226706       20.217439       17.318854
  H           26.434269       20.798933       18.989329
  C           24.178371       21.680343       20.614078
  H           23.872946       22.692156       18.723603
  H           22.636771       21.512090       19.102754
  C           22.770621       18.854080       18.847180
  H           24.704097       18.624874       17.948357
  H           24.771042       19.090593       19.667366
  H           27.164531       22.432292       17.131525
  H           25.460653       22.582084       16.668027
  H           26.014058       23.117111       18.272159
  H           25.267432       21.736147       20.701652
  H           23.761669       22.538018       21.152386
  H           23.835063       20.777328       21.127441
  H           22.212932       19.102107       17.939269
  H           22.685917       17.775018       19.012937
  H           22.291310       19.346429       19.698466
  N           19.578277       23.168622       11.097140
  C           20.664272       23.897501       10.316831
  C           18.166506       23.683127       10.867820
  C           19.993372       23.049647       12.555558
  H           19.575689       22.207442       10.729761
  C           20.374847       23.937376        8.828230
  H           21.593287       23.342460       10.490257
  H           20.770347       24.902729       10.735281
  C           17.944145       25.070020       11.435540
  H           17.980907       23.659974        9.791957
  H           17.480220       22.958310       11.315578
  C           19.025732       22.205473       13.363229
  H           20.979721       22.571820       12.559199
  H           20.088306       24.060868       12.964759
  H           21.267258       24.266362        8.285649
  H           20.088514       22.952649        8.444366
  H           19.578963       24.650736        8.594729
  H           18.707148       25.783072       11.109626
  H           16.974087       25.451576       11.100240
  H           17.926823       25.056526       12.529320
  H           18.851032       21.233443       12.892619
  H           19.436595       22.029245       14.362810
  H           18.063255       22.707858       13.497697
  N           21.886304       30.720632        9.669332
  C           23.130342       29.842974        9.629155
  C           22.154251       32.216769        9.655988
  C           20.960929       30.240094       10.776673
  H           21.388514       30.530146        8.789126
  C           24.038349       30.184939        8.463019
  H           22.776107       28.811375        9.521752
  H           23.648910       29.940104       10.587533
  C           22.806515       32.711066       10.930919
  H           22.775595       32.429785        8.783624
  H           21.196555       32.716442        9.482839
  C           19.634724       30.976612       10.779729
  H           20.782203       29.174839       10.590917
  H           21.487731       30.349699       11.730346
  H           24.794576       29.402618        8.340060
  H           23.479804       30.266990        7.524765
  H           24.574999       31.122481        8.635815
  H           23.693410       32.129816       11.199997
  H           23.123131       33.751163       10.800630
  H           22.108130       32.687704       11.772672
  H           19.161060       30.955361        9.793814
  H           18.952551       30.503645       11.493850
  H           19.750030       32.019094       11.090810
  N            7.429070       20.490486       29.206492
  C            6.052314       19.854108       29.068303
  C            7.479400       21.982471       28.920401
  C            8.453326       19.653902       28.455182
  H            7.673382       20.400595       30.202018
  C            5.003245       20.565699       29.901599
  H            6.153966       18.820902       29.419541
  H            5.785895       19.841607       28.007312
  C            7.236207       22.312416       27.461902
  H            6.741031       22.463969       29.564943
  H            8.458592       22.343070       29.249015
  C            9.871268       20.147880       28.671319
  H            8.363563       18.632527       28.842421
  H            8.180604       19.655740       27.394689
  H            4.093567       19.958128       29.950255
  H            5.349167       20.740757       30.925668
  H            4.722359       21.524832       29.456625
  H            6.328567       21.842280       27.072033
  H            7.120550       23.395094       27.345911
  H            8.080575       22.007651       26.836604
  H           10.104529       20.246530       29.735599
  H           10.579619       19.436847       28.233485
  H           10.044068       21.111873       28.183782
  N            9.488285        3.457612       17.662883
  C            8.575156        3.619911       16.454834
  C            9.818357        4.746896       18.397186
  C           10.689389        2.606056       17.281255
  H            8.952160        2.895236       18.337526
  C            7.290905        4.350662       16.798336
  H            8.334764        2.606978       16.112204
  H            9.135553        4.134675       15.668825
  C           10.697049        5.678761       17.588018
  H            8.872280        5.223507       18.662220
  H           10.299469        4.469496       19.339744
  C           11.567702        2.280602       18.474542
  H           10.289283        1.675528       16.862625
  H           11.245879        3.135043       16.500539
  H            6.577134        4.253706       15.973621
  H            6.822746        3.945081       17.701306
  H            7.466444        5.420666       16.943644
  H           10.302864        5.858817       16.583510
  H           10.764533        6.648271       18.092518
  H           11.715280        5.289374       17.496267
  H           10.986935        1.849048       19.295095
  H           12.332415        1.553715       18.181493
  H           12.093640        3.165523       18.844864
  N           25.354714        5.374752       29.512315
  C           26.662818        5.680910       30.229713
  C           25.476834        4.430005       28.327857
  C           24.614423        6.672952       29.229317
  H           24.777817        4.869964       30.198769
  C           27.392156        4.421812       30.658696
  H           26.397442        6.265907       31.117728
  H           27.278193        6.299941       29.570206
  C           26.223844        5.040979       27.159991
  H           25.969216        3.522364       28.683119
  H           24.462612        4.138725       28.039160
  C           23.234075        6.434223       28.647137
  H           24.516602        7.190012       30.190721
  H           25.236213        7.279586       28.562685
  H           28.199314        4.678986       31.352513
  H           26.722690        3.717559       31.163541
  H           27.854390        3.917159       29.805173
  H           27.186963        5.467188       27.455938
  H           26.423482        4.269328       26.409176
  H           25.633818        5.822738       26.672591
  H           22.652718        5.741424       29.262677
  H           22.687624        7.381686       28.594870
  H           23.285971        6.039001       27.628342
  N           26.550861       16.932427       25.855963
  C           26.120462       15.482209       25.679466
  C           27.984335       17.125355       26.323222
  C           25.501683       17.678954       26.665508
  H           26.519061       17.343936       24.913365
  C           27.058132       14.710281       24.770514
  H           25.121486       15.510037       25.229477
  H           26.048705       15.023440       26.670030
  C           28.208593       16.660385       27.747559
  H           28.630729       16.590308       25.624392
  H           28.221591       18.187560       26.212468
  C           25.793059       19.164971       26.755745
  H           24.546762       17.528706       26.149011
  H           25.445038       17.216038       27.656228
  H           26.602835       13.753414       24.494587
  H           27.274305       15.261059       23.849137
  H           28.002581       14.480697       25.272653
  H           27.846945       15.641940       27.917316
  H           29.280511       16.669307       27.971022
  H           27.721834       17.325578       28.466877
  H           25.954920       19.603461       25.766623
  H           24.944823       19.678974       27.219773
  H           26.669489       19.369779       27.377645
  N            8.297104       24.129304       12.024162
  C            7.435108       23.748657       13.220657
  C            9.570523       23.314944       11.864090
  C            8.487323       25.638068       11.994350
  H            7.729819       23.904417       11.195637
  C            7.096825       22.269968       13.238928
  H            6.510554       24.330462       13.131666
  H            7.958673       24.055039       14.131067
  C           10.586074       23.586697       12.954976
  H            9.284116       22.261411       11.841661
  H            9.980761       23.544866       10.876327
  C            9.213950       26.102869       10.746447
  H            7.483468       26.077560       12.012756
  H            9.018847       25.930989       12.905780
  H            6.308420       22.079004       13.974438
  H            6.741187       21.923342       12.263020
  H            7.960209       21.666004       13.533261
  H           10.157061       23.499247       13.957542
  H           11.403108       22.861191       12.883422
  H           11.026859       24.582672       12.852123
  H            8.739669       25.718408        9.838657
  H            9.200770       27.196746       10.698627
  H           10.264056       25.796115       10.750148
  N           27.624465       13.308524        3.807479
  C           26.134597       13.588936        3.661911
  C           28.029963       11.859432        3.592756
  C           28.136929       13.938827        5.093380
  H           28.076745       13.828885        3.043601
  C           25.583887       13.099632        2.335793
  H           26.018656       14.677091        3.722678
  H           25.615664       13.130847        4.509082
  C           27.530606       10.938337        4.687038
  H           27.651497       11.555623        2.614529
  H           29.121471       11.834768        3.523209
  C           29.643401       13.824864        5.230650
  H           27.856891       14.997667        5.052714
  H           27.616454       13.466936        5.933291
  H           24.580880       13.509248        2.176999
  H           26.213854       13.410312        1.495768
  H           25.489172       12.009854        2.319965
  H           26.457885       11.049547        4.870721
  H           27.707674        9.897087        4.398130
  H           28.062924       11.108955        5.627444
  H           30.157493       14.200962        4.341215
  H           29.980239       14.412687        6.090900
  H           29.958002       12.792001        5.406881
  N           17.155086       24.667225       33.837719
  C           15.739407       25.225771       33.896083
  C           18.019326       25.221654       32.716960
  C           17.106603       23.149532       33.925448
  H           17.609166       24.981302       34.706056
  C           15.720552       26.741894       33.944089
  H           15.289334       24.828912       34.813227
  H           15.184014       24.841449       33.035460
  C           17.558234       24.780942       31.342772
  H           18.013703       26.309866       32.807656
  H           19.047089       24.900623       32.910549
  C           18.489480       22.533218       34.020826
  H           16.540613       22.909330       34.832738
  H           16.555814       22.776927       33.055492
  H           14.716479       27.092164       34.205191
  H           16.420534       27.132639       34.689989
  H           15.966127       27.175740       32.970278
  H           16.492421       24.965952       31.179523
  H           18.108711       25.336485       30.576371
  H           17.755000       23.717675       31.176689
  H           19.075961       22.984857       34.826367
  H           18.401452       21.461137       34.225569
  H           19.044684       22.634717       33.083658
  N           17.526737        6.156175       13.172768
  C           16.949277        7.457830       12.632618
  C           17.244393        4.926723       12.324752
  C           17.177405        6.018241       14.646668
  H           18.548266        6.275354       13.139375
  C           17.370057        7.723023       11.199472
  H           17.334688        8.256436       13.276747
  H           15.860701        7.417349       12.733609
  C           15.782194        4.530256       12.328271
  H           17.595631        5.139827       11.312980
  H           17.873977        4.117587       12.706533
  C           17.844897        4.815951       15.287170
  H           17.532574        6.932186       15.136338
  H           16.086909        5.970750       14.733776
  H           17.124109        8.754293       10.925582
  H           18.447174        7.583090       11.060683
  H           16.837915        7.071948       10.499641
  H           15.120953        5.367077       12.084698
  H           15.612813        3.749633       11.579297
  H           15.480993        4.120960       13.297081
  H           18.923792        4.811494       15.106060
  H           17.682974        4.838305       16.369902
  H           17.424082        3.874926       14.920807
  N           10.290216       16.378878       25.509550
  C           10.505912       17.744590       26.148170
  C            9.003543       16.237692       24.712718
  C           10.532028       15.290299       26.543941
  H           11.045549       16.277773       24.818110
  C           10.407912       18.873401       25.139473
  H           11.514617       17.728412       26.576504
  H            9.780259       17.862086       26.958391
  C            7.763975       16.265363       25.583310
  H            8.987341       17.040880       23.973063
  H            9.070839       15.301385       24.150903
  C           10.478155       13.899541       25.940468
  H           11.533166       15.468147       26.952977
  H            9.795356       15.413604       27.344651
  H           10.781524       19.801626       25.584262
  H           10.998338       18.666464       24.240808
  H            9.370590       19.056602       24.844115
  H            7.745531       17.126188       26.258200
  H            6.872980       16.326198       24.949708
  H            7.674839       15.353778       26.181561
  H           11.138372       13.812328       25.072515
  H           10.797514       13.162608       26.684757
  H            9.462791       13.627636       25.637253
  N           15.992470       20.449023       17.404648
  C           15.291381       20.752136       18.722269
  C           17.475245       20.136116       17.522420
  C           15.637137       21.517710       16.382353
  H           15.562345       19.580345       17.059349
  C           15.497926       19.655211       19.749588
  H           14.223294       20.834950       18.490865
  H           15.649745       21.719639       19.086069
  C           18.301345       21.337780       17.933257
  H           17.580852       19.318156       18.238138
  H           17.802088       19.744265       16.554711
  C           16.183164       21.200228       15.003097
  H           14.542588       21.552944       16.338330
  H           16.007681       22.478868       16.753701
  H           14.810022       19.799265       20.589267
  H           15.312442       18.662721       19.325815
  H           16.511538       19.678159       20.160562
  H           17.906161       21.832179       18.825578
  H           19.323766       21.018568       18.160813
  H           18.363570       22.074933       17.127298
  H           15.898443       20.194570       14.679954
  H           15.784932       21.915460       14.275855
  H           17.273431       21.283830       14.968974
  N           31.238853        5.293115        4.694311
  C           30.253418        4.449987        5.492799
  C           31.103741        6.794804        4.886862
  C           31.250948        4.826088        3.246838
  H           32.167483        5.057724        5.069914
  C           30.285403        4.776018        6.974004
  H           30.551590        3.405667        5.345466
  H           29.255762        4.595462        5.068116
  C           29.821999        7.351983        4.302128
  H           31.171027        6.994312        5.958372
  H           31.981700        7.260871        4.429909
  C           32.317470        5.524595        2.424703
  H           31.459331        3.750326        3.269872
  H           30.250339        4.984092        2.831094
  H           29.736784        4.011462        7.533910
  H           31.309646        4.809125        7.359820
  H           29.799867        5.733824        7.183050
  H           28.936014        6.805815        4.639126
  H           29.701615        8.395340        4.611865
  H           29.842311        7.338684        3.208397
  H           33.300539        5.455214        2.899674
  H           32.384801        5.058100        1.436332
  H           32.079577        6.580244        2.263930
  N           29.282526       21.122760        6.893747
  C           30.581878       21.473965        6.181099
  C           28.616391       19.840727        6.421457
  C           28.377547       22.344643        6.931902
  H           29.546950       20.942281        7.871678
  C           31.585361       20.336978        6.220729
  H           30.996769       22.341475        6.706941
  H           30.341273       21.765431        5.154458
  C           28.067142       19.944937        5.013376
  H           29.354675       19.040105        6.501492
  H           27.824332       19.603592        7.137868
  C           27.125721       22.109256        7.755802
  H           28.963884       23.150626        7.387771
  H           28.137626       22.621373        5.899970
  H           32.567967       20.698277        5.899837
  H           31.689159       19.922806        7.229050
  H           31.303368       19.530936        5.536906
  H           28.809189       20.317540        4.301076
  H           27.750918       18.954557        4.669614
  H           27.189944       20.597440        4.973393
  H           27.366642       21.730130        8.753327
  H           26.580076       23.051262        7.873799
  H           26.445198       21.405072        7.268104
  N           27.915233       10.395600       32.338246
  C           29.195164       11.123352       31.948784
  C           26.709296       11.292551       32.565396
  C           28.210653        9.413806       33.461744
  H           27.669547        9.818521       31.522489
  C           29.000514       12.025544       30.744853
  H           29.928818       10.346692       31.704311
  H           29.549790       11.682217       32.819845
  C           26.844650       12.162722       33.798160
  H           26.577158       11.896722       31.665406
  H           25.830886       10.644087       32.634129
  C           27.011817        8.548376       33.801026
  H           29.028682        8.775553       33.108645
  H           28.556649        9.985285       34.329341
  H           29.974130       12.353341       30.365847
  H           28.476517       11.510636       29.932867
  H           28.440767       12.927940       31.007911
  H           27.787650       12.716978       33.817873
  H           26.032320       12.896688       33.819089
  H           26.770919       11.571167       34.715473
  H           26.602800        8.061647       32.910726
  H           27.310022        7.766989       34.507804
  H           26.216659        9.126447       34.281020
  N           28.234707       28.128974       28.747807
  C           26.831704       28.656210       29.018242
  C           28.940262       27.530599       29.953851
  C           29.033015       29.175990       27.986294
  H           28.110782       27.344262       28.093812
  C           25.938727       27.612116       29.661477
  H           26.415581       28.938052       28.044270
  H           26.916785       29.553263       29.638640
  C           29.298189       28.564741       31.001545
  H           28.286684       26.758450       30.365054
  H           29.832752       27.016185       29.585510
  C           30.393383       28.661995       27.554439
  H           28.443716       29.429370       27.097619
  H           29.117977       30.064885       28.620071
  H           24.897136       27.949022       29.636854
  H           25.996768       26.651550       29.139014
  H           26.198572       27.456763       30.712753
  H           28.444441       29.188099       31.283283
  H           29.649759       28.060960       31.907982
  H           30.106391       29.217825       30.659306
  H           30.311600       27.715481       27.011983
  H           30.869616       29.392344       26.892004
  H           31.063379       28.520297       28.407586
  N            8.968030       16.759387       12.153339
  C            7.575337       17.373342       12.098611
  C            9.743675       17.037763       13.430555
  C            9.712422       17.072480       10.864427
  H            8.818665       15.741301       12.147572
  C            6.730091       16.990297       13.298662
  H            7.104734       16.988476       11.186675
  H            7.682817       18.458389       12.009403
  C           10.144723       18.491792       13.572628
  H            9.121956       16.713676       14.267751
  H           10.621255       16.384564       13.426188
  C           11.053802       16.368120       10.787840
  H            9.073770       16.723522       10.044935
  H            9.820590       18.159630       10.790734
  H            5.684802       17.261752       13.117813
  H            6.771472       15.914172       13.496819
  H            7.047283       17.525870       14.198322
  H            9.299949       19.174014       13.439331
  H           10.549868       18.663443       14.575333
  H           10.925896       18.763151       12.856408
  H           10.954339       15.293726       10.968450
  H           11.485565       16.505789        9.791018
  H           11.769839       16.779385       11.505466
  N           21.560682       14.416753       19.888883
  C           21.670711       15.711490       20.683288
  C           22.434306       13.278484       20.390405
  C           21.684564       14.719819       18.403539
  H           20.593830       14.092586       20.026555
  C           21.425971       15.499766       22.165370
  H           20.904471       16.384828       20.282405
  H           22.656602       16.146372       20.494257
  C           23.913074       13.533094       20.181490
  H           22.202381       13.129561       21.447049
  H           22.112827       12.370133       19.872346
  C           21.437666       13.495254       17.542859
  H           20.926909       15.478889       18.177733
  H           22.677229       15.146616       18.226097
  H           21.295566       16.467133       22.661576
  H           20.526623       14.901924       22.346428
  H           22.277464       15.007951       22.644864
  H           24.229449       14.505544       20.570185
  H           24.493981       12.766146       20.704330
  H           24.182748       13.478519       19.122654
  H           20.491335       13.009141       17.797789
  H           21.394926       13.788634       16.488759
  H           22.244726       12.762823       17.637911
  N           22.778966        4.320021       13.450643
  C           22.915301        5.692467       14.096655
  C           21.468299        3.603866       13.732912
  C           24.032864        3.503330       13.723036
  H           22.775692        4.494079       12.436476
  C           21.754171        6.607051       13.755183
  H           23.843787        6.125339       13.707102
  H           23.016664        5.553723       15.177077
  C           21.329682        3.174678       15.179221
  H           20.658971        4.275315       13.438619
  H           21.416814        2.743662       13.058945
  C           24.028806        2.177657       12.985566
  H           24.878271        4.107806       13.375024
  H           24.118734        3.364638       14.805817
  H           21.992959        7.634708       14.048313
  H           21.536510        6.602510       12.682044
  H           20.848306        6.322982       14.298827
  H           21.517419        3.994388       15.878982
  H           20.310424        2.817071       15.358820
  H           22.009145        2.351509       15.419134
  H           23.835938        2.312795       11.917214
  H           25.004235        1.692336       13.095245
  H           23.282161        1.489181       13.392206
  N            3.854990       27.129233       17.532696
  C            2.942912       27.973994       16.652910
  C            3.197766       25.907627       18.154096
  C            4.596776       28.030010       18.508295
  H            4.574107       26.753334       16.899916
  C            2.268818       27.154483       15.568802
  H            3.581119       28.734125       16.188036
  H            2.212034       28.472375       17.296548
  C            2.160524       26.262965       19.199605
  H            2.759311       25.323774       17.342101
  H            3.994976       25.292443       18.581695
  C            5.632793       27.273321       19.317850
  H            5.098278       28.794769       17.904261
  H            3.855870       28.516364       19.151368
  H            1.805190       27.821177       14.834233
  H            2.983305       26.513697       15.041616
  H            1.471019       26.528256       15.978915
  H            1.429779       26.990426       18.834025
  H            1.609674       25.362155       19.489656
  H            2.625977       26.663989       20.104796
  H            6.307257       26.701802       18.673413
  H            6.235619       27.980397       19.897221
  H            5.167999       26.588777       20.033533
  N            7.020592       12.386711       11.222775
  C            7.721289       13.015791       12.419776
  C            7.520417       12.855208        9.865908
  C            5.514095       12.463368       11.417787
  H            7.255359       11.385670       11.263300
  C            9.228541       12.857783       12.352601
  H            7.341967       12.495854       13.306905
  H            7.426994       14.068036       12.474606
  C            7.178036       14.302713        9.578278
  H            8.599490       12.689681        9.840091
  H            7.087501       12.189802        9.113144
  C            4.754073       11.724543       10.332526
  H            5.302906       11.998181       12.387434
  H            5.231290       13.520251       11.463023
  H            9.672298       13.120033       13.318691
  H            9.518124       11.828931       12.114633
  H            9.667903       13.527873       11.607766
  H            7.478669       14.973056       10.388893
  H            7.699395       14.629109        8.672368
  H            6.106448       14.432609        9.400341
  H            5.113945       10.697811       10.217856
  H            3.690560       11.684246       10.590097
  H            4.829558       12.232378        9.366482
  N           28.667614       26.175320       17.328740
  C           27.892744       26.209391       16.018036
  C           28.039990       25.329791       18.424901
  C           29.036546       27.593016       17.737965
  H           29.558089       25.709244       17.108128
  C           27.604651       24.819175       15.483628
  H           28.522698       26.749197       15.301807
  H           26.972983       26.779496       16.178830
  C           26.747408       25.915602       18.955261
  H           27.884434       24.328850       18.016999
  H           28.783126       25.227063       19.221161
  C           29.936451       27.624825       18.958804
  H           29.567409       28.033376       16.886212
  H           28.108769       28.150542       17.903564
  H           27.249431       24.885504       14.449972
  H           28.498764       24.187149       15.494929
  H           26.817235       24.324606       16.060008
  H           26.039414       26.158444       18.157383
  H           26.260887       25.190509       19.615989
  H           26.929715       26.819474       19.544003
  H           30.811254       26.980645       18.830008
  H           30.290250       28.647042       19.128878
  H           29.404275       27.316515       19.863552
  N            2.554422       20.658015       19.289449
  C            3.293129       21.135091       18.045970
  C            2.187431       21.752141       20.278695
  C            3.283902       19.464817       19.887425
  H            1.654811       20.291837       18.949661
  C            2.548946       22.242446       17.323996
  H            3.377449       20.264894       17.385014
  H            4.297354       21.450383       18.344230
  C            3.395100       22.356381       20.965465
  H            1.620638       22.509440       19.733067
  H            1.497526       21.314022       21.005963
  C            2.523835       18.845539       21.045044
  H            3.381914       18.726537       19.083340
  H            4.283529       19.794724       20.188976
  H            2.990218       22.401925       16.334617
  H            1.490430       21.997566       17.187611
  H            2.623601       23.191572       17.862905
  H            4.164349       22.675076       20.255869
  H            3.088296       23.239699       21.535241
  H            3.845727       21.654362       21.673237
  H            1.490489       18.614860       20.769690
  H            3.010373       17.912461       21.347821
  H            2.515240       19.500121       21.921562
  N           26.629123       11.348195       19.372932
  C           26.831972       12.164701       18.103405
  C           27.833681       10.531370       19.811382
  C           25.324032       10.573150       19.275557
  H           26.486902       12.038644       20.122528
  C           28.051111       13.063672       18.186112
  H           25.933967       12.782286       17.987677
  H           26.896036       11.473112       17.258162
  C           28.146103        9.387450       18.868479
  H           28.679350       11.216778       19.898118
  H           27.627412       10.165525       20.821553
  C           24.984645        9.851361       20.565954
  H           24.541936       11.309135       19.056766
  H           25.403560        9.879606       18.431934
  H           28.037513       13.783734       17.361278
  H           28.077838       13.625115       19.125841
  H           28.977904       12.489908       18.092916
  H           28.217798        9.711777       17.826122
  H           29.108611        8.941606       19.140187
  H           27.392453        8.597218       18.934667
  H           25.010960       10.529113       21.424322
  H           23.976407        9.429664       20.497739
  H           25.667101        9.017813       20.756445
  N           10.703740       16.427044        3.990985
  C           10.138644       16.182888        5.384033
  C           12.103597       15.881529        3.760297
  C           10.509114       17.887257        3.612384
  H           10.099495       15.891717        3.352899
  C           10.182254       14.717505        5.773956
  H            9.095925       16.519351        5.356708
  H           10.692282       16.806471        6.092175
  C           13.162770       16.619184        4.553546
  H           12.086190       14.819289        4.012895
  H           12.301973       15.940618        2.686057
  C           10.916427       18.170226        2.178748
  H            9.440548       18.099044        3.732923
  H           11.073853       18.500006        4.322761
  H            9.576367       14.554390        6.671352
  H            9.790414       14.074581        4.978888
  H           11.200518       14.398040        6.014615
  H           12.913255       16.694693        5.616032
  H           14.115451       16.084724        4.477549
  H           13.324900       17.628120        4.162908
  H           10.429706       17.483636        1.479797
  H           10.626783       19.191017        1.908347
  H           11.999631       18.099147        2.042906
  N           16.392963       27.006344       17.871840
  C           16.724209       26.858051       19.350967
  C           16.998154       28.226253       17.196586
  C           14.896261       26.830267       17.666124
  H           16.833647       26.199016       17.410473
  C           18.218097       26.893244       19.612401
  H           16.325472       25.884991       19.659801
  H           16.198897       27.645101       19.899999
  C           16.396806       29.529115       17.682546
  H           18.075523       28.196247       17.372195
  H           16.857120       28.103900       16.118637
  C           14.513520       26.819590       16.198240
  H           14.632912       25.865807       18.115214
  H           14.382576       27.627649       18.213240
  H           18.422956       26.566953       20.637385
  H           18.764618       26.233071       18.930850
  H           18.617157       27.907202       19.515051
  H           16.399937       29.610438       18.773515
  H           16.978053       30.369683       17.289329
  H           15.368932       29.651893       17.328656
  H           15.106254       26.093753       15.633738
  H           13.457620       26.548576       16.095028
  H           14.636477       27.805109       15.739471
  N           18.045377       17.936592        8.028047
  C           17.918580       18.545316        9.418337
  C           18.894355       18.734460        7.051807
  C           16.667109       17.546710        7.516374
  H           18.552555       17.051364        8.162151
  C           19.269333       18.838572       10.043443
  H           17.388939       17.806675       10.030796
  H           17.303721       19.446997        9.342475
  C           18.256517       20.049404        6.652669
  H           19.868955       18.891396        7.518700
  H           19.068646       18.098850        6.178619
  C           16.731902       16.799805        6.197578
  H           16.226016       16.895145        8.279340
  H           16.064527       18.457566        7.437243
  H           19.144454       19.062927       11.107912
  H           19.950945       17.986230        9.954325
  H           19.739706       19.714150        9.586335
  H           17.944363       20.642728        7.517171
  H           18.977067       20.648758        6.086449
  H           17.387028       19.892729        6.007472
  H           17.419314       15.950379        6.250253
  H           15.738417       16.416616        5.942271
  H           17.043153       17.452213        5.376407
  N           23.399571       18.490282       13.966854
  C           23.541622       19.561218       15.040376
  C           22.232321       17.536204       14.160927
  C           24.746511       17.823684       13.732677
  H           23.187082       18.999812       13.098484
  C           22.263909       20.356002       15.232879
  H           24.338371       20.233201       14.701485
  H           23.859774       19.076101       15.967886
  C           22.410444       16.620640       15.354761
  H           21.328077       18.141031       14.255744
  H           22.124853       16.962455       13.235672
  C           24.712320       16.847026       12.572393
  H           25.455589       18.628324       13.506886
  H           25.049964       17.335525       14.664687
  H           22.467358       21.243515       15.841116
  H           21.845470       20.688611       14.277209
  H           21.506359       19.772398       15.764255
  H           22.659493       17.168014       16.268650
  H           21.478317       16.077272       15.541612
  H           23.190010       15.874679       15.174051
  H           24.307312       17.311187       11.668314
  H           25.727910       16.502722       12.350904
  H           24.118121       15.958859       12.806745
  N            5.348878        6.631573        5.113057
  C            5.809080        6.194069        3.728740
  C            6.168828        7.747129        5.740447
  C            5.145723        5.406760        5.991694
  H            4.411588        7.033334        4.975523
  C            5.906577        7.357697        2.760362
  H            5.058780        5.482578        3.365360
  H            6.766060        5.674594        3.834431
  C            7.572658        7.312535        6.108704
  H            6.183330        8.579366        5.033598
  H            5.620463        8.097863        6.619718
  C            4.546534        5.757872        7.340390
  H            4.456845        4.747939        5.450750
  H            6.111021        4.900524        6.096338
  H            6.022264        6.981161        1.738667
  H            5.010572        7.986416        2.790527
  H            6.780631        7.980958        2.971103
  H            8.092746        6.828323        5.276909
  H            8.162535        8.188143        6.399182
  H            7.568526        6.626961        6.961235
  H            3.637196        6.356452        7.232491
  H            4.286441        4.840023        7.877913
  H            5.254563        6.306131        7.968834
  N           18.378970       20.070854       29.141980
  C           16.975497       20.339010       28.614834
  C           18.439316       19.261727       30.427311
  C           19.172397       21.368414       29.157800
  H           18.829551       19.478378       28.431495
  C           16.169577       19.064437       28.449761
  H           17.100120       20.817742       27.636825
  H           16.484053       21.043341       29.292504
  C           17.900809       20.016200       31.625646
  H           17.883773       18.337007       30.257812
  H           19.483147       18.971773       30.579550
  C           20.625971       21.150660       29.533292
  H           19.118869       21.776970       28.142205
  H           18.675626       22.061381       29.844853
  H           15.263506       19.271015       27.870637
  H           16.738492       18.290205       27.924475
  H           15.846172       18.667939       29.416733
  H           16.907971       20.437909       31.443242
  H           17.816224       19.335340       32.479050
  H           18.572584       20.826872       31.922910
  H           21.090061       20.378740       28.912329
  H           21.185960       22.081050       29.392528
  H           20.735756       20.867888       30.584398
  N           31.686987       27.460147       23.933470
  C           31.678224       28.758813       23.137908
  C           32.638025       27.438795       25.118997
  C           31.815850       26.281468       22.980816
  H           30.746353       27.384214       24.343691
  C           31.421728       29.969407       24.015383
  H           30.869089       28.665275       22.404581
  H           32.630070       28.840112       22.604790
  C           34.095790       27.447330       24.706597
  H           32.397750       28.299715       25.746331
  H           32.399926       26.549538       25.710068
  C           31.683950       24.948184       23.692324
  H           31.005004       26.383029       22.250452
  H           32.774860       26.369792       22.459736
  H           31.205206       30.841638       23.389799
  H           30.569216       29.811961       24.684307
  H           32.299875       30.219597       24.617960
  H           34.326280       28.250129       24.000039
  H           34.725218       27.597162       25.589996
  H           34.389870       26.494458       24.256720
  H           30.774289       24.904509       24.298496
  H           31.638972       24.140109       22.954748
  H           32.544514       24.744913       24.336488
  N           10.579289       16.787045       16.988876
  C            9.162836       17.159420       17.406639
  C           11.076401       15.452436       17.520007
  C           11.508088       17.966246       17.234350
  H           10.541655       16.671084       15.967124
  C            8.158941       16.073569       17.068390
  H            8.908876       18.071799       16.855018
  H            9.169700       17.384606       18.477190
  C           11.289391       15.456372       19.019955
  H           10.350713       14.692047       17.223949
  H           12.004091       15.217417       16.989920
  C           12.907746       17.717496       16.704853
  H           11.069254       18.821435       16.707764
  H           11.512587       18.176484       18.308969
  H            7.141161       16.462210       17.178424
  H            8.276897       15.718706       16.039224
  H            8.249246       15.220245       17.747007
  H           10.415710       15.824439       19.565890
  H           11.485355       14.435633       19.364503
  H           12.154574       16.064734       19.299583
  H           12.891002       17.403336       15.657066
  H           13.496351       18.638300       16.773336
  H           13.434164       16.957827       17.290194
  N            5.557413       23.131492        8.562131
  C            4.956541       21.737081        8.680885
  C            4.593476       24.272947        8.841965
  C            6.328606       23.242961        7.255886
  H            6.264170       23.189296        9.307780
  C            4.281615       21.513593       10.020967
  H            5.789264       21.032702        8.573005
  H            4.261372       21.591871        7.848725
  C            3.519244       24.411562        7.782703
  H            4.158446       24.099013        9.828353
  H            5.188322       25.187480        8.923346
  C            7.076662       24.557469        7.138548
  H            7.047888       22.416037        7.248951
  H            5.621374       23.103985        6.431548
  H            4.061464       20.449024       10.152313
  H            4.917079       21.833572       10.853326
  H            3.327886       22.046060       10.081924
  H            3.003149       23.467672        7.583822
  H            2.766348       25.132900        8.117133
  H            3.931701       24.786273        6.841264
  H            7.702568       24.743317        8.016351
  H            7.726588       24.533874        6.257601
  H            6.394289       25.402747        7.009291
  N           29.976587       23.487370       27.270584
  C           28.935931       24.518765       26.854905
  C           29.565710       22.588952       28.425758
  C           31.328903       24.165294       27.429017
  H           30.074753       22.856991       26.463226
  C           27.589672       23.888260       26.552682
  H           29.322685       24.998437       25.948510
  H           28.862232       25.269308       27.647426
  C           29.461477       23.330930       29.742508
  H           28.615433       22.123543       28.155884
  H           30.300144       21.780298       28.485083
  C           32.443363       23.172217       27.699319
  H           31.528330       24.683898       26.484297
  H           31.244440       24.907680       28.229488
  H           26.942841       24.616804       26.052825
  H           27.688195       23.016573       25.897335
  H           27.076563       23.582737       27.469313
  H           28.840144       24.228382       29.669285
  H           29.007513       22.678261       30.495477
  H           30.447420       23.621435       30.117154
  H           32.456716       22.370784       26.954764
  H           33.410229       23.684927       27.662920
  H           32.356330       22.725155       28.694003
  N            3.095132       31.626932       25.190490
  C            2.441655       32.004564       23.867656
  C            4.351155       32.410988       25.534090
  C            3.234427       30.114686       25.275040
  H            2.412391       31.884009       25.916174
  C            2.153495       33.490859       23.771846
  H            1.498012       31.449093       23.820683
  H            3.091624       31.665447       23.055636
  C            5.516028       32.089829       24.620223
  H            4.095508       33.471875       25.493733
  H            4.595516       32.191372       26.577589
  C            3.743786       29.657566       26.628880
  H            2.233368       29.701247       25.107212
  H            3.892805       29.788793       24.463031
  H            1.495292       33.686739       22.918954
  H            1.660286       33.867199       24.674141
  H            3.069401       34.065732       23.606092
  H            5.251295       32.167230       23.561562
  H            6.332661       32.795119       24.806506
  H            5.906241       31.085088       24.807485
  H            3.145156       30.073376       27.444711
  H            3.691512       28.565661       26.692424
  H            4.790098       29.936668       26.784343
  N           18.670727       23.998682        3.455153
  C           17.479904       24.782475        3.991006
  C           18.399536       23.203191        2.188642
  C           19.311934       23.211269        4.587530
  H           19.364614       24.707819        3.182232
  C           16.870799       25.692711        2.941363
  H           17.859166       25.389800        4.820785
  H           16.748192       24.069037        4.381439
  C           17.459227       22.036900        2.414050
  H           18.000545       23.897174        1.445906
  H           19.366258       22.862920        1.805889
  C           20.592699       22.521663        4.156981
  H           19.539564       23.935086        5.378409
  H           18.573219       22.496040        4.964058
  H           16.172597       26.390323        3.415573
  H           17.634901       26.279281        2.420683
  H           16.299715       25.123822        2.201724
  H           16.539331       22.333770        2.926394
  H           17.172736       21.605919        1.449062
  H           17.938534       21.242933        2.994324
  H           21.286598       23.222317        3.683248
  H           21.090707       22.090530        5.031703
  H           20.397208       21.698796        3.463073
  N           23.018360       18.275565        6.955446
  C           22.039610       18.563157        5.824576
  C           23.834354       17.003665        6.791661
  C           22.306794       18.418753        8.292088
  H           23.705899       19.040487        6.923420
  C           22.714616       18.565380        4.466028
  H           21.622806       19.557130        6.023345
  H           21.232953       17.825810        5.874177
  C           22.997315       15.746238        6.907703
  H           24.335370       17.059216        5.822971
  H           24.623229       17.024376        7.549344
  C           23.256987       18.290033        9.467611
  H           21.857349       19.418340        8.298560
  H           21.507860       17.671042        8.332827
  H           22.037232       18.987015        3.716095
  H           23.631292       19.164307        4.469758
  H           22.959239       17.550286        4.139563
  H           22.118969       15.766381        6.255829
  H           23.599327       14.877956        6.620139
  H           22.662168       15.582230        7.936107
  H           24.111831       18.965588        9.369103
  H           22.731574       18.541091       10.394938
  H           23.629370       17.267356        9.578508
  N           11.153585       24.173278        3.991479
  C            9.965476       24.642670        4.820695
  C           12.026661       25.284805        3.432330
  C           10.687683       23.143864        2.973303
  H           11.759470       23.661243        4.646890
  C           10.379769       25.575134        5.943264
  H            9.512510       23.740699        5.247878
  H            9.243817       25.115308        4.147897
  C           11.329507       26.102379        2.364260
  H           12.337006       25.910348        4.271881
  H           12.935826       24.818072        3.041926
  C           11.843035       22.524112        2.210179
  H           10.167308       22.362224        3.538516
  H            9.972822       23.630576        2.301655
  H            9.545380       25.711345        6.639157
  H           11.230174       25.177925        6.507233
  H           10.642498       26.566653        5.562870
  H           10.348586       26.463476        2.687123
  H           11.937630       26.979490        2.119542
  H           11.201367       25.528916        1.441462
  H           12.608038       22.132924        2.887364
  H           11.476383       21.694123        1.597227
  H           12.311105       23.241262        1.529414
  N           18.353539        7.091423       19.389350
  C           18.511856        7.138844       20.903357
  C           19.602752        7.449142       18.600741
  C           17.096656        7.847025       18.985924
  H           18.168604        6.104500       19.164354
  C           19.675683        6.294469       21.386912
  H           17.579403        6.744332       21.323008
  H           18.619131        8.185318       21.203725
  C           19.984888        8.909390       18.730630
  H           20.406323        6.796015       18.947387
  H           19.415281        7.181245       17.556749
  C           16.796397        7.716950       17.504636
  H           16.273255        7.408713       19.561347
  H           17.219479        8.893397       19.284328
  H           19.622243        6.177350       22.474318
  H           19.666415        5.295968       20.937541
  H           20.634936        6.771155       21.164562
  H           20.040563        9.236426       19.773120
  H           20.971140        9.070848       18.283122
  H           19.278879        9.556274       18.201546
  H           16.780118        6.669775       17.188417
  H           15.814954        8.151706       17.288340
  H           17.526164        8.256316       16.893604
  N           29.074197       32.287862       10.826077
  C           29.050977       33.592643       10.040877
  C           28.158363       32.250770       12.038625
  C           30.515259       31.880647       11.092451
  H           28.698345       31.576042       10.185071
  C           27.646624       33.990674        9.627776
  H           29.657812       33.423220        9.144070
  H           29.528347       34.366682       10.649003
  C           28.610909       33.177051       13.148775
  H           27.152506       32.502893       11.696356
  H           28.116882       31.213003       12.382361
  C           30.617177       30.514159       11.743306
  H           31.015390       31.854726       10.117559
  H           30.979279       32.658444       11.707873
  H           27.692064       34.798523        8.889982
  H           27.102937       33.152466        9.179629
  H           27.071565       34.368094       10.478480
  H           28.795233       34.195725       12.794987
  H           27.834093       33.232709       13.918504
  H           29.520365       32.807942       13.631976
  H           30.061364       29.758526       11.180346
  H           31.666260       30.203035       11.783970
  H           30.247667       30.526341       12.772942
  N           13.797081       20.751050        9.056537
  C           14.931270       21.402617        8.276406
  C           12.437971       21.409978        8.886144
  C           14.232089       20.531060       10.497305
  H           13.691253       19.810972        8.651697
  C           14.612790       21.532961        6.798952
  H           15.804815       20.752817        8.402480
  H           15.145579       22.374256        8.731186
  C           12.366609       22.786899        9.514015
  H           12.226128       21.450204        7.815645
  H           11.694134       20.737415        9.323410
  C           13.204915       19.752157       11.297000
  H           15.166353       19.959569       10.455282
  H           14.435690       21.510133       10.943387
  H           15.520478       21.795805        6.245743
  H           14.221973       20.597840        6.384423
  H           13.885906       22.329720        6.615505
  H           13.188430       23.435168        9.195905
  H           11.431382       23.274991        9.220517
  H           12.373376       22.729274       10.606476
  H           12.924399       18.822411       10.793294
  H           13.619444       19.494904       12.277313
  H           12.300020       20.339943       11.477295
  N           13.405171       11.476046       11.470773
  C           13.168355       10.333847       12.449971
  C           13.446404       11.069660       10.006686
  C           14.584324       12.313232       11.942108
  H           12.580238       12.085166       11.556204
  C           11.924992        9.533655       12.110808
  H           13.044290       10.794749       13.436578
  H           14.062972        9.704336       12.464473
  C           14.661930       10.234539        9.659851
  H           12.520629       10.532425        9.790390
  H           13.416275       11.988610        9.413846
  C           14.785903       13.554334       11.093393
  H           14.359975       12.612522       12.972307
  H           15.474025       11.674911       11.944618
  H           11.669045        8.874125       12.946593
  H           11.065337       10.183347       11.916087
  H           12.086994        8.893982       11.238220
  H           14.790808        9.382667       10.334047
  H           14.555273        9.836652        8.645290
  H           15.577336       10.833296        9.678793
  H           13.863061       14.135270       11.005571
  H           15.547018       14.194274       11.551876
  H           15.140657       13.305915       10.088767
  N           32.164322       21.904787       19.700395
  C           30.735991       22.389841       19.490344
  C           32.337180       20.394648       19.699566
  C           32.775014       22.624092       20.893330
  H           32.688881       22.234547       18.878849
  C           30.109391       21.808598       18.237021
  H           30.791956       23.480238       19.394853
  H           30.155726       22.143159       20.384366
  C           31.704976       19.727441       20.903883
  H           31.911328       20.017419       18.767465
  H           33.411062       20.190950       19.653537
  C           34.245739       22.297989       21.071969
  H           32.663849       23.696923       20.698670
  H           32.191033       22.363126       21.782087
  H           29.182071       22.342383       18.004264
  H           30.776300       21.894933       17.372843
  H           29.845319       20.755755       18.373491
  H           30.663714       20.029047       21.051004
  H           31.715665       18.640956       20.768015
  H           32.261779       19.945171       21.820071
  H           34.808204       22.459265       20.147599
  H           34.674353       22.942557       21.846469
  H           34.395733       21.264453       21.397761
  N            3.827233       11.916381        4.386414
  C            3.158704       12.439661        5.650842
  C            4.867709       12.842902        3.778657
  C            2.764905       11.415790        3.419817
  H            4.351632       11.081053        4.679797
  C            4.166806       12.835848        6.712941
  H            2.535259       11.622105        6.030494
  H            2.511984       13.277632        5.374450
  C            4.265740       14.105238        3.196107
  H            5.595665       13.073664        4.559229
  H            5.403962       12.272063        3.014843
  C            3.366284       10.745428        2.199061
  H            2.161962       10.686206        3.972433
  H            2.129729       12.264275        3.144770
  H            3.656011       12.993512        7.668585
  H            4.927453       12.061786        6.858775
  H            4.665871       13.775827        6.459544
  H            3.608842       14.620633        3.902995
  H            5.066430       14.801279        2.925097
  H            3.697525       13.894132        2.285392
  H            4.082787        9.967822        2.479753
  H            2.572519       10.277458        1.607479
  H            3.868432       11.465685        1.546441
  N           18.422367       10.084980       30.940909
  C           17.707630        9.218684       29.912215
  C           19.278485       11.198618       30.360157
  C           19.122350        9.194948       31.956441
  H           17.675310       10.565195       31.460660
  C           16.880058       10.041158       28.942704
  H           17.046450        8.551783       30.477281
  H           18.457617        8.614980       29.392698
  C           20.500504       10.683080       29.627957
  H           18.640865       11.790968       29.700592
  H           19.561824       11.855409       31.187913
  C           19.733132        9.989612       33.095188
  H           18.357226        8.519894       32.356570
  H           19.875103        8.602314       31.426182
  H           16.218157        9.383536       28.369605
  H           16.258725       10.777362       29.463255
  H           17.513517       10.563907       28.220000
  H           20.252605        9.916811       28.887542
  H           20.983939       11.509049       29.095894
  H           21.237665       10.268875       30.322121
  H           19.001469       10.660875       33.554438
  H           20.097095        9.304872       33.868292
  H           20.591347       10.581122       32.762897
  N           28.786503        6.330806       13.870048
  C           28.106956        5.714366       15.085674
  C           29.890028        5.486782       13.253397
  C           29.169708        7.770264       14.177544
  H           28.056335        6.386102       13.147110
  C           27.581400        4.319210       14.805283
  H           27.268109        6.373512       15.336830
  H           28.819978        5.718772       15.915382
  C           31.110026        5.368242       14.143778
  H           29.465048        4.506119       13.029444
  H           30.145855        5.939909       12.291075
  C           29.719494        8.492589       12.962114
  H           28.253432        8.270502       14.511334
  H           29.888860        7.760819       15.003230
  H           26.917423        4.003083       15.616592
  H           27.015069        4.279899       13.868935
  H           28.394022        3.588449       14.755577
  H           30.857692        5.049346       15.159391
  H           31.796257        4.623568       13.727159
  H           31.655562        6.314667       14.203004
  H           29.044476        8.408473       12.105311
  H           29.845377        9.555882       13.191430
  H           30.702643        8.109853       12.672689
  N            9.164678       32.306085        4.476048
  C           10.386298       33.134893        4.850548
  C            8.026412       33.088848        3.841986
  C            8.767422       31.426597        5.651688
  H            9.486557       31.660368        3.742369
  C           10.915910       33.940749        3.679481
  H           11.153263       32.423042        5.176506
  H           10.118717       33.776730        5.695108
  C            7.352099       34.039007        4.810347
  H            8.436148       33.622827        2.982075
  H            7.314398       32.360401        3.442942
  C            7.646876       30.466270        5.300353
  H            9.660818       30.854335        5.926600
  H            8.494483       32.079891        6.486995
  H           11.905235       34.342103        3.922741
  H           11.010955       33.328983        2.776302
  H           10.270628       34.796076        3.458433
  H            8.066537       34.685576        5.328386
  H            6.659079       34.687426        4.264178
  H            6.767324       33.497848        5.560028
  H            7.879453       29.889473        4.400326
  H            7.493893       29.761668        6.124464
  H            6.697958       30.988503        5.146526
  N           20.840326       13.040139       11.500237
  C           19.955268       13.252157       12.721405
  C           22.043397       13.964713       11.409780
  C           19.975844       12.980957       10.250193
  H           21.235774       12.096456       11.609434
  C           20.739945       13.191343       14.018275
  H           19.214141       12.444828       12.708508
  H           19.437102       14.208809       12.606705
  C           21.660977       15.407349       11.149430
  H           22.603559       13.864364       12.341774
  H           22.690691       13.578394       10.616935
  C           20.776668       12.625201        9.011885
  H           19.223897       12.204066       10.429734
  H           19.469333       13.945731       10.142108
  H           20.050239       13.126756       14.866307
  H           21.400923       12.318980       14.051679
  H           21.341037       14.093647       14.164469
  H           20.904442       15.772882       11.850056
  H           22.544175       16.045458       11.258062
  H           21.285359       15.544130       10.131079
  H           21.365895       11.715746        9.162009
  H           20.097071       12.453837        8.170570
  H           21.450813       13.435087        8.717865
  N           18.053027       11.469547       24.832290
  C           16.753964       10.795633       25.253960
  C           19.091929       10.540455       24.225766
  C           18.557918       12.352389       25.963270
  H           17.793378       12.112949       24.072385
  C           16.125510       10.000471       24.125221
  H           16.072564       11.600287       25.553029
  H           16.961475       10.166923       26.124878
  C           19.672061        9.566976       25.231257
  H           18.615973       10.016188       23.394457
  H           19.873258       11.168858       23.788193
  C           19.771001       13.168907       25.559519
  H           17.735114       13.029845       26.218737
  H           18.769400       11.711307       26.825427
  H           15.101832        9.720016       24.394392
  H           16.085515       10.577992       23.195763
  H           16.671800        9.071208       23.938474
  H           18.898684        9.025463       25.783968
  H           20.283984        8.823502       24.709893
  H           20.321384       10.074472       25.950746
  H           19.590555       13.726754       24.635895
  H           20.009689       13.888859       26.349281
  H           20.655949       12.540521       25.422279
  N           33.003616        7.740308       32.145585
  C           31.669281        7.926976       32.855680
  C           33.830860        9.005756       31.988393
  C           32.791840        6.944173       30.867007
  H           33.559205        7.132413       32.762533
  C           31.825221        8.601565       34.205458
  H           31.253391        6.923070       32.998595
  H           31.006077        8.492975       32.194891
  C           33.212972        9.999186       31.025826
  H           33.955191        9.440557       32.982352
  H           34.828249        8.702353       31.656733
  C           34.099675        6.594151       30.182654
  H           32.277994        6.020915       31.158167
  H           32.133755        7.524021       30.211471
  H           30.891526        8.518729       34.771477
  H           32.623018        8.142327       34.798455
  H           32.038156        9.669103       34.096574
  H           32.165052       10.210815       31.258018
  H           33.758407       10.947235       31.078059
  H           33.274617        9.646120       29.992201
  H           34.796772        6.109089       30.872296
  H           33.908418        5.905017       29.353472
  H           34.584793        7.477911       29.757846
  N           15.266108       16.269167       22.585945
  C           15.413566       17.784098       22.638565
  C           16.574112       15.497809       22.518605
  C           14.240370       15.894910       21.527062
  H           14.845097       16.003785       23.486591
  C           16.326230       18.234646       23.763439
  H           14.407618       18.185811       22.805632
  H           15.773217       18.127095       21.663968
  C           17.304525       15.687794       21.204974
  H           17.186746       15.818791       23.363657
  H           16.338312       14.443455       22.690567
  C           13.934549       14.409071       21.520529
  H           13.327401       16.450651       21.769666
  H           14.615080       16.235966       20.556341
  H           16.232762       19.316279       23.906118
  H           16.075147       17.744884       24.710072
  H           17.376196       18.033466       23.531199
  H           17.427313       16.742850       20.943024
  H           18.305184       15.248823       21.275748
  H           16.786986       15.184427       20.383018
  H           13.663063       14.050351       22.517751
  H           13.093984       14.209133       20.847846
  H           14.782257       13.821726       21.155494
  N           15.594743       30.138660       33.113827
  C           16.967003       30.642659       33.540928
  C           15.446167       29.860314       31.626935
  C           14.517052       31.027606       33.715324
  H           15.485622       29.222623       33.569689
  C           18.085075       29.725462       33.082721
  H           16.954532       30.679013       34.636254
  H           17.093755       31.658635       33.155490
  C           15.484184       31.118653       30.784104
  H           16.241434       29.167955       31.342939
  H           14.503865       29.321611       31.490187
  C           13.119983       30.498355       33.451919
  H           14.698396       31.046694       34.796049
  H           14.649521       32.038620       33.316164
  H           19.017671       29.996257       33.588646
  H           17.868060       28.676615       33.310423
  H           18.266004       29.821744       32.008091
  H           16.352174       31.746009       31.007385
  H           15.539020       30.847962       29.724508
  H           14.579108       31.718166       30.919228
  H           13.022952       29.451787       33.755425
  H           12.390757       31.085150       34.020186
  H           12.845728       30.584067       32.396328
  N           21.505905       27.552284       14.230775
  C           22.232575       26.965967       13.027566
  C           22.402272       27.950254       15.392044
  C           20.330200       26.660196       14.598658
  H           21.092293       28.433703       13.897811
  C           23.339572       27.873603       12.525525
  H           21.478703       26.845408       12.241207
  H           22.613703       25.978868       13.305439
  C           23.036011       26.760407       16.083320
  H           23.160102       28.632419       15.001138
  H           21.791800       28.532651       16.088444
  C           19.473283       27.259921       15.697436
  H           19.727709       26.550750       13.689679
  H           20.724727       25.678891       14.882230
  H           23.684770       27.529902       11.544846
  H           22.998910       28.909026       12.421249
  H           24.206060       27.854139       13.193100
  H           23.535437       26.085753       15.381713
  H           23.790588       27.110091       16.795611
  H           22.296773       26.186361       16.649742
  H           19.168908       28.282735       15.456515
  H           18.567577       26.658460       15.827699
  H           19.993324       27.266469       16.659907
  N           12.645451       14.037059       32.216557
  C           12.863380       13.633198       30.764341
  C           11.309971       14.703065       32.505226
  C           13.865765       14.790518       32.723088
  H           12.624321       13.154790       32.745703
  C           11.738566       12.764597       30.233666
  H           13.801026       13.066248       30.739748
  H           12.985838       14.543779       30.170470
  C           11.188435       16.077653       31.879957
  H           10.526118       14.032821       32.146320
  H           11.200365       14.752633       33.592592
  C           13.779785       15.096068       34.206509
  H           14.729670       14.142188       32.537204
  H           13.972816       15.702677       32.126823
  H           12.033341       12.319297       29.277716
  H           11.493366       11.951652       30.925057
  H           10.834541       13.351555       30.046439
  H           11.432836       16.075605       30.813608
  H           10.158315       16.435336       31.979656
  H           11.834009       16.804139       32.382240
  H           13.566095       14.195939       34.790410
  H           14.733576       15.506891       34.553688
  H           13.012020       15.844751       34.422945
  N            5.634613       18.584578       22.904599
  C            6.077102       17.188471       22.486725
  C            6.360410       19.724357       22.208521
  C            5.598719       18.673205       24.422590
  H            4.655456       18.664363       22.598453
  C            6.010478       16.989356       20.984326
  H            5.389910       16.488419       22.975509
  H            7.086703       17.019484       22.872712
  C            7.816603       19.831136       22.612655
  H            6.257263       19.568849       21.132583
  H            5.817344       20.645090       22.441253
  C            5.025584       19.990615       24.909659
  H            4.959325       17.851984       24.766084
  H            6.615160       18.510530       24.795969
  H            6.120115       15.926257       20.745945
  H            5.056000       17.332601       20.571799
  H            6.823171       17.515560       20.474938
  H            8.347555       18.879075       22.520428
  H            8.324116       20.553770       21.965156
  H            7.921122       20.188181       23.641455
  H            4.054980       20.200694       24.450715
  H            4.886251       19.952658       25.995095
  H            5.699345       20.827467       24.703358
  N           20.747224       15.786416       29.264656
  C           19.681590       14.805360       29.735276
  C           20.230496       16.942530       28.423946
  C           21.913146       15.018997       28.660391
  H           21.115447       16.222056       30.121085
  C           18.546232       15.496223       30.466685
  H           20.182916       14.110644       30.418839
  H           19.322162       14.247210       28.865726
  C           19.726797       16.504538       27.063918
  H           19.444674       17.438269       28.997697
  H           21.046550       17.664950       28.329079
  C           23.076337       15.924965       28.303323
  H           22.236622       14.297974       29.419803
  H           21.542812       14.471549       27.787361
  H           17.924225       14.751304       30.973862
  H           18.917400       16.198057       31.220798
  H           17.894714       16.036817       29.773779
  H           19.009443       15.681084       27.128446
  H           19.220714       17.342735       26.573683
  H           20.550066       16.196934       26.412424
  H           23.374646       16.548842       29.151040
  H           23.938884       15.318012       28.008964
  H           22.839326       16.575047       27.455943
  N           13.696363       22.595934       24.656080
  C           14.386592       22.695893       26.010008
  C           14.427864       21.755772       23.621945
  C           13.289868       23.985229       24.189111
  H           12.815885       22.094068       24.834208
  C           14.703526       21.333132       26.596289
  H           13.689979       23.221976       26.672716
  H           15.287895       23.304375       25.890681
  C           15.722984       22.388869       23.156030
  H           14.602909       20.772711       24.064003
  H           13.740640       21.600449       22.785026
  C           12.466458       23.947290       22.915595
  H           12.688177       24.419700       24.995598
  H           14.200024       24.581412       24.065796
  H           14.990966       21.439460       27.647525
  H           13.841202       20.660083       26.547033
  H           15.546478       20.862741       26.081507
  H           16.368755       22.682519       23.988848
  H           16.281510       21.672336       22.544757
  H           15.536793       23.269624       22.534387
  H           11.615294       23.266196       23.007612
  H           12.078120       24.947791       22.698298
  H           13.066775       23.643545       22.052928
  N           20.482265       20.964756       23.098578
  C           21.859032       20.881567       23.744426
  C           19.362551       21.407388       24.026326
  C           20.208471       19.687524       22.319376
  H           20.555576       21.710241       22.393086
  C           22.251612       22.176015       24.431139
  H           22.567046       20.672313       22.934398
  H           21.860056       20.037848       24.440826
  C           19.037829       20.380293       25.091622
  H           19.662842       22.358764       24.470368
  H           18.489070       21.619349       23.402676
  C           18.915695       19.760435       21.528995
  H           21.048578       19.560579       21.627044
  H           20.204067       18.852457       23.027662
  H           23.316304       22.152525       24.685903
  H           22.075838       23.045220       23.788791
  H           21.702933       22.314141       25.367466
  H           19.925935       20.047746       25.637073
  H           18.348321       20.816093       25.822156
  H           18.544726       19.502400       24.663849
  H           18.878826       20.655254       20.900684
  H           18.832932       18.884668       20.876914
  H           18.038976       19.755228       22.183344
  N           25.501987       11.791462       28.658733
  C           26.363034       12.460854       27.595698
  C           24.844855       10.490215       28.228228
  C           24.561692       12.817980       29.271551
  H           26.152413       11.526661       29.410841
  C           27.414934       11.523628       27.033201
  H           26.857342       13.306506       28.087377
  H           25.702921       12.844759       26.812306
  C           23.771628       10.690159       27.177785
  H           25.635202        9.828608       27.867545
  H           24.434982       10.020666       29.127317
  C           23.775855       12.254423       30.440377
  H           25.190817       13.643494       29.623608
  H           23.901675       13.188376       28.480216
  H           28.142789       12.092936       26.445714
  H           27.956359       10.998613       27.827080
  H           26.971992       10.783120       26.360678
  H           24.123026       11.282380       26.327708
  H           23.453039        9.716890       26.790135
  H           22.886699       11.177436       27.597666
  H           24.434067       11.789168       31.180060
  H           23.224738       13.060280       30.936252
  H           23.037312       11.515975       30.114671
  N           25.204785        8.929444        9.139901
  C           24.346563       10.168469        9.358541
  C           24.527133        7.804892        8.374022
  C           25.848568        8.518614       10.455273
  H           25.979071        9.236081        8.535505
  C           23.777011       10.710183        8.061065
  H           25.002849       10.922208        9.808411
  H           23.557095        9.916401       10.072711
  C           23.403905        7.152690        9.153904
  H           24.166121        8.222364        7.431763
  H           25.301362        7.077283        8.113275
  C           26.833939        7.378108       10.283288
  H           26.379390        9.401363       10.829703
  H           25.049403        8.261386       11.158264
  H           23.358191       11.708055        8.227991
  H           24.544064       10.790158        7.283725
  H           22.963092       10.081287        7.688422
  H           22.688674        7.881483        9.546514
  H           22.851371        6.470912        8.498993
  H           23.788429        6.559716        9.988985
  H           27.568802        7.596291        9.502770
  H           27.374360        7.213836       11.221364
  H           26.329255        6.439246       10.036981
  N           22.342161        5.424099       33.414138
  C           22.681955        6.786982       32.825395
  C           23.509419        4.691687       34.055606
  C           21.551526        4.614365       32.397936
  H           21.689096        5.614660       34.186171
  C           23.358911        7.696554       33.833214
  H           21.730644        7.234481       32.515607
  H           23.304089        6.631529       31.939043
  C           24.546538        4.237709       33.048871
  H           23.945313        5.360556       34.800640
  H           23.095895        3.842176       34.607116
  C           21.052590        3.300928       32.969982
  H           20.693345        5.232013       32.109399
  H           22.186971        4.458786       31.519852
  H           23.385645        8.721391       33.448481
  H           22.827424        7.707584       34.790515
  H           24.395684        7.395521       34.010177
  H           24.872519        5.047537       32.389513
  H           25.431829        3.868077       33.576749
  H           24.171415        3.416868       32.430535
  H           20.507800        3.451757       33.906619
  H           20.373777        2.822663       32.256188
  H           21.872296        2.599225       33.150344
  N           19.920547       33.008395       15.870175
  C           21.048912       33.447050       14.946105
  C           18.931025       32.030723       15.257473
  C           19.298014       34.230512       16.527688
  H           20.376818       32.486109       16.630356
  C           21.800069       32.268736       14.355659
  H           21.734678       34.043208       15.558915
  H           20.624244       34.087282       14.167262
  C           18.084521       32.653555       14.166264
  H           19.502809       31.180435       14.879933
  H           18.307656       31.647454       16.070708
  C           18.263733       33.858504       17.573232
  H           20.118298       34.775408       17.008768
  H           18.869942       34.858634       15.739498
  H           22.724507       32.617270       13.883468
  H           22.067079       31.533180       15.121615
  H           21.213749       31.769835       13.578381
  H           18.686720       33.167372       13.411158
  H           17.513994       31.871590       13.654351
  H           17.362543       33.365396       14.577199
  H           18.665154       33.145816       18.299712
  H           17.950067       34.756010       18.116484
  H           17.365167       33.428992       17.120536
  N           12.135901       23.065631       32.430199
  C           13.613187       22.939868       32.081863
  C           11.186510       22.978816       31.246341
  C           11.928376       24.268520       33.337631
  H           11.919773       22.241653       33.007425
  C           13.911377       21.684591       31.283958
  H           14.152055       22.899275       33.035378
  H           13.916026       23.842785       31.543472
  C           11.290064       24.171495       30.317892
  H           11.403657       22.046495       30.720901
  H           10.174225       22.878278       31.648842
  C           10.501827       24.369510       33.843643
  H           12.605221       24.134900       34.189244
  H           12.227081       25.165589       32.785301
  H           14.992958       21.518206       31.244927
  H           13.448198       20.799527       31.732456
  H           13.565654       21.776556       30.250104
  H           12.320578       24.376683       30.013299
  H           10.711458       23.978716       29.408455
  H           10.878475       25.074244       30.778843
  H           10.170475       23.432578       34.301028
  H           10.434440       25.158435       34.600005
  H            9.804906       24.634435       33.043049
  N           22.745454       25.815191        4.868830
  C           24.003533       24.966799        4.999203
  C           22.990315       27.302991        4.676752
  C           21.774594       25.459157        5.984228
  H           22.294396       25.503689        3.997994
  C           24.962092       25.177572        3.842471
  H           23.671148       23.922455        5.008232
  H           24.472972       25.196101        5.960391
  C           23.571568       27.969256        5.906980
  H           23.650222       27.416961        3.814199
  H           22.034553       27.755685        4.396711
  C           20.438481       26.161084        5.831302
  H           21.621850       24.375304        5.928110
  H           22.252292       25.700412        6.939542
  H           25.735567       24.402601        3.855922
  H           24.448942       25.127643        2.876444
  H           25.474918       26.140913        3.918751
  H           24.453201       27.446308        6.289191
  H           23.877888       28.991025        5.659632
  H           22.833256       28.037797        6.711364
  H           20.014048       26.004508        4.835222
  H           19.729637       25.767911        6.567497
  H           20.522109       27.236889        6.011538
  N           10.093265       32.868508       20.839989
  C            8.976159       33.276616       21.791331
  C           10.272812       31.369372       20.664614
  C           11.360792       33.634644       21.186186
  H            9.804223       33.213390       19.914597
  C            7.646610       32.646694       21.421483
  H            8.892798       34.367024       21.718692
  H            9.279556       33.012835       22.808782
  C           10.794401       30.687282       21.912781
  H            9.307943       30.957926       20.360963
  H           10.951976       31.220481       19.819983
  C           12.475042       33.387006       20.186980
  H           11.093821       34.697558       21.173605
  H           11.658415       33.356335       22.202547
  H            6.839084       33.128881       21.982216
  H            7.429644       32.755218       20.353694
  H            7.622588       31.583665       21.678830
  H           10.208461       30.937017       22.802244
  H           10.747085       29.601007       21.783204
  H           11.840280       30.945961       22.102676
  H           12.140879       33.564167       19.160440
  H           13.311212       34.063376       20.392818
  H           12.864526       32.367138       20.257740
  N           22.912175       25.711497       23.200933
  C           22.676007       26.831973       24.205068
  C           23.988250       24.712395       23.593690
  C           23.056294       26.301015       21.806251
  H           22.037402       25.169883       23.184548
  C           22.393905       26.305076       25.599374
  H           21.803491       27.389146       23.845220
  H           23.547369       27.493315       24.191262
  C           25.380789       25.308960       23.580577
  H           23.730840       24.326498       24.582269
  H           23.914061       23.867249       22.902995
  C           23.147641       25.230993       20.734804
  H           22.161780       26.910202       21.633181
  H           23.935353       26.953909       21.803167
  H           22.016861       27.114961       26.232578
  H           21.644116       25.507146       25.587241
  H           23.303217       25.925822       26.074933
  H           25.443530       26.238267       24.154415
  H           26.086811       24.600237       24.025850
  H           25.721181       25.507942       22.560099
  H           22.322248       24.516792       20.808818
  H           23.105168       25.696784       19.744723
  H           24.092270       24.681835       20.788995
  N           29.670273       28.419902        4.696562
  C           29.607121       27.239479        5.656845
  C           29.828309       29.779211        5.358155
  C           28.532887       28.318995        3.691768
  H           30.533667       28.284791        4.153298
  C           30.789502       27.206539        6.606676
  H           29.616375       26.336447        5.035827
  H           28.656424       27.287298        6.196035
  C           28.600261       30.202641        6.137789
  H           30.709338       29.729211        6.001391
  H           30.062547       30.499208        4.568489
  C           28.620058       29.382749        2.613753
  H           28.614487       27.328597        3.229524
  H           27.588002       28.376074        4.242186
  H           30.824503       26.240933        7.121849
  H           31.738447       27.343118        6.077645
  H           30.703492       27.976707        7.378867
  H           28.263412       29.433114        6.838644
  H           28.828840       31.100460        6.721481
  H           27.769482       30.452059        5.471130
  H           29.605087       29.392759        2.137881
  H           27.871514       29.184545        1.839529
  H           28.412328       30.380851        3.010583
  N           17.116498        3.699459       30.304569
  C           18.607395        3.901494       30.068058
  C           16.307850        4.979291       30.440651
  C           16.911671        2.684536       31.418758
  H           16.762453        3.248917       29.449873
  C           18.884492        4.804787       28.881227
  H           19.025563        2.907568       29.871939
  H           19.049664        4.295248       30.987944
  C           16.624140        5.745397       31.708827
  H           16.501536        5.584309       29.552449
  H           15.250606        4.700969       30.400579
  C           15.450369        2.324327       31.608850
  H           17.469996        1.787497       31.127537
  H           17.350960        3.093178       32.334762
  H           19.944253        4.748123       28.611562
  H           18.295682        4.514709       28.004767
  H           18.671306        5.851544       29.117209
  H           17.697243        5.912850       31.840148
  H           16.140877        6.727347       31.673420
  H           16.243020        5.228141       32.594282
  H           14.986341        2.017570       30.666823
  H           15.365192        1.492204       32.315492
  H           14.877839        3.157737       32.026550
  N            4.835632       18.896316        4.672145
  C            5.516770       17.691940        5.308585
  C            3.362942       18.705202        4.348013
  C            5.687843       19.413941        3.523563
  H            4.858196       19.634002        5.389189
  C            4.784979       17.203508        6.544387
  H            6.523574       18.020815        5.590370
  H            5.600949       16.906629        4.551594
  C            3.128923       17.710695        3.229346
  H            2.863660       18.393148        5.267688
  H            2.956323       19.688514        4.093857
  C            5.142927       20.702270        2.936570
  H            6.685911       19.598962        3.936897
  H            5.757857       18.622757        2.769805
  H            5.413215       16.492004        7.090377
  H            4.538663       18.027685        7.221946
  H            3.862691       16.677358        6.280974
  H            3.646589       16.761744        3.397724
  H            2.058863       17.491427        3.152427
  H            3.447786       18.112940        2.263239
  H            4.973500       21.456445        3.710748
  H            5.859511       21.110758        2.216382
  H            4.205920       20.537836        2.396370
  C            6.021072       29.116612       23.833326
  C            7.503486       29.383370       24.029923
  O            5.483473       29.739583       22.876488
  O            5.515840       28.302446       24.656153
  H            7.881884       30.094181       23.289383
  H            7.676481       29.798122       25.027365
  H            8.064560       28.449413       23.931141
  C           18.413417       27.050326        8.484757
  C           19.837951       27.361608        8.910395
  O           17.636615       26.701166        9.416052
  O           18.189353       27.181697        7.248753
  H           19.969256       27.230033        9.988487
  H           20.533648       26.694225        8.393247
  H           20.083094       28.396970        8.655902
  C           15.638536       28.832344        2.230116
  C           14.439818       27.981813        2.613567
  O           15.363187       29.961874        1.739209
  O           16.760612       28.297156        2.453025
  H           13.499764       28.497880        2.397214
  H           14.456310       27.043174        2.051854
  H           14.472289       27.756298        3.683579
  C           27.300192       33.159906        4.491886
  C           25.969511       32.470725        4.740243
  O           27.222154       34.342769        4.059001
  O           28.317060       32.457332        4.751766
  H           25.129229       33.127856        4.497466
  H           25.896058       31.572092        4.120646
  H           25.891339       32.183888        5.793073
  C            5.340572       31.139884        7.233665
  C            4.456147       32.351613        6.995202
  O            6.577085       31.381158        7.307599
  O            4.721763       30.042876        7.327584
  H            5.048143       33.268769        6.923076
  H            3.898381       32.225736        6.062524
  H            3.747272       32.461541        7.821185
  C           31.062335       11.312312        7.734067
  C           31.542021        9.990677        7.159139
  O           29.936499       11.703678        7.319375
  O           31.855345       11.851092        8.556272
  H           30.814500        9.574819        6.455853
  H           32.488626       10.137933        6.630848
  H           31.694291        9.268521        7.966692
  C           18.170451        7.007354       26.233736
  C           18.361728        6.655053       24.768588
  O           18.992563        6.473228       27.028398
  O           17.209462        7.792570       26.468481
  H           19.206580        5.974040       24.629731
  H           17.459883        6.170469       24.382985
  H           18.551609        7.564158       24.190393
  C           15.162947       18.331555       34.336291
  C           14.808909       19.087322       33.067105
  O           14.235933       17.624127       34.818821
  O           16.344172       18.509401       34.746472
  H           13.776080       18.893320       32.763029
  H           14.924907       20.162683       33.231361
  H           15.472654       18.778312       32.254212
  C           26.977608        7.278841        6.517746
  C           27.000059        5.859517        7.058463
  O           25.875316        7.652505        6.029921
  O           28.069425        7.904337        6.626648
  H           26.028769        5.371236        6.935935
  H           27.752586        5.271375        6.524957
  H           27.248741        5.872492        8.123746
  C           32.077120       31.247166        4.098786
  C           33.188697       30.220331        4.230574
  O           31.439761       31.214946        3.010034
  O           31.933628       32.003683        5.099916
  H           33.263307       29.596954        3.334655
  H           34.146390       30.727724        4.379617
  H           32.993380       29.570575        5.088772
  C            5.940216       26.015693       15.048867
  C            5.327123       24.777047       15.679133
  O            5.123346       26.931793       14.755392
  O            7.193451       25.968689       14.899320
  H            4.242638       24.877771       15.782009
  H            5.535680       23.902198       15.056253
  H            5.755364       24.616055       16.672877
  C           26.163215       16.529449       31.267887
  C           25.843508       17.919346       30.745074
  O           25.214615       15.945016       31.860542
  O           27.341897       16.136499       31.041018
  H           24.811314       18.202380       30.971579
  H           26.512228       18.651945       31.206539
  H           25.979775       17.947722       29.659965
  C           18.378178        7.716086        6.088443
  C           17.862758        7.567578        4.667299
  O           19.614260        7.510130        6.237870
  O           17.499577        8.027819        6.940529
  H           18.668045        7.297614        3.977757
  H           17.098662        6.785535        4.629856
  H           17.422242        8.511225        4.332167
  C           16.905687       13.519404       15.675610
  C           16.619060       13.337540       14.195025
  O           16.224174       14.412249       16.250947
  O           17.792633       12.750440       16.141648
  H           15.844546       14.029536       13.851362
  H           17.528830       13.521421       13.615937
  H           16.278098       12.315320       14.006215
  C           28.883262       18.651976       21.991704
  C           27.824860       18.027778       22.884745
  O           30.061338       18.242793       22.184969
  O           28.445870       19.503334       21.167661
  H           28.263926       17.300958       23.574520
  H           27.329176       18.806339       23.472093
  H           27.077724       17.515213       22.271638
  C           30.137435       21.148778       13.886192
  C           29.242483       22.108395       13.120976
  O           30.454736       21.519447       15.050052
  O           30.449713       20.099522       13.256339
  H           29.007597       22.995128       13.717104
  H           29.743629       22.431145       12.203631
  H           28.304711       21.610478       12.857349
  C           22.854353        2.818273       10.015152
  C           24.146620        3.612526        9.934100
  O           22.992349        1.563890       10.026295
  O           21.804327        3.518629       10.061154
  H           25.018195        2.952358        9.897062
  H           24.144400        4.233284        9.033272
  H           24.239797        4.259519       10.811344
  C            6.767914       28.875557       13.255918
  C            8.229937       29.160993       12.958639
  O            6.075978       29.881941       13.573815
  O            6.432133       27.662973       13.146088
  H            8.458733       30.224946       13.070406
  H            8.865402       28.596369       13.647276
  H            8.464780       28.862611       11.932649
  C           32.666529       29.268132       16.491411
  C           32.831208       30.763032       16.704751
  O           33.576164       28.717106       15.812016
  O           31.636343       28.767569       17.023694
  H           33.738818       31.136693       16.221576
  H           31.972022       31.294346       16.284819
  H           32.894782       30.980009       17.775133
  C           30.959791        2.910037       10.438317
  C           32.229827        2.172844       10.826796
  O           31.011970        4.166507       10.544164
  O           30.011689        2.167346       10.057945
  H           33.011882        2.867915       11.146331
  H           32.021433        1.484118       11.650850
  H           32.603131        1.601463        9.971808
  C           14.620019       17.087221       12.066269
  C           16.065719       16.631008       11.970430
  O           13.918624       16.875350       11.038748
  O           14.305255       17.621828       13.166400
  H           16.276616       16.177670       10.997372
  H           16.734176       17.486416       12.105634
  H           16.273402       15.891097       12.749042
  C            2.382285        4.744409        2.841657
  C            2.456751        6.233091        2.549009
  O            3.221363        4.317597        3.682148
  O            1.486577        4.123429        2.203489
  H            3.249175        6.714049        3.130025
  H            2.661897        6.392222        1.486263
  H            1.504732        6.708822        2.802341
  C            9.336910       26.000623       23.344342
  C           10.140288       27.220654       22.927845
  O            9.957233       24.902880       23.291390
  O            8.147002       26.243304       23.691321
  H           11.159434       26.946922       22.639317
  H            9.658629       27.708362       22.075212
  H           10.194801       27.930067       23.758867
  C           11.021367       30.202077       24.917036
  C           11.897006       31.443210       24.902758
  O           11.642998       29.103845       24.927254
  O            9.779169       30.430362       24.916878
  H           12.959184       31.181269       24.903561
  H           11.687304       32.034614       24.006598
  H           11.690435       32.052890       25.787323
  C           25.819742       15.996642       19.444456
  C           26.870638       17.072825       19.232777
  O           26.255912       14.812490       19.458053
  O           24.640317       16.427596       19.580117
  H           27.868689       16.638635       19.122283
  H           26.639779       17.643719       18.328553
  H           26.882324       17.753217       20.089379
  C           16.364232       16.206076       14.985114
  C           16.719467       17.289646       15.988630
  O           17.320311       15.459689       14.636596
  O           15.152960       16.191895       14.627639
  H           17.778939       17.250679       16.258512
  H           16.507295       18.274315       15.561726
  H           16.125800       17.161336       16.898538
  C           17.102923       29.163715       12.167870
  C           15.876499       28.268467       12.125724
  O           18.210216       28.559610       12.207903
  O           16.855160       30.402131       12.157325
  H           16.155048       27.210584       12.137119
  H           15.241578       28.468309       12.993926
  H           15.304596       28.465763       11.214221
  C           21.796997       27.200578       32.795465
  C           21.721756       27.670074       31.352803
  O           20.892361       27.645030       33.554900
  O           22.759080       26.422820       33.049747
  H           20.870408       28.338880       31.195517
  H           22.637350       28.207951       31.089719
  H           21.612186       26.808394       30.687718
  C           11.354630        4.699012        7.549278
  C           12.813053        5.121341        7.504556
  O           10.518183        5.641918        7.486604
  O           11.166612        3.453663        7.643756
  H           12.910710        6.207898        7.422745
  H           13.321368        4.796130        8.417075
  H           13.305221        4.663844        6.641246
  C           20.876234       23.522688       17.754777
  C           20.647569       23.039612       16.332908
  O           20.792435       22.633410       18.646297
  O           21.121744       24.756976       17.861671
  H           20.440268       21.965780       16.305603
  H           19.795609       23.567589       15.894456
  H           21.537205       23.235661       15.727144
  C           31.238012       19.626989       33.977103
  C           31.885325       19.125549       32.697687
  O           31.817713       20.603398       34.527753
  O           30.198951       18.999484       34.326045
  H           32.777867       19.707029       32.448516
  H           32.176965       18.077764       32.815710
  H           31.177201       19.206051       31.867677
  C           29.338080       31.980697       30.275771
  C           29.323468       33.374212       30.880140
  O           30.482928       31.474125       30.116549
  O           28.197956       31.506956       30.009579
  H           30.337317       33.728868       31.087903
  H           28.847521       34.074024       30.186905
  H           28.760993       33.365523       31.818428
  C            2.821630       26.483290       22.287634
  C            3.381332       27.892285       22.193678
  O            1.562440       26.404233       22.316491
  O            3.692231       25.569048       22.324858
  H            2.581045       28.637643       22.165090
  H            4.014896       28.098183       23.061457
  H            3.980695       27.993247       21.284059
  C           33.790670       27.073865       18.763624
  C           33.349377       26.791514       20.189421
  O           33.343345       28.142195       18.262409
  O           34.551425       26.199475       18.261763
  H           32.694336       27.581959       20.567516
  H           32.805147       25.843280       20.228195
  H           34.224719       26.725872       20.842341
  C           29.964508       15.971878       19.173151
  C           29.523450       15.789800       20.615259
  O           29.447480       15.171076       18.346083
  O           30.795079       16.905017       18.987208
  H           28.806385       14.969237       20.711850
  H           30.391176       15.566529       21.242984
  H           29.049896       16.707336       20.976800
  C           22.736261        9.881161       12.198417
  C           21.225111        9.726937       12.198674
  O           23.384961        8.835035       12.476718
  O           23.150128       11.041141       11.918540
  H           20.929268        8.703485       12.447387
  H           20.783499       10.403537       12.936257
  H           20.827327        9.971216       11.209264
  C           12.127420       33.056302       32.402770
  C           11.066749       33.436831       33.421365
  O           13.261425       33.579511       32.584232
  O           11.735929       32.262148       31.502090
  H           11.465126       34.124444       34.173243
  H           10.226770       33.924113       32.917550
  H           10.703422       32.539621       33.931113
  C           26.294858       16.127302        6.434589
  C           26.812888       15.788302        7.821703
  O           26.580662       17.284611        6.020347
  O           25.642359       15.203417        5.872583
  H           27.368047       16.625441        8.255100
  H           25.974300       15.550228        8.482708
  H           27.479399       14.922491        7.767202
  C           17.888382       29.666876       27.353424
  C           19.017823       30.482943       26.748644
  O           16.958398       30.339459       27.878217
  O           18.026348       28.415493       27.252554
  H           18.841467       31.556119       26.867083
  H           19.961887       30.231193       27.240785
  H           19.103922       30.262364       25.680576
  C           16.446243       11.587880       33.747081
  C           16.859381       12.676655       32.771763
  O           15.470738       10.876620       33.379462
  O           17.135165       11.534730       34.804310
  H           16.227504       12.672070       31.878708
  H           16.773301       13.656169       33.251324
  H           17.897223       12.522582       32.461954
  C           13.370637       29.371545       19.897423
  C           12.702445       29.854754       18.621731
  O           12.630081       28.710820       20.676951
  O           14.586048       29.694676       20.013749
  H           11.654191       29.544622       18.579093
  H           12.742247       30.946949       18.573115
  H           13.221188       29.441125       17.751872
  C           12.939458       11.625729       25.202734
  C           13.714002       11.903038       26.479661
  O           11.683699       11.692917       25.308562
  O           13.655097       11.362684       24.195838
  H           13.041192       12.123572       27.313643
  H           14.317884       11.029952       26.744017
  H           14.375825       12.761675       26.332796
  C           21.716071        5.738677        5.915674
  C           23.123309        5.181157        6.043008
  O           21.201964        5.647392        4.766760
  O           21.240225        6.223557        6.980396
  H           23.479182        4.776831        5.090794
  H           23.808454        5.972838        6.360270
  H           23.138398        4.378935        6.786680
  C            5.478175       14.749781       25.575825
  C            5.448733       15.355343       26.968588
  O            6.231731       13.746615       25.439974
  O            4.741681       15.330743       24.730112
  H            6.104621       14.810265       27.653815
  H            5.780780       16.396910       26.927106
  H            4.429845       15.322663       27.365622
  C           31.368080       18.384974       25.681216
  C           30.868039       19.363669       24.632657
  O           30.485165       17.637426       26.185475
  O           32.607953       18.445922       25.913960
  H           29.790045       19.262934       24.475759
  H           31.076642       20.388751       24.952858
  H           31.374882       19.178480       23.681000
  C           13.629581       23.660157       13.425815
  C           14.981133       24.326016       13.618947
  O           13.553526       22.869080       12.445480
  O           12.752849       23.985466       14.274746
  H           15.695887       24.005253       12.855354
  H           14.871554       25.412660       13.555426
  H           15.385274       24.066404       14.601855
  C           20.954949       15.855711        3.928705
  C           21.699119       14.531811        3.958055
  O           20.174482       16.057065        4.899771
  O           21.214431       16.587061        2.932228
  H           21.433098       13.944920        4.842152
  H           21.450949       13.947169        3.067301
  H           22.777852       14.713150        3.975006
  C           14.068006       31.591513        4.233740
  C           13.782317       31.791786        2.755351
  O           15.279542       31.703806        4.568726
  O           13.052041       31.337472        4.939749
  H           14.698739       32.007985        2.198338
  H           13.330012       30.886753        2.339211
  H           13.090577       32.628688        2.621454
  C           28.327972       16.228569       16.054043
  C           28.103070       15.154271       15.003966
  O           29.512705       16.329367       16.476999
  O           27.296085       16.884947       16.369555
  H           29.030742       14.622118       14.773589
  H           27.369179       14.428746       15.367083
  H           27.727335       15.609183       14.082709
  C           18.239886       29.740043       21.535198
  C           18.150065       29.185540       22.946516
  O           19.211232       30.517031       21.322076
  O           17.327175       29.350297       20.754027
  H           18.965396       29.558290       23.573515
  H           17.200442       29.482061       23.401629
  H           18.205731       28.093279       22.919960
  C            7.069476       22.683544       21.225061
  C            6.250822       23.953905       21.377857
  O            8.239607       22.736513       21.694777
  O            6.470980       21.734392       20.645335
  H            6.821641       24.736889       21.885732
  H            5.955380       24.325393       20.392185
  H            5.350666       23.746643       21.964031
  C           26.344257        2.585608        8.177620
  C           25.217307        2.477679        7.164853
  O           26.945905        3.694765        8.198488
  O           26.534423        1.547178        8.870922
  H           25.101975        3.405596        6.596958
  H           25.426872        1.665862        6.462092
  H           24.275067        2.267800        7.679607
  C           21.262287       16.652207       32.339084
  C           22.603358       16.026417       31.996626
  O           21.065932       17.802687       31.858996
  O           20.513803       15.937437       33.062994
  H           23.204656       16.691382       31.369650
  H           23.160910       15.818879       32.914721
  H           22.447451       15.088349       31.455739
  C           15.085344       13.553349       28.389385
  C           16.039239       14.593248       28.951574
  O           15.603088       12.432699       28.127225
  O           13.892342       13.946068       28.256382
  H           17.053977       14.194770       29.042988
  H           16.068214       15.465137       28.291416
  H           15.701061       14.909109       29.942888
  C            8.123162       33.619522       25.978394
  C            7.760068       32.648112       27.088298
  O            9.222996       33.393248       25.402366
  O            7.274018       34.531955       25.774453
  H            8.531938       31.883544       27.216707
  H            7.648560       33.189029       28.032657
  H            6.815672       32.149693       26.850538
  C            6.237405       25.101155        4.239896
  C            6.634803       26.549598        4.466720
  O            7.197456       24.288577        4.136633
  O            4.992414       24.896185        4.183737
  H            7.722228       26.662797        4.505811
  H            6.251428       27.171162        3.652154
  H            6.215794       26.905247        5.412650
  C           12.138128        9.470068       18.883316
  C           11.262683       10.232945       19.862589
  O           12.868826        8.577677       19.395529
  O           12.021241        9.828769       17.677977
  H           11.408238        9.877889       20.887082
  H           11.508617       11.298368       19.827561
  H           10.209299       10.102439       19.597661
  C           20.573314       33.160080       32.786922
  C           20.082602       32.568127       34.096942
  O           20.851600       34.390513       32.822069
  O           20.639781       32.341113       31.827733
  H           20.046879       33.324071       34.886948
  H           19.076985       32.158090       33.964877
  H           20.754475       31.765865       34.416004
  C            5.910876       31.164044       11.793900
  C            6.068713       32.507446       12.485073
  O            4.726258       30.737256       11.709190
  O            6.989950       30.645507       11.391545
  H            5.102300       32.904280       12.809735
  H            6.710983       32.398989       13.364029
  H            6.524768       33.226490       11.798176
  C            4.232485        4.980216       33.952479
  C            4.476015        6.479396       33.929839
  O            3.019943        4.630732       33.936746
  O            5.279189        4.274118       33.984215
  H            3.534286        7.035496       33.902733
  H            5.028819        6.778779       34.825169
  H            5.061120        6.746648       33.044929
  C           17.090010       14.628257       18.265615
  C           18.319755       15.519923       18.270029
  O           15.984915       15.233643       18.335752
  O           17.333220       13.391084       18.191984
  H           18.045093       16.576872       18.335268
  H           18.953222       15.273637       19.127292
  H           18.891677       15.367315       17.350001
  C           18.401179       24.399652       24.905562
  C           18.061550       23.773768       26.247309
  O           19.632422       24.567161       24.685054
  O           17.403458       24.672689       24.180873
  H           18.964324       23.560947       26.827431
  H           17.431518       24.455891       26.825760
  H           17.520700       22.835501       26.092473
  C           21.982087       32.851983        6.775682
  C           21.347833       34.217630        6.975910
  O           21.212228       31.868382        6.955934
  O           23.202989       32.877267        6.453303
  H           20.293093       34.130155        7.252873
  H           21.870845       34.756261        7.771630
  H           21.415530       34.797148        6.050484
  C           12.166452       18.782715       21.134989
  C           10.788044       19.034627       20.548566
  O           12.298758       19.089191       22.352039
  O           13.005601       18.297050       20.325589
  H           10.107967       19.454231       21.295736
  H           10.862906       19.738917       19.714775
  H           10.363232       18.095045       20.183110
  C            2.424367       30.673320       12.864005
  C            3.451562       30.430170       13.956300
  O            2.627018       31.694784       12.151133
  O            1.496328       29.818336       12.809995
  H            4.227343       31.201522       13.952312
  H            2.961517       30.437552       14.934379
  H            3.929803       29.457830       13.805710
  C           24.497403        7.371758       24.118714
  C           23.110055        7.247942       24.724765
  O           25.206921        6.329833       24.178888
  O           24.762828        8.506068       23.630800
  H           22.940235        6.245854       25.129509
  H           22.993729        7.972833       25.535837
  H           22.352615        7.445204       23.960430
  C           13.803346        6.285788       25.151279
  C           14.195306        7.569068       25.863262
  O           12.779789        6.367379       24.417577
  O           14.555486        5.298787       25.386406
  H           13.508261        8.385061       25.620443
  H           14.177655        7.412669       26.945882
  H           15.204664        7.865972       25.563458
  C           13.673557       27.444188       22.475766
  C           14.931998       26.919503       23.145387
  O           13.247938       26.751857       21.510276
  O           13.213722       28.509900       22.973741
  H           15.280729       25.997460       22.670983
  H           15.728044       27.666709       23.075875
  H           14.731256       26.711142       24.200434
  C           15.826270        2.765398       17.603267
  C           14.699201        3.732257       17.283488
  O           16.740524        2.697364       16.735998
  O           15.702437        2.151923       18.700301
  H           14.862884        4.231375       16.323839
  H           13.749480        3.191453       17.234507
  H           14.633388        4.496131       18.063874
  C           11.462470        5.478341       21.460152
  C           10.710051        6.794084       21.359924
  O           12.720107        5.577715       21.493611
  O           10.729342        4.450569       21.497255
  H           11.397351        7.644766       21.331707
  H           10.105902        6.807161       20.447965
  H           10.050492        6.910834       22.224903
  C           17.700924       18.880586        2.612282
  C           19.083128       19.045088        3.220403
  O           17.533039       19.443117        1.495135
  O           16.894851       18.199266        3.305982
  H           19.733632       19.642716        2.575018
  H           19.004367       19.545069        4.190275
  H           19.544669       18.063515        3.362991
  C           12.723536        9.125218       29.205676
  C           11.840532        7.978964       28.743326
  O           12.668114        9.384637       30.439481
  O           13.401988        9.672894       28.291935
  H           11.279655        7.546855       29.577313
  H           11.126986        8.338694       27.996141
  H           12.456780        7.193020       28.296821
  C           15.153377        7.950425       34.164978
  C           13.776287        7.488951       33.719975
  O           16.105650        7.182743       33.854358
  O           15.167648        9.047318       34.790911
  H           13.829154        6.536173       33.184947
  H           13.128563        7.360351       34.592187
  H           13.332304        8.235174       33.054493
  C           23.488509       29.860394       28.692531
  C           22.437814       28.792387       28.442011
  O           23.283609       30.592403       29.699915
  O           24.435423       29.877995       27.856938
  H           21.646360       28.827596       29.196462
  H           21.984309       28.942094       27.457756
  H           22.901270       27.801885       28.472859
  H            7.825729        3.567620        5.264081
  O            8.176741        4.482002        5.465812
  H            8.732120        4.802610        4.698503
  H           25.626089       25.039138       12.576437
  O           24.882676       25.484909       12.077812
  H           24.095173       24.870166       12.033876
  H           10.843922       18.452554       33.450116
  O           10.773630       19.447856       33.516706
  H           11.529498       19.869628       33.015934
  H            9.088073       29.976342        2.384172
  O            8.497835       30.108498        1.587834
  H            7.958855       30.942324        1.707140
  H           17.380741       31.552036       19.104618
  O           18.081919       30.895599       19.382897
  H           18.898823       31.021841       18.820109
  H            3.007099       11.087065       25.608147
  O            2.684431       11.621570       24.827001
  H            2.592648       12.580737       25.094534
  H            7.710596       30.612782       29.463594
  O            8.298514       31.416519       29.372166
  H            8.179833       32.008699       30.169184
  H           12.125223       20.874433       28.854447
  O           12.448503       21.422509       28.083018
  H           12.579338       22.368952       28.378191
  H            1.978068        8.224712       15.646111
  O            2.063397        7.764954       16.530047
  H            1.696289        6.837408       16.460122
  H           21.993035       32.002059       21.343113
  O           21.231584       32.375776       20.813463
  H           21.494954       33.261054       20.430166
  H           28.065810        8.269577       28.986565
  O           27.167121        8.708120       28.980386
  H           27.240806        9.624704       29.373379
  H            3.875309       19.258801       13.210442
  O            4.707183       19.320668       13.761947
  H            5.400918       19.838892       13.261774
  H            1.906375       22.146026       32.279937
  O            2.885008       22.206841       32.083518
  H            3.280405       22.970982       32.593173
  H           12.952958       34.689663       30.054083
  O           12.307885       33.948916       29.866536
  H           12.808469       33.089636       29.761400
  H           12.395410       34.814608       23.668951
  O           11.959294       34.546196       24.527879
  H           11.075881       34.119561       24.334067
  H            4.555923       15.942324       10.757651
  O            3.849726       16.649598       10.725261
  H            3.000611       16.256865       10.372043
  H           23.668023       29.319564       20.051798
  O           23.275865       28.792779       19.297670
  H           22.881975       27.944972       19.652737
  H            9.391993        7.237321        2.012922
  O            9.481729        6.324056        2.410280
  H           10.406898        5.980134        2.249720
  H           14.152454       21.538439       34.764025
  O           13.219835       21.895101       34.818924
  H           12.570179       21.135453       34.789232
  H           14.161734       25.088659       10.268731
  O           14.721278       24.601725       10.939406
  H           14.869750       23.662305       10.630465
  H           19.002601       19.446528       14.731511
  O           18.487962       18.592256       14.658255
  H           17.869664       18.641828       13.873876
  H            5.992442       11.524943       14.771902
  O            5.114999       12.001725       14.719244
  H            5.271060       12.989394       14.731685
  H           13.269808       18.748467       24.601783
  O           13.099067       17.790974       24.834279
  H           13.951293       17.364466       25.137268
  H           12.705449       21.850979       20.827440
  O           13.603661       21.670566       20.426607
  H           14.210706       22.444482       20.607026
  H           32.826568       32.707542       32.123329
  O           33.424464       32.909640       31.347651
  H           33.098751       32.419463       30.539172
  H           30.736256        5.191032       18.937293
  O           31.139142        4.445824       19.468658
  H           30.566442        4.257886       20.266589
  H           22.232145       12.373342       23.889077
  O           23.184984       12.414040       23.588343
  H           23.552823       13.326230       23.768909
  H           27.863049       33.091770       17.905574
  O           27.289724       33.896518       18.059450
  H           27.871100       34.696050       18.210280
  H           29.603693       18.426812       14.794376
  O           30.379909       17.863512       14.511211
  H           31.207452       18.424385       14.486839
  H           10.127623       21.322784       22.962718
  O           10.944811       20.755411       22.861273
  H           11.457461       20.752799       23.719866
  H           14.792140       13.277459       24.239795
  O           14.418352       14.139307       24.582579
  H           13.443703       14.026491       24.775795
  H           27.834568       26.984542       34.110067
  O           27.004949       26.876634       33.562264
  H           26.215903       26.776834       34.168437
  H           19.796817        9.452600        9.205048
  O           19.284447        9.520686        8.348987
  H           19.113384       10.483214        8.138569
  H           25.358290       20.568168       23.097776
  O           24.739686       19.808671       22.896548
  H           25.273920       18.984590       22.708178
  H           19.270249       27.172378       30.244340
  O           18.868322       27.432241       31.122364
  H           17.999663       27.902087       30.965284
  H            2.582904       11.519183       15.770425
  O            2.410215       12.254977       16.425242
  H            2.859143       12.041202       17.292862
  H           29.217909       17.314432        4.665128
  O           28.720411       17.175584        5.521409
  H           29.166271       16.455377        6.052926
  H            7.633508        8.161340        8.536236
  O            7.155378        8.180823        9.414309
  H            6.400216        7.525508        9.397244
  H           11.007420       12.877262        2.869844
  O           11.852951       13.250182        2.487736
  H           12.602664       12.608045        2.647708
  H           27.579229       33.776508       27.413971
  O           28.495398       33.398709       27.547774
  H           28.465270       32.405046       27.439488
  H            4.098221        9.661835        6.341645
  O            3.194101        9.443953        6.709196
  H            3.111100        8.454171        6.825138
  H           29.466710        5.683260       33.327185
  O           28.638412        6.117864       32.973575
  H           27.852987        5.836410       33.524838
  H           30.250559       14.217487       10.729512
  O           30.882702       13.958494       11.459799
  H           30.750933       14.563682       12.244900
  H           18.129972       33.486652       31.092056
  O           18.697603       32.697185       30.858525
  H           18.499589       31.946254       31.488519
  H            1.515056        5.196875       21.050474
  O            2.110920        4.907495       21.799611
  H            1.813915        5.343426       22.649171
  H            7.620202       30.586781       18.999518
  O            6.990546       30.276466       19.711725
  H            7.488583       29.721989       20.378444
  H            7.420302       19.833240       15.818173
  O            7.888912       20.656913       16.137499
  H            8.869076       20.573664       15.957645
  H           21.752014       10.025357       15.395736
  O           22.748370        9.953405       15.349931
  H           23.134360       10.836267       15.082412
  H           17.554681       34.810086       34.506456
  O           17.935141       33.900301       34.672413
  H           17.190045       33.244843       34.795733
  H           29.674972       12.721270       13.675325
  O           30.454419       12.477840       14.252563
  H           30.348305       12.901729       15.152039
  H           30.780245        5.896870        9.204520
  O           30.261813        6.165633       10.016305
  H           29.342690        5.774463        9.969424
  H            8.872562       19.903388        9.842142
  O            9.270433       20.478178       10.557205
  H            9.029440       20.108515       11.454574
  H           32.967715        9.488790       19.468068
  O           33.935766        9.440799       19.714183
  H           34.491288        9.436997       18.882689
  H            5.293805       24.384248        1.910265
  O            5.164467       25.375231        1.945257
  H            6.055334       25.828759        1.919452
  H           23.044757       14.704415       25.408064
  O           22.384911       15.185114       24.830542
  H           21.470363       14.812678       24.988316
  H           18.696092       28.081640       25.180842
  O           19.181028       27.369710       25.688771
  H           18.739425       26.486820       25.529116
  H           11.739477       26.784988       14.723494
  O           11.554246       25.810139       14.599562
  H           11.349650       25.394440       15.485753
  H            6.893401       10.907808       30.190050
  O            7.806906       11.157923       29.869189
  H            7.732282       11.651605       29.002755
  H            3.161184       26.015411       10.242786
  O            2.336966       25.754782       10.745515
  H            1.874436       25.010201       10.264199
  H           27.057661       22.373351       10.881441
  O           26.116032       22.603851       10.636076
  H           25.744970       23.247036       11.305872
  H           24.474805       24.883864       27.890545
  O           25.395064       25.068289       27.545422
  H           25.418328       25.976161       27.126820
  H           11.217383       15.850018       21.977596
  O           10.964941       16.817613       21.971909
  H            9.968699       16.902281       21.990156
  H           29.228914        6.211468       28.557736
  O           29.028274        6.648421       27.680915
  H           29.574987        7.480845       27.590502
  H           32.587781       27.494412        4.054799
  O           32.590105       26.497625        4.134872
  H           31.649463       26.167311        4.212877
  H           25.083756       29.009201       23.766206
  O           24.235461       29.461549       23.490932
  H           23.890747       29.041185       22.651607
  H            4.636416        4.421089       12.778967
  O            5.072436        5.296898       12.571975
  H            5.528611        5.240473       11.683876
  H           32.783910       33.337527       16.213902
  O           32.946038       34.029337       16.917546
  H           33.458404       34.792189       16.523163
  H           29.068688       33.285830        6.647388
  O           28.090435       33.170868        6.820031
  H           27.643955       34.065655        6.816607
  H           21.522044       30.228992       25.179786
  O           21.665618       29.255148       25.003679
  H           20.862483       28.740265       25.303461
  H           12.845795        5.267569       14.541958
  O           12.335322        4.501205       14.931963
  H           11.369975        4.749761       15.011484
  H           18.551065       14.779809        7.734978
  O           19.519575       14.592859        7.899407
  H           19.921415       15.347690        8.417824
  H           20.590048       12.981095       34.584400
  O           21.200683       12.202223       34.727518
  H           20.659294       11.366162       34.816392
  H           19.661829       23.390482       21.227466
  O           19.373057       24.146295       20.639795
  H           20.165590       24.710894       20.409322
  H           28.039336       19.085920        9.939921
  O           27.966722       18.812993       10.899212
  H           27.042951       18.475852       11.080824
  H           30.028925        9.450801       28.451888
  O           30.925360        9.261992       28.852833
  H           31.518083       10.058594       28.734066
  H           28.310030       20.574081       26.540439
  O           29.296090       20.731503       26.594316
  H           29.770329       19.853978       26.665357
  H           17.669838       22.529317       20.898825
  O           16.876319       23.128593       20.793014
  H           17.176752       24.025117       20.467460
  H           32.899697       27.484019       29.436574
  O           33.050378       28.164164       30.153999
  H           32.193306       28.329364       30.641992
  H           19.693311        2.918986       27.415348
  O           19.359732        2.859098       26.474530
  H           18.639249        2.167796       26.419711
  H           28.862633       11.212674       16.305031
  O           29.049466       11.135046       15.325711
  H           29.806423       10.497971       15.180270
  H           25.073518       26.701013       10.056747
  O           25.718717       27.401600       10.361536
  H           26.613497       27.233237        9.947987
  H           11.270735       31.822198       16.763692
  O           10.879181       31.715268       17.677613
  H            9.883725       31.794718       17.625129
  H           30.494737       25.690109        2.304945
  O           29.883169       25.602933        1.518570
  H           28.974401       25.327435        1.832004
  H           31.507480       25.977476       31.631776
  O           31.075044       25.079966       31.718227
  H           31.778077       24.368880       31.708077
  H           13.014530       14.760575       14.928260
  O           12.424971       14.738018       14.120850
  H           12.818242       14.122260       13.438075
  H           14.738658        8.348613       29.625916
  O           14.710468        7.438179       30.038609
  H           13.765304        7.112515       30.063260
  H           17.803934       20.804568       11.004477
  O           16.926815       20.784853       11.484345
  H           16.881634       19.970459       12.062896
  H           21.657372       33.553363       30.075785
  O           20.750740       33.914239       30.294386
  H           20.840792       34.836746       30.669713
  H           33.267385       24.415328       18.518220
  O           32.379866       24.500114       18.065318
  H           32.368924       25.328981       17.505979
  H           18.222163       10.281867       20.668013
  O           18.492581       10.802687       19.858310
  H           18.963205       11.638383       20.141376
  H           15.263175       10.810226       18.155146
  O           15.955892       11.531383       18.163841
  H           16.866203       11.118768       18.196736
  H           14.788230       29.579259        4.875360
  O           15.712633       29.656879        5.248796
  H           16.352844       29.164856        4.658845
  H           22.952965       19.587136       26.290599
  O           22.661014       18.635598       26.387233
  H           22.568348       18.221769       25.481607
  H           27.283482       15.350672       34.107415
  O           27.603305       15.566209       33.184779
  H           27.742043       14.718080       32.673478
  H           28.662157       11.813826       10.989874
  O           29.420178       11.374339       10.507944
  H           29.307175       10.381401       10.544073
  H           32.251993       18.248963        2.832511
  O           33.114396       17.851666        3.146224
  H           33.666704       18.559421        3.586722
  H           23.588277       33.506201       24.634921
  O           22.691222       33.487614       25.076449
  H           22.589704       34.294008       25.659050
  H           13.470266       11.186129       32.249517
  O           13.320535       10.575606       33.027234
  H           13.232528       11.116658       33.863605
  H            3.610493       30.811612       21.095682
  O            4.406153       30.401520       20.649869
  H            5.190015       31.016526       20.735479
  H           17.853083       32.620017        6.784081
  O           18.388197       32.641917        7.628577
  H           19.102798       31.943531        7.588570
  H           13.252041       27.189759       32.532652
  O           13.424421       26.971644       31.572074
  H           13.777699       26.038885       31.500277
  H           21.722484       22.680804       34.508307
  O           21.826423       23.629398       34.209368
  H           22.015931       23.650654       33.227719
  H           12.291632        4.783228       26.978246
  O           12.484635        3.815775       26.814585
  H           13.200051        3.731301       26.121012
  H           32.448061       26.235978       34.322970
  O           33.293497       26.713138       34.562879
  H           34.020500       26.044672       34.719783
  H           21.715730       18.746739       34.814839
  O           20.727317       18.601361       34.771202
  H           20.539798       17.702300       34.375569
  H           30.535844        1.898320       33.659938
  O           31.195891        2.632848       33.817439
  H           30.774431        3.512561       33.597265
  H            5.620732       16.693833       29.584993
  O            6.231922       15.902700       29.561437
  H            7.179969       16.215527       29.503590
  H           16.389410       32.881118       29.123643
  O           17.022633       32.489803       28.455885
  H           17.810958       32.100576       28.932380
  H           13.118290       28.452321       13.908103
  O           12.397727       28.269208       13.239329
  H           11.735164       29.018142       13.249745
  H           12.500962       19.235810        6.474481
  O           11.617086       18.769613        6.436735
  H           10.881714       19.442089        6.520425
  H           17.835444       29.828302       14.401245
  O           16.878429       29.542834       14.452523
  H           16.305057       30.334993       14.661635
  H           25.209483       13.109049        9.924974
  O           26.066862       13.204873       10.430660
  H           26.575582       12.344891       10.390228
  H           26.497176       21.840180       28.677750
  O           25.681205       21.495405       28.213722
  H           25.458914       22.092300       27.442812
  H           22.729985        8.133194       19.228923
  O           22.654661        7.330561       19.820622
  H           23.440868        7.296367       20.437638
  H           25.009168       30.263107       25.644942
  O           25.656212       29.522764       25.827225
  H           26.559946       29.777723       25.483333
  H           28.185140       24.813979        5.723820
  O           27.268956       25.126949        5.974134
  H           26.667137       24.336883        6.090797
  H           23.101451       34.785973       31.184785
  O           23.912617       34.209481       31.086472
  H           23.633104       33.253829       30.993724
  H            4.797097       24.768056       11.825146
  O            4.431822       23.955880       12.280057
  H            4.022331       24.218948       13.153620
  H           30.890208       23.895181        5.153052
  O           31.422640       23.932415        4.307398
  H           31.817424       23.032503        4.122186
  H           20.779482       28.575237       21.256142
  O           19.942412       28.028221       21.265566
  H           20.022627       27.308015       21.954673
  H           11.463183       21.262175       18.223613
  O           12.281607       21.836711       18.214085
  H           12.128771       22.624677       17.617637
  H           10.497741       22.589052       21.205043
  O           10.470426       21.690237       20.767567
  H            9.550917       21.519723       20.413409
  H           31.088407       33.042630       20.239233
  O           31.767241       33.747596       20.033787
  H           31.397629       34.645732       20.271983
  H           13.407224       21.729996       14.456153
  O           12.740356       21.194416       14.974266
  H           11.875949       21.162935       14.472461
  H            9.360303        2.867104       12.168077
  O            9.841498        2.583982       12.997712
  H            9.663522        3.243710       13.727837
  H           29.444896       13.756520       27.057596
  O           30.210907       14.126076       26.531615
  H           30.066628       15.103011       26.374195
  H            7.557671        6.949168       22.658478
  O            8.017196        7.749497       22.273368
  H            8.132769        7.625390       21.287853
  H            9.302217       23.264433        8.669064
  O            9.282595       22.373675        9.123117
  H            8.579855       21.800283        8.701954
  H           13.048165       33.873939        9.929351
  O           13.280937       34.492367        9.178776
  H           14.106868       34.164142        8.720402
  H           16.813171       13.031954       20.857577
  O           16.826183       12.081137       21.167053
  H           17.512637       11.974081       21.886303
  H           14.948475       11.727997       15.907193
  O           14.937391       12.625465       16.348133
  H           14.398317       13.261484       15.795974
  H           25.790028       29.232561       18.501630
  O           25.797919       28.342528       18.045803
  H           25.880032       28.474672       17.057979
  H           24.924035       33.276039        8.903276
  O           24.722936       34.237772        9.089365
  H           23.784741       34.442209        8.810088
  H           17.963712       24.471903        6.816185
  O           17.597052       23.578525        7.075873
  H           18.340399       22.910539        7.110931
  H            8.351578        3.922539        2.717958
  O            9.286456        3.577950        2.632743
  H            9.312198        2.614539        2.899531
  H           25.022121       13.275363       13.945201
  O           25.175425       14.045230       13.325683
  H           24.806152       13.825152       12.422797
  H           21.900558       23.357787       27.738831
  O           22.847327       23.173333       27.475004
  H           23.029550       23.581249       26.580354
  H           14.699986       22.807827        4.034778
  O           14.373084       21.873059        4.173856
  H           14.655772       21.302864        3.402517
  H            4.044967       31.196624        9.605748
  O            4.673149       30.426741        9.493198
  H            4.149349       29.579955        9.400534
  H            7.891491       27.579436        8.731259
  O            7.120637       27.176939        9.225000
  H            6.508984       27.903694        9.537583
  H            2.697134       29.389610        6.769062
  O            2.757235       30.038465        6.010526
  H            2.195752       30.840811        6.212953
  H            3.813045        4.653440       29.401228
  O            3.352303        5.532750       29.280683
  H            3.970527        6.272259       29.546999
  H           15.503027        4.495545       27.315216
  O           16.308468        5.085350       27.256944
  H           16.049840        5.964006       26.855603
  H           28.750196        2.198526        4.986035
  O           27.946951        2.708975        5.293020
  H           27.512658        2.222586        6.051186
  H           25.246501       23.011074       30.060514
  O           24.315104       22.763255       29.793894
  H           23.674263       23.443021       30.150600
  H           20.195241        6.637330       30.491701
  O           20.922842        6.952169       29.882216
  H           20.690198        7.856698       29.524858
  H           33.769604       29.459773       20.170874
  O           33.020781       29.946406       20.620821
  H           32.152486       29.685058       20.199202
  H            2.985238       32.010860       32.120852
  O            2.021699       32.021678       32.388201
  H            1.510378       32.616612       31.768036
  H           11.157394       27.412517        8.509629
  O           11.984623       27.293689        9.058786
  H           11.875767       27.768049        9.932360
  H           16.158420       25.115360        7.896207
  O           15.366127       24.846601        8.443967
  H           14.593479       24.652349        7.839583
  H           17.025256       25.533268       14.636022
  O           17.504362       24.655520       14.640260
  H           18.491582       24.814597       14.630739
  H           27.487342       24.099388       22.124096
  O           28.181970       24.798603       21.955009
  H           27.750488       25.607244       21.555106
  H           30.800390       11.759112       20.113749
  O           31.439662       10.994636       20.030643
  H           31.632973       10.621634       20.938112
  H           32.329976       16.782243       30.980714
  O           33.285797       16.889305       30.706955
  H           33.346198       16.911625       29.709031
  H           29.022130       25.209328       32.759524
  O           28.171694       24.744070       33.005073
  H           28.288247       23.756921       32.895746
  H           10.848762       23.393104       27.294693
  O           10.008939       23.919346       27.161401
  H           10.215136       24.751344       26.646366
  H           10.105084       30.349661       27.331417
  O           11.026952       30.667909       27.552501
  H           10.969447       31.456639       28.164544
  H           21.005806       24.662789       29.265911
  O           20.233999       24.065838       29.484916
  H           20.222738       23.882682       30.467936
  H           24.645349       34.791893        6.816046
  O           25.354099       34.232177        6.386638
  H           25.869789       34.789144        5.735599
  H            9.410155       34.422521       27.572065
  O           10.390296       34.411177       27.374086
  H           10.705143       33.464666       27.303463
  H           21.913717        9.671143       21.242100
  O           21.905006       10.670989       21.257354
  H           22.664961       11.002444       21.816465
  H           11.712219       10.386410       27.077934
  O           11.099831        9.904269       26.451420
  H           11.629562        9.527634       25.691465
  H           28.945095       27.728655       22.937248
  O           28.794662       26.885978       23.454225
  H           27.862981       26.879594       23.817447
  H            3.120023        7.721576       12.044224
  O            2.522978        6.923312       11.964776
  H            3.078628        6.104569       11.820171
  H           25.549292       12.323572       22.581572
  O           25.916777       13.217687       22.325619
  H           25.210995       13.915511       22.447740
  H           10.860827       27.552546       33.304017
  O           10.838931       28.158856       32.509090
  H           10.331125       28.989534       32.737357
  H           29.394893        8.999582        8.619346
  O           29.398959        8.029311        8.377359
  H           30.032241        7.877717        7.618431
  H           15.930157       23.991329       28.467837
  O           16.524511       23.294075       28.868562
  H           17.462838       23.637727       28.906564
  H           13.552104        6.822812       17.704489
  O           13.994518        6.996487       16.824656
  H           13.591275        7.808860       16.403412
  H           27.576366       19.176659       13.099326
  O           28.165339       18.369592       13.057440
  H           27.600083       17.544785       13.044080
  H            7.375172       26.541879       25.729756
  O            6.605494       26.556400       26.368023
  H            6.276788       25.623487       26.515081
  H           22.889411       17.993031       33.114410
  O           23.713367       18.496754       32.854871
  H           24.519856       18.018044       33.201875
  H           34.875570        6.039124        5.415417
  O           34.349076        5.204672        5.252645
  H           34.871414        4.413573        5.570959
  H            8.640956        8.651767       18.744338
  O            7.864727        8.021322       18.746983
  H            7.930864        7.407896       17.960005
  H            6.388305       13.914122       21.599735
  O            5.389442       13.881391       21.634388
  H            5.051107       13.267755       20.920959
  H           24.756293        8.151986       15.601501
  O           24.336034        8.119448       16.508322
  H           23.460276        7.639898       16.452813
  H           29.776540       11.590386       22.706002
  O           29.093733       11.252206       22.058385
  H           28.282018       11.835100       22.095147
  H            3.948200       26.912994        3.359907
  O            3.037444       26.771966        2.971790
  H            2.356685       27.228622        3.544531
  H           32.955970       25.728651        6.951373
  O           33.340140       26.533016        7.404594
  H           32.695623       26.867947        8.091920
  H           15.959690        8.972892       32.391823
  O           15.247962        8.738383       31.729669
  H           14.752152        9.565871       31.466159
  H           34.582262       10.048614       23.184205
  O           33.607696        9.934659       23.377171
  H           33.241523       10.784222       23.756854
  H           30.330388       13.887845       31.908709
  O           31.032575       14.290725       32.495753
  H           30.608265       14.640635       33.330932
  H           32.429800       19.828640       27.615626
  O           31.654172       19.219877       27.782387
  H           31.949177       18.452397       28.351549
  H           22.046383       31.710065        4.896374
  O           21.067732       31.847486        4.743537
  H           20.863182       32.826300        4.752558
  H           13.057913        3.050582       30.435129
  O           12.615705        2.544603       29.694564
  H           12.788228        1.566365       29.809833
  H            9.070186       15.292204       33.506289
  O            8.264308       15.152099       34.081556
  H            8.053139       15.998078       34.571176
  H            5.144556        2.174005        9.527998
  O            4.147470        2.097728        9.528104
  H            3.743265        3.011747        9.562570
  H           30.375001       25.244162       11.427103
  O           31.241014       25.464883       11.875772
  H           31.733986       24.619841       12.082852
  H           29.058217       20.731119       10.986796
  O           29.913403       20.222763       11.087939
  H           30.193040       19.860604       10.198757
  H           10.323083        6.062660       12.273337
  O           10.645793        6.964543       12.560506
  H            9.931775        7.643726       12.390540
  H           14.905567       34.765868       12.190152
  O           15.781859       34.463172       11.815334
  H           16.522092       34.754823       12.421136
  H           11.391349       34.513664       16.257612
  O           10.486055       34.089356       16.277741
  H            9.786377       34.789996       16.137911
  H           13.573654        1.500167       15.133038
  O           12.739895        2.047952       15.063925
  H           12.014792        1.500132       14.646650
  H           23.478977       23.494155       16.724680
  O           23.675304       24.465066       16.861753
  H           23.474788       24.715182       17.808978
  H            4.633158        4.735353       19.954742
  O            4.838614        5.708738       19.853210
  H            5.303110        5.862145       18.981023
  H            7.129000       15.548956        2.763749
  O            7.823676       16.261587        2.861638
  H            7.429137       17.048804        3.335587
  H           14.142680       14.037916        8.259812
  O           14.817389       14.665939        7.872057
  H           15.574989       14.779601        8.514803
  H           20.428115       31.465640       23.721403
  O           21.126608       32.085467       23.363742
  H           22.033254       31.746257       23.614600
  H           13.328153       31.656625       11.132083
  O           14.307065       31.476895       11.034976
  H           14.801618       32.344445       10.982308
  H           29.322178       12.534834       24.641502
  O           28.479059       12.667424       24.120378
  H           27.877289       11.880017       24.254030
  H           17.723013       16.178362        3.044018
  O           18.686814       16.037875        3.270627
  H           19.027090       15.228273        2.792343
  H           30.969137       29.480438        9.094530
  O           30.698807       30.168444        8.421054
  H           29.764458       30.470647        8.609907
  H           13.072861        6.955701       10.893227
  O           13.835141        7.334312       11.418188
  H           14.677986        7.255944       10.885768
  H           17.478127       10.896594       11.292623
  O           17.942483       10.726315       12.161749
  H           18.701087       10.091379       12.015549
  H           13.909048        2.948185       20.414172
  O           13.811626        2.142350       19.830100
  H           13.172826        1.499537       20.252859
  H           23.033853       18.732689       22.013341
  O           22.964005       17.735431       21.988898
  H           23.875981       17.335127       22.078647
  H            8.493924       21.886587        1.664366
  O            8.747164       20.921675        1.594976
  H            9.039369       20.588466        2.491406
  H           30.958018        8.474070       18.043948
  O           30.673066        7.583585       18.398686
  H           29.904339        7.240296       17.859046
  H           28.968689        2.140945       17.997517
  O           28.156018        2.668222       18.245599
  H           27.739757        3.047579       17.419273
  H           11.153963       16.714234       28.725035
  O           12.146110       16.590118       28.740537
  H           12.593852       17.484270       28.744813
  H           12.232175       15.124505        8.250203
  O           12.182360       15.733250        7.458403
  H           12.307786       16.679369        7.756942
  H           16.533692        4.036299       24.526985
  O           17.215846        3.562450       25.083880
  H           18.037465        4.127777       25.157004
  H           14.361905       12.854431       18.904556
  O           14.372489       13.626678       18.269321
  H           13.976761       14.429922       18.714514
  H           33.397114       10.111881        4.598588
  O           33.103960        9.159218        4.679172
  H           33.906079        8.562077        4.674011
  H           20.516104        5.266566       17.369519
  O           20.134893        4.758708       18.142020
  H           19.171582        4.556698       17.965315
  H           24.395019       24.999302       31.568642
  O           24.813534       25.891689       31.399854
  H           24.097349       26.570054       31.235842
  H            5.130099       26.296324       23.823215
  O            5.932632       26.234264       23.229844
  H            6.118052       27.129760       22.825238
  H           27.266311        8.248000       16.487887
  O           26.486845        8.697841       16.923864
  H           26.263976        9.535654       16.425468
  H           31.723741       21.127635       30.521415
  O           32.500272       20.506164       30.417619
  H           33.342924       21.037405       30.329763
  H            6.637074       18.974531        8.954643
  O            5.831800       18.872167        9.538641
  H            5.969018       19.381923       10.387946
  H           10.641003       12.799240       15.595946
  O           11.545930       13.197537       15.446057
  H           12.129675       13.004950       16.234823
  H           26.582174       27.853200        6.658783
  O           26.176862       28.767098        6.636135
  H           26.074659       29.062950        5.686384
  H           17.469478       34.234014       25.713577
  O           17.765472       34.221048       24.758475
  H           18.098352       33.307425       24.525059
  H           19.250074       13.286290       21.571276
  O           19.807968       12.824459       22.260817
  H           20.311507       12.073409       21.833769
  H            5.707297       21.461245       34.057858
  O            5.224567       20.698806       33.626976
  H            4.570199       21.053392       32.959090
  H           30.644079       23.638815       15.690214
  O           30.745520       24.352316       14.996942
  H           30.958142       23.932091       14.114785
  H           14.310767        8.541244       22.574825
  O           13.809426        7.749819       22.924546
  H           14.153138        6.918191       22.488363
  H            9.648044       12.907047       20.123988
  O            9.420084       13.835547       19.830862
  H            8.497085       13.846485       19.446216
  H           23.206015       30.307069       32.339398
  O           22.336646       29.842237       32.507115
  H           21.607198       30.520751       32.593862
  H           19.099261       16.936950       12.360205
  O           18.697001       16.702662       13.245245
  H           19.411196       16.360585       13.855907
  H           19.233464       14.153165       33.188607
  O           19.107216       14.533547       34.104779
  H           18.553160       13.906648       34.652520
  H           33.265655        4.034086        9.298367
  O           33.676299        3.580014        8.507677
  H           34.091040        2.717286        8.796968
  H           19.863443        6.770381        8.722280
  O           20.191502        6.048132        9.331159
  H           21.025244        6.353280        9.791331
  H           26.039521       21.034033       13.553091
  O           25.983818       22.032096       13.525405
  H           25.024126       22.312853       13.538326
  H            8.617056        6.407105       24.854705
  O            7.695235        6.434936       25.241321
  H            7.350300        7.373149       25.213472
  H            4.848288       34.033922       27.741635
  O            5.665670       34.551969       27.489614
  H            6.173633       34.795805       28.315760
  H           18.505857       25.921318       22.737701
  O           18.941224       25.025573       22.647717
  H           19.929853       25.143368       22.554247
  H            4.169868        7.234352       16.977061
  O            4.494428        6.288487       16.977596
  H            3.712209        5.667660       16.925573
  H           33.724242       14.367524       14.689502
  O           33.054431       13.672163       14.949936
  H           32.216533       13.801313       14.419609
  H            8.649376       22.678127       16.562471
  O            9.125502       23.243932       15.889292
  H           10.031732       23.484271       16.237121
  H           26.041904        9.532926       14.200715
  O           25.629144       10.441953       14.258153
  H           25.220856       10.678935       13.376597
  H            4.202740       16.105877       14.281215
  O            4.407689       15.241981       14.741301
  H            5.361050       15.243073       15.043129
  H           13.452527       27.331642       11.554864
  O           13.875288       26.505566       11.927519
  H           13.162247       25.879894       12.243916
  H            7.295986       29.688248        8.517448
  O            7.719496       30.475008        8.966501
  H            8.587056       30.688130        8.517148
  H            2.775726        9.027925       32.535299
  O            2.674715        9.278718       31.572543
  H            3.058567       10.189995       31.423446
  H            8.710210       25.040067       31.150967
  O            8.277049       25.886497       31.460688
  H            8.303819       26.563209       30.724928
  H            2.039211        6.842314       32.300669
  O            2.289270        5.874405       32.275725
  H            3.197051        5.775068       31.868214
  H            7.052318       28.893014       15.441706
  O            7.974846       29.227200       15.634737
  H            8.574100       28.452891       15.838058
  H           25.048938       28.348002        1.911353
  O           24.262949       27.757190        1.729248
  H           24.583466       26.842421        1.483348
  H           10.839123       12.323673        9.610623
  O           10.611741       11.546503       10.197397
  H            9.978941       10.939653        9.716464
  H           23.829902        4.533111       17.266472
  O           23.673601        5.520771       17.276313
  H           22.692763        5.702323       17.346988
  H            2.735958        5.570022       14.314025
  O            2.529280        4.891689       13.608938
  H            1.537934        4.802207       13.512887
  H           25.709760       19.340454        7.904266
  O           26.187139       18.479854        8.081687
  H           26.183631       18.293139        9.064094
  H           32.692636       12.339414       22.300797
  O           32.288089       13.251449       22.368132
  H           32.548325       13.668031       23.239187
  H           14.649141       24.208846       16.670097
  O           13.776137       23.721400       16.653971
  H           13.040241       24.362758       16.436911
  H            5.480782        2.868444       31.728463
  O            4.533227        2.808729       32.042427
  H            4.514541        2.470661       32.983363
  H           29.955761        4.571574       29.927906
  O           30.715771        5.214979       29.836165
  H           31.112761        5.133731       28.921946
  H           25.795917       30.556536       12.359619
  O           25.755446       30.819833       11.395754
  H           26.123494       30.080105       10.832422
  H           29.295425       30.969749       32.253257
  O           29.582226       30.298017       32.936281
  H           30.529855       30.029927       32.762711
  H           27.565551       29.083402       12.391203
  O           27.558712       28.848453       13.363186
  H           27.780069       29.660049       13.903845
  H           27.275703       28.505677       21.733241
  O           26.782958       27.711885       22.089747
  H           26.046520       27.466065       21.459484
  H            3.036858        7.326513       23.161396
  O            4.021863        7.342222       22.989590
  H            4.286965        6.515225       22.493812
  H           20.244262       19.169922       18.910421
  O           19.839590       18.312401       18.592778
  H           20.558210       17.626083       18.480743
  H           25.063595       16.406979       17.419753
  O           24.993030       15.510977       16.981346
  H           25.621203       15.469674       16.204370
  H           32.951666        4.815686       16.644773
  O           33.498535        5.630662       16.453076
  H           32.926590        6.445549       16.547083
  H            4.160111        1.561272       20.247448
  O            3.342835        2.111331       20.075706
  H            3.486026        2.676339       19.263141
  H           34.303517       24.364422        9.660295
  O           33.867253       24.972479       10.323575
  H           33.872182       25.908383        9.971357
  H           10.983327       22.573418        6.392083
  O           10.693499       21.627713        6.244969
  H            9.933626       21.609224        5.595161
  H           31.952941        1.928902       14.109075
  O           31.790316        1.852800       15.092823
  H           32.662616        1.731218       15.566438
  H           18.218702       29.654990       29.545808
  O           19.138306       29.293900       29.700540
  H           19.472784       28.863418       28.862203
  H           32.045965       11.692130        3.873408
  O           31.465043       12.456942        3.594854
  H           31.370580       12.458417        2.599327
  H           20.446364       32.928509       28.350170
  O           20.469809       31.945266       28.530960
  H           21.419702       31.644697       28.616752
  H           25.192029       29.452745       15.195304
  O           25.972736       28.901176       14.901588
  H           25.693416       27.944353       14.821149
  H            8.143992        3.555074       23.837575
  O            8.298489        2.567154       23.825528
  H            7.445863        2.093730       24.046654
  H            6.294713       10.167156       17.746899
  O            6.441951       11.129726       17.519347
  H            7.417105       11.290914       17.367385
  H            7.067892        6.504693       15.071202
  O            7.972435        6.930998       15.079389
  H            8.674337        6.222202       15.149686
  H           21.270115        8.388000       27.005682
  O           21.334488        7.400551       26.861458
  H           20.833591        7.151410       26.032584
  H           32.437679       33.531030       10.199544
  O           32.423250       34.509868        9.995414
  H           31.493517       34.785841        9.751622
  H            3.871872       30.314348        2.793062
  O            4.540860       29.622436        2.521561
  H            5.411330       30.066037        2.308257
  H           18.597297       24.908586       17.161240
  O           17.934002       24.217614       16.873843
  H           17.280995       24.054471       17.613414
  H            1.820924       19.963281        7.364378
  O            2.378556       20.466874        8.024257
  H            1.807210       21.132756        8.504012
  H           23.858234       22.415792        8.435258
  O           23.089164       23.052518        8.491031
  H           23.434984       23.989721        8.536415
  H           21.706887       20.739918       33.305361
  O           21.370145       20.152151       32.569742
  H           20.536190       19.688444       32.868901
  H            6.988759        8.895948       13.806308
  O            7.959700        9.121180       13.725412
  H            8.080954        9.828045       13.028534
  H           14.209841       17.405971       30.707470
  O           14.031805       18.387662       30.639744
  H           13.044775       18.546652       30.617492
  H           15.181321       27.405356       29.737598
  O           16.160956       27.597410       29.796162
  H           16.675573       26.752555       29.649912
  H            6.444071        3.184079        1.806000
  O            5.512846        3.289808        2.154772
  H            4.869635        2.854069        1.525162
  H            7.477865        4.961573       21.711572
  O            8.153576        5.046517       20.979316
  H            8.240934        4.171466       20.503233
  H           29.325207       23.145109       22.871456
  O           29.262039       22.175174       23.106479
  H           30.123514       21.720590       22.880174
  H           22.998321       31.635209       34.161517
  O           23.030590       32.409292       34.793778
  H           22.499682       33.168886       34.418073
  H           12.850391        2.809526       23.732706
  O           13.592737        2.576391       23.104558
  H           14.074484        1.768170       23.443228
  H            8.955343        4.842161       28.092962
  O            8.039631        5.228102       27.981069
  H            7.839524        5.839026       28.747052
  H           14.928528       33.825622       16.862074
  O           14.109647       33.553326       16.356813
  H           13.581836       34.367220       16.113932
  H           10.163642       10.359737       15.651080
  O           10.215939        9.478682       15.180966
  H            9.896095        8.755048       15.792565
  H           12.207074       10.745056        1.551866
  O           11.368324       10.228726        1.724789
  H           10.677473       10.836550        2.116291
  H           27.991114       20.699342       15.117376
  O           28.448202       21.128480       15.896421
  H           29.033646       20.456979       16.350670
