21
choline reneu.ff
N            0.000000        0.000000        0.000000
C            1.527000        0.000000        0.000000
C           -0.477096       -1.451607        0.000000
C           -0.489049        0.682180       -1.270823
C           -0.471457        0.761235        1.265207
H            1.878221       -0.528392       -0.891225
H            1.872193        1.038046       -0.011759
H            1.871124       -0.509314        0.904994
H            0.058191       -1.988131       -0.788952
H           -0.250698       -1.889948        0.976441
H           -1.547492       -1.482946       -0.218901
H           -0.041868        0.172179       -2.130446
H           -1.577954        0.602651       -1.321904
H           -0.178990        1.730932       -1.242186
C           -1.996912        0.844418        1.442723
H           -0.031992        0.228484        2.117530
H           -0.043334        1.766431        1.209269
O           -2.559446       -0.447017        1.637238
H           -2.232135        1.459466        2.318852
H           -2.478861        1.312550        0.580617
H           -2.785454       -0.546801        2.581452
