LAMMPS (10 Dec 2025)
OMP_NUM_THREADS environment is not set. Defaulting to 1 thread.
  using 1 OpenMP thread(s) per MPI task
# created by fftool

units real
boundary p p p

atom_style full
bond_style harmonic
angle_style harmonic
dihedral_style opls

special_bonds lj/coul 0.0 0.0 0.5

# remove hybrid if not necessary
pair_style hybrid lj/cut/coul/long 10.0 10.0
pair_modify mix geometric tail yes
read_data data.lmp
Reading data file ...
  orthogonal box = (0 0 0) to (32.03 32.03 32.03)
  1 by 1 by 2 MPI processor grid
  reading atoms ...
  2208 atoms
  scanning bonds ...
  1 = max bonds/atom
  scanning angles ...
  6 = max angles/atom
  scanning dihedrals ...
  9 = max dihedrals/atom
  orthogonal box = (0 0 0) to (32.03 32.03 32.03)
  1 by 1 by 2 MPI processor grid
  reading bonds ...
  2112 bonds
  reading angles ...
  3936 angles
  reading dihedrals ...
  5232 dihedrals
Finding 1-2 1-3 1-4 neighbors ...
  special bond factors lj:    0        0        0.5     
  special bond factors coul:  0        0        0.5     
     4 = max # of 1-2 neighbors
    12 = max # of 1-3 neighbors
    16 = max # of 1-4 neighbors
    20 = max # of special neighbors
  special bonds CPU = 0.003 seconds
  read_data CPU = 3.694 seconds
# read_restart restart1.lmp

kspace_style pppm 1.0e-5

# remove pair style if not using hybrid
pair_coeff    1    1 lj/cut/coul/long     0.170000     3.250000  # N4 N4
pair_coeff    2    2 lj/cut/coul/long     0.065999     3.500000  # C1 C1
pair_coeff    3    3 lj/cut/coul/long     0.065999     3.500000  # C1C C1C
pair_coeff    4    4 lj/cut/coul/long     0.030000     2.500000  # H1 H1
pair_coeff    5    5 lj/cut/coul/long     0.065999     3.500000  # CTOC CTOC
pair_coeff    6    6 lj/cut/coul/long     0.170000     3.120000  # OH OH
pair_coeff    7    7 lj/cut/coul/long     0.030000     2.500000  # H1O H1O
pair_coeff    8    8 lj/cut/coul/long     0.000000     1.000000  # HO HO
pair_coeff    9    9 lj/cut/coul/long     0.105000     3.750000  # CO2 CO2
pair_coeff   10   10 lj/cut/coul/long     0.065999     3.500000  # C2C C2C
pair_coeff   11   11 lj/cut/coul/long     0.210000     2.960000  # O2 O2
pair_coeff   12   12 lj/cut/coul/long     0.065999     3.500000  # CS CS
pair_coeff   13   13 lj/cut/coul/long     0.030000     2.500000  # HC HC
pair_coeff   14   14 lj/cut/coul/long     0.065999     3.500000  # CT CT

# minimize 1.0e-4 1.0e-6 100 1000
# reset_timestep 0

fix SHAKE all shake 0.0001 20 0 b 2 5
Finding SHAKE clusters ...
      48 = # of size 2 clusters
     384 = # of size 3 clusters
     192 = # of size 4 clusters
       0 = # of frozen angles
  find clusters CPU = 0.010 seconds

neighbor 2.0 bin
neigh_modify delay 0 every 1 check yes








#fix VAVG all ave/time 10 1000 50000 v_vinst

# ---------------------------------------------------------------------------
# RENEU 2026 simulation protocol (stage1 M7 choline octanoate)
# 1 minimise  2 NVT relaxation  3 NPT equilibration  4 NPT production
# ---------------------------------------------------------------------------
timestep 1.0

variable TK      equal 300.0
variable PBAR    equal 1.0
variable NVTRUN  equal 20000
variable EQRUN   equal 100000
variable PRODRUN equal 200000

variable dens equal density
variable vol  equal vol

thermo 1000
thermo_style custom step temp press vol v_dens pe etotal

# --- 1. energy minimisation ------------------------------------------------
print "RENEU >>> stage 1 of 4: energy minimisation"
RENEU >>> stage 1 of 4: energy minimisation
minimize 1.0e-4 1.0e-6 10000 100000
PPPM initialization ...
  using 12-bit tables for long-range coulomb
  G vector (1/distance) = 0.27081785
  grid = 18 18 18
  stencil order = 5
  estimated absolute RMS force accuracy = 0.0032423848
  estimated relative force accuracy = 9.7643455e-06
  using double precision FFTW3
  3d grid and FFT values/proc = 10000 2916
Generated 91 of 91 mixed pair_coeff terms from geometric mixing rule
WARNING: Using fix shake with minimization.
  Substituting constraints with harmonic restraint forces using kbond=1987206.7 (src/RIGID/fix_shake.cpp:397)
Neighbor list info ...
  update: every = 1 steps, delay = 0 steps, check = yes
  max neighbors/atom: 2000, page size: 100000
  master list distance cutoff = 12
  ghost atom cutoff = 12
  binsize = 6, bins = 6 6 6
  1 neighbor lists, perpetual/occasional/extra = 1 0 0
  (1) pair lj/cut/coul/long, perpetual
      attributes: half, newton on
      pair build: half/bin/newton
      stencil: half/bin/3d
      bin: standard
Per MPI rank memory allocation (min/avg/max) = 16.14 | 16.33 | 16.53 Mbytes
   Step          Temp          Press          Volume         v_dens         PotEng         TotEng    
         0   0             -12840897       32860.246      0.60004291     173801.46      173801.46    
        40   0              5892.3575      32860.246      0.60004291    -529.55556     -529.55556    
Loop time of 16.5165 on 2 procs for 40 steps with 2208 atoms

100.0% CPU use with 2 MPI tasks x 1 OpenMP threads

Minimization stats:
  Stopping criterion = energy tolerance
  Energy initial, next-to-last, final = 
      173801.463721185  -529.511637279504  -529.555563321137
  Force two-norm initial, final = 1586717.2 761.97245
  Force max component initial, final = 123157.32 190.78175
  Final line search alpha, max atom move = 6.5505508e-05 0.012497255
  Iterations, force evaluations = 40 204

MPI task timing breakdown:
Section |  min time  |  avg time  |  max time  |%varavg| %total
---------------------------------------------------------------
Pair    | 7.4733     | 8.0721     | 8.6708     |  21.1 | 48.87
Bond    | 0.61067    | 0.65792    | 0.70518    |   5.8 |  3.98
Kspace  | 5.5642     | 6.2894     | 7.0146     |  28.9 | 38.08
Neigh   | 0          | 0          | 0          |   0.0 |  0.00
Comm    | 0.70557    | 0.7688     | 0.83203    |   7.2 |  4.65
Output  | 0          | 0          | 0          |   0.0 |  0.00
Modify  | 0.11862    | 0.15077    | 0.18293    |   8.3 |  0.91
Other   |            | 0.5776     |            |       |  3.50

Nlocal:           1104 ave        1111 max        1097 min
Histogram: 1 0 0 0 0 0 0 0 0 1
Nghost:         7077.5 ave        7085 max        7070 min
Histogram: 1 0 0 0 0 0 0 0 0 1
Neighs:         297094 ave      318218 max      275970 min
Histogram: 1 0 0 0 0 0 0 0 0 1

Total # of neighbors = 594188
Ave neighs/atom = 269.10688
Ave special neighs/atom = 10.173913
Neighbor list builds = 0
Dangerous builds = 0
reset_timestep 0

# --- 2. NVT relaxation (lets the packed box relax before the barostat) ------
print "RENEU >>> stage 2 of 4: NVT relaxation"
RENEU >>> stage 2 of 4: NVT relaxation
velocity all create ${TK} 12345 mom yes rot yes dist gaussian
velocity all create 300 12345 mom yes rot yes dist gaussian
fix NVTRELAX all nvt temp ${TK} ${TK} 100
fix NVTRELAX all nvt temp 300 ${TK} 100
fix NVTRELAX all nvt temp 300 300 100
run ${NVTRUN}
run 20000
PPPM initialization ...
  using 12-bit tables for long-range coulomb
  G vector (1/distance) = 0.27081785
  grid = 18 18 18
  stencil order = 5
  estimated absolute RMS force accuracy = 0.0032423848
  estimated relative force accuracy = 9.7643455e-06
  using double precision FFTW3
  3d grid and FFT values/proc = 10000 2916
Generated 91 of 91 mixed pair_coeff terms from geometric mixing rule
Per MPI rank memory allocation (min/avg/max) = 15.02 | 15.21 | 15.4 Mbytes
   Step          Temp          Press          Volume         v_dens         PotEng         TotEng    
         0   300            11994.44       32860.246      0.60004291    -529.57495      1029.0906    
      1000   308.76361     -183.64928      32860.246      0.60004291    -2613.6399     -1009.4426    
      2000   300.44873     -983.9607       32860.246      0.60004291    -2733.1482     -1172.1512    
      3000   306.79163     -1239.0731      32860.246      0.60004291    -2895.5727     -1301.6209    
      4000   303.91075     -388.34694      32860.246      0.60004291    -2941.1252     -1362.1411    
      5000   305.95162     -378.30043      32860.246      0.60004291    -3037.4838     -1447.8962    
      6000   302.87709     -964.96108      32860.246      0.60004291    -2998.0217     -1424.4081    
      7000   308.4319      -1230.1097      32860.246      0.60004291    -3146.3477     -1543.8738    
      8000   297.60114     -862.92352      32860.246      0.60004291    -3045.2354     -1499.0332    
      9000   296.9481      -1640.7672      32860.246      0.60004291    -3129.0445     -1586.2352    
     10000   307.1318      -1865.8429      32860.246      0.60004291    -3128.5443     -1532.825     
     11000   294.73677     -784.37828      32860.246      0.60004291    -3176.0975     -1644.7773    
     12000   299.87107     -1453.3018      32860.246      0.60004291    -3169.7157     -1611.72      
     13000   289.90727     -776.3245       32860.246      0.60004291    -3218.4233     -1712.195     
     14000   304.42371     -1024.8537      32860.246      0.60004291    -3148.9651     -1567.3159    
     15000   299.49002     -1636.8939      32860.246      0.60004291    -3247.9423     -1691.9264    
     16000   297.46581     -1769.3489      32860.246      0.60004291    -3175.8107     -1630.3116    
     17000   310.92529     -1491.6701      32860.246      0.60004291    -3165.3773     -1549.9488    
     18000   297.88012     -270.91051      32860.246      0.60004291    -3227.9893     -1680.3377    
     19000   306.51436     -483.45353      32860.246      0.60004291    -3260.4074     -1667.8961    
     20000   310.78944     -1421.8328      32860.246      0.60004291    -3157.04       -1542.3173    
Loop time of 862.423 on 2 procs for 20000 steps with 2208 atoms

Performance: 2.004 ns/day, 11.978 hours/ns, 23.190 timesteps/s, 51.205 katom-step/s
97.9% CPU use with 2 MPI tasks x 1 OpenMP threads

MPI task timing breakdown:
Section |  min time  |  avg time  |  max time  |%varavg| %total
---------------------------------------------------------------
Pair    | 369.02     | 403.09     | 437.16     | 169.7 | 46.74
Bond    | 41.354     | 44.462     | 47.57      |  46.6 |  5.16
Kspace  | 255.65     | 290.89     | 326.14     | 206.6 | 33.73
Neigh   | 33.381     | 33.456     | 33.532     |   1.3 |  3.88
Comm    | 50.182     | 51.945     | 53.709     |  24.5 |  6.02
Output  | 0.0019342  | 0.0052653  | 0.0085964  |   4.6 |  0.00
Modify  | 31.83      | 32.548     | 33.266     |  12.6 |  3.77
Other   |            | 6.023      |            |       |  0.70

Nlocal:           1104 ave        1230 max         978 min
Histogram: 1 0 0 0 0 0 0 0 0 1
Nghost:           6614 ave        7018 max        6210 min
Histogram: 1 0 0 0 0 0 0 0 0 1
Neighs:         294759 ave      343590 max      245928 min
Histogram: 1 0 0 0 0 0 0 0 0 1

Total # of neighbors = 589518
Ave neighs/atom = 266.99185
Ave special neighs/atom = 10.173913
Neighbor list builds = 678
Dangerous builds = 0
unfix NVTRELAX

# --- 3. NPT equilibration (this is where the density finds its own value) ---
# restart files are written every 25000 steps. If the run stops for any
# reason you can pick up from the last one instead of starting over:
#     read_restart rst_a.lmp      (or rst_b.lmp, whichever is newer)
print "RENEU >>> stage 3 of 4: NPT equilibration - watch the density column"
RENEU >>> stage 3 of 4: NPT equilibration - watch the density column
restart 25000 rst_a.lmp rst_b.lmp
fix NPTEQ all npt temp ${TK} ${TK} 100 iso ${PBAR} ${PBAR} 1000
fix NPTEQ all npt temp 300 ${TK} 100 iso ${PBAR} ${PBAR} 1000
fix NPTEQ all npt temp 300 300 100 iso ${PBAR} ${PBAR} 1000
fix NPTEQ all npt temp 300 300 100 iso 1 ${PBAR} 1000
fix NPTEQ all npt temp 300 300 100 iso 1 1 1000
run ${EQRUN}
run 100000
PPPM initialization ...
  using 12-bit tables for long-range coulomb
  G vector (1/distance) = 0.27081785
  grid = 18 18 18
  stencil order = 5
  estimated absolute RMS force accuracy = 0.0032423848
  estimated relative force accuracy = 9.7643455e-06
  using double precision FFTW3
  3d grid and FFT values/proc = 10000 2916
Generated 91 of 91 mixed pair_coeff terms from geometric mixing rule
Per MPI rank memory allocation (min/avg/max) = 15.41 | 15.41 | 15.41 Mbytes
   Step          Temp          Press          Volume         v_dens         PotEng         TotEng    
     20000   310.78944     -1422.0929      32860.246      0.60004291    -3157.04       -1542.3173    
     21000   300.94983     -1390.2301      29492.426      0.66856344    -3318.1711     -1754.5706    
     22000   302.11949     -1048.8183      27867.804      0.70753898    -3270.319      -1700.6415    
     23000   297.06575      744.40794      26628.908      0.74045686    -3331.5889     -1788.1684    
     24000   291.71402      124.98939      25918.417      0.76075471    -3361.8473     -1846.2319    
     25000   299.40899     -63.55933       24812.264      0.79466983    -3405.8445     -1850.2495    
     26000   300.34264      1009.7322      23875.78       0.82583931    -3435.1593     -1874.7135    
     27000   311.96715     -447.0561       23349.086      0.84446808    -3429.8982     -1809.0566    
     28000   299.91992      1894.217       23340.603      0.844775      -3435.8942     -1877.6446    
     29000   307.01996     -1570.5869      23251.738      0.84800362    -3450.6445     -1855.5064    
     30000   292.394        90.659078      22790.446      0.8651677     -3499.9457     -1980.7975    
     31000   303.3554      -605.42851      22555.837      0.87416654    -3517.9361     -1941.8374    
     32000   295.18375     -485.56714      22661.241      0.87010053    -3499.5452     -1965.9027    
     33000   294.10576      1672.6378      22472.368      0.87741345    -3424.2527     -1896.211     
     34000   293.66499      766.61327      21954.396      0.89811435    -3492.7197     -1966.968     
     35000   304.79687      1197.9251      22340.661      0.88258616    -3447.9682     -1864.3803    
     36000   305.56897     -70.890143      22400.597      0.88022465    -3550.622      -1963.0226    
     37000   289.6482      -571.12165      22099.578      0.89221422    -3610.4338     -2105.5516    
     38000   304.62113      309.82704      22148.349      0.89024958    -3537.9092     -1955.2343    
     39000   297.76019     -274.28292      22179.529      0.88899803    -3566.5739     -2019.5453    
     40000   297.03038      809.94359      21896.638      0.90048334    -3579.0935     -2035.8568    
     41000   304.23256      40.710817      21428.819      0.92014207    -3498.3808     -1917.7248    
     42000   304.0483      -580.77029      21471.357      0.91831912    -3549.3006     -1969.6018    
     43000   310.4631       437.85055      21805.536      0.90424549    -3537.5325     -1924.5054    
     44000   294.04867      1054.5966      21702.973      0.90851877    -3572.4539     -2044.7088    
     45000   307.35046     -749.87707      21421.254      0.92046702    -3536.5583     -1939.703     
     46000   306.66904      1705.2545      21110.772      0.93400458    -3578.7802     -1985.4653    
     47000   292.5376       492.62294      21166.812      0.93153176    -3610.0463     -2090.1521    
     48000   302.28991      1365.6881      21273.031      0.9268805     -3564.1164     -1993.5535    
     49000   309.58804     -1720.1001      21491.067      0.91747692    -3521.5616     -1913.0808    
     50000   296.88585     -1308.5578      21221.515      0.92913054    -3590.7487     -2048.2629    
     51000   291.26011      565.2189       21242.379      0.92821797    -3578.7215     -2065.4645    
     52000   293.73547      831.46354      20958.974      0.94076925    -3574.5164     -2048.3986    
     53000   289.19159     -80.877611      20989.661      0.93939382    -3597.3546     -2094.8447    
     54000   294.89457      1412.2618      20869.204      0.944816      -3559.8882     -2027.7481    
     55000   296.55497      141.70598      21081.375      0.93530703    -3554.6933     -2013.9266    
     56000   300.15985     -778.11836      21002.174      0.93883414    -3606.5871     -2047.091     
     57000   305.86182     -738.26171      21049.69       0.9367149     -3574.8477     -1985.7267    
     58000   309.01857     -749.26004      21049.5        0.93672332    -3604.9209     -1999.3989    
     59000   305.10455      974.88129      20921.447      0.94245669    -3601.6248     -2016.4383    
     60000   295.40228     -81.355409      20942.086      0.94152788    -3596.7805     -2062.0026    
     61000   300.38987     -271.94174      20840.904      0.94609899    -3549.5896     -1988.8985    
     62000   298.31768     -135.62487      20963.836      0.94055105    -3578.597      -2028.672     
     63000   287.17285      1629.4453      20989.901      0.93938307    -3614.4416     -2122.4202    
     64000   300.22696      1776.6508      20754.347      0.95004471    -3604.9887     -2045.1439    
     65000   289.93651      1365.8068      20616.288      0.95640678    -3655.8157     -2149.4354    
     66000   298.53399     -21.13846       20967.672      0.94037899    -3644.6381     -2093.5893    
     67000   306.87087      876.35678      20615.29       0.95645311    -3656.2093     -2061.8457    
     68000   308.39878     -230.01948      20806.683      0.94765504    -3561.7013     -1959.3994    
     69000   299.66843      408.62883      20852.314      0.94558128    -3603.891      -2046.9481    
     70000   304.75287      385.20588      20590.167      0.95762012    -3608.1575     -2024.7981    
     71000   298.81079     -597.94788      20802.774      0.94783309    -3633.0693     -2080.5823    
     72000   303.27367      2271.9622      20775.267      0.94908807    -3569.2389     -1993.5648    
     73000   297.01734     -475.51186      20443.159      0.96450641    -3615.6464     -2072.4773    
     74000   295.28442     -204.74186      20670.06       0.95391874    -3612.6311     -2078.4656    
     75000   308.73569     -1836.2167      20828.479      0.94666336    -3618.0975     -2014.0452    
     76000   303.41174      498.59548      20841.65       0.94606513    -3611.4366     -2035.0452    
     77000   297.55782     -994.68652      20700.365      0.95252225    -3614.3311     -2068.354     
     78000   297.92887     -833.92394      20665.704      0.95411982    -3576.9105     -2029.0056    
     79000   303.78992     -367.175        20732.333      0.95105352    -3656.9305     -2078.5742    
     80000   292.18782      668.75421      20837.969      0.94623224    -3611.2151     -2093.1381    
     81000   303.57731     -1567.0596      20937.809      0.9417202     -3593.0015     -2015.7498    
     82000   296.74179      641.54762      20644.359      0.95510634    -3604.6815     -2062.9442    
     83000   299.53286     -715.76882      20827.849      0.94669199    -3650.9536     -2094.7151    
     84000   303.29018      446.34341      20932.518      0.94195823    -3573.1752     -1997.4153    
     85000   302.45858      1045.9472      20614.624      0.95648402    -3657.576      -2086.1368    
     86000   293.7038       1084.4659      20724.524      0.95141184    -3617.8441     -2091.8907    
     87000   308.55206      293.98696      20605.502      0.95690743    -3628.5735     -2025.4753    
     88000   301.10687      1401.5255      20799.216      0.94799524    -3632.6472     -2068.2309    
     89000   298.93215     -1246.9924      20777.428      0.94898937    -3639.0315     -2085.914     
     90000   308.22831      351.95014      20713.746      0.95190693    -3577.1254     -1975.7092    
     91000   296.9845       1160.283       20728.686      0.95122085    -3614.7902     -2071.7918    
     92000   304.77719      1275.2168      20952.386      0.94106504    -3587.7794     -2004.2937    
     93000   301.40367      1192.0731      20637.906      0.95540496    -3641.0501     -2075.0917    
     94000   300.77586     -155.5931       21145.788      0.93245796    -3594.6236     -2031.927     
     95000   297.59084      527.83527      20879.808      0.94433616    -3618.6462     -2072.4975    
     96000   292.90442      138.40091      20940.233      0.94161118    -3658.1318     -2136.3316    
     97000   311.06356     -576.87849      21080.48       0.93534671    -3643.2422     -2027.0954    
     98000   302.47493     -5.8157189      20792.978      0.94827967    -3592.2578     -2020.7336    
     99000   295.94011      1885.1939      20851.947      0.94559793    -3669.1157     -2131.5435    
    100000   299.67303     -737.38119      20874.259      0.94458722    -3586.7251     -2029.7583    
    101000   284.35685     -1783.6417      20845.18       0.94590491    -3644.3793     -2166.9885    
    102000   306.86123      369.47206      20743.986      0.95051927    -3634.1715     -2039.858     
    103000   299.13656      374.08523      21068.285      0.93588814    -3561.1952     -2007.0157    
    104000   300.0356       476.1181       20746.548      0.95040186    -3624.8703     -2066.0198    
    105000   289.48726     -809.44022      20697.11       0.95267206    -3623.8164     -2119.7703    
    106000   299.89344      1237.853       20959.687      0.94073722    -3635.707      -2077.595     
    107000   302.29131     -102.77967      20949.613      0.94118961    -3614.8345     -2044.2643    
    108000   290.63927     -2177.4394      20611.028      0.95665087    -3625.511      -2115.4796    
    109000   295.5806       687.00099      20459.968      0.963714      -3646.5443     -2110.8399    
    110000   304.34812      450.05664      20628.136      0.95585746    -3630.5036     -2049.2472    
    111000   296.295       -175.68308      20589.366      0.95765737    -3607.2523     -2067.8362    
    112000   300.7435      -131.06539      20773.982      0.94914676    -3629.9738     -2067.4454    
    113000   307.54973      277.03773      20728.95       0.95120873    -3592.1834     -1994.2928    
    114000   298.30753     -667.42411      21073.313      0.93566483    -3580.6951     -2030.8229    
    115000   287.97102      1264.1279      20708.316      0.95215651    -3706.5654     -2210.397     
    116000   308.22234     -1479.4305      20719.569      0.95163941    -3649.1772     -2047.792     
    117000   295.0393      -1500.3298      20726.835      0.95130578    -3663.3943     -2130.5022    
    118000   300.14278     -512.10812      20801.855      0.94787497    -3634.4694     -2075.062     
    119000   300.86463     -325.38069      20952.587      0.94105603    -3626.6979     -2063.5401    
    120000   310.33679     -537.51643      20705.589      0.95228191    -3593.6401     -1981.2692    
Loop time of 5142.9 on 2 procs for 100000 steps with 2208 atoms

Performance: 1.680 ns/day, 14.286 hours/ns, 19.444 timesteps/s, 42.933 katom-step/s
97.8% CPU use with 2 MPI tasks x 1 OpenMP threads

MPI task timing breakdown:
Section |  min time  |  avg time  |  max time  |%varavg| %total
---------------------------------------------------------------
Pair    | 2731.5     | 2766.4     | 2801.2     |  66.2 | 53.79
Bond    | 247.79     | 249.41     | 251.02     |  10.2 |  4.85
Kspace  | 1234.1     | 1265.5     | 1296.9     |  88.3 | 24.61
Neigh   | 200.46     | 201.95     | 203.45     |  10.5 |  3.93
Comm    | 215.97     | 217.25     | 218.53     |   8.7 |  4.22
Output  | 0.13493    | 0.19152    | 0.24812    |  12.9 |  0.00
Modify  | 366.52     | 368.3      | 370.08     |   9.3 |  7.16
Other   |            | 73.98      |            |       |  1.44

Nlocal:           1104 ave        1113 max        1095 min
Histogram: 1 0 0 0 0 0 0 0 0 1
Nghost:         9514.5 ave        9521 max        9508 min
Histogram: 1 0 0 0 0 0 0 0 0 1
Neighs:         426454 ave      426547 max      426360 min
Histogram: 1 0 0 0 0 0 0 0 0 1

Total # of neighbors = 852907
Ave neighs/atom = 386.28034
Ave special neighs/atom = 10.173913
Neighbor list builds = 2898
Dangerous builds = 0
unfix NPTEQ
write_data data.after_equilibration.lmp
System init for write_data ...
PPPM initialization ...
  using 12-bit tables for long-range coulomb
  G vector (1/distance) = 0.27381527
  grid = 16 16 16
  stencil order = 5
  estimated absolute RMS force accuracy = 0.0034698886
  estimated relative force accuracy = 1.0449466e-05
  using double precision FFTW3
  3d grid and FFT values/proc = 7935 2048
Generated 91 of 91 mixed pair_coeff terms from geometric mixing rule

# --- 4. NPT production - this is the trajectory you analyse ----------------
print "RENEU >>> stage 4 of 4: NPT production"
RENEU >>> stage 4 of 4: NPT production
reset_timestep 0
fix NPTPROD all npt temp ${TK} ${TK} 100 iso ${PBAR} ${PBAR} 1000
fix NPTPROD all npt temp 300 ${TK} 100 iso ${PBAR} ${PBAR} 1000
fix NPTPROD all npt temp 300 300 100 iso ${PBAR} ${PBAR} 1000
fix NPTPROD all npt temp 300 300 100 iso 1 ${PBAR} 1000
fix NPTPROD all npt temp 300 300 100 iso 1 1 1000
fix DENSAVG all ave/time 10 100 1000 v_dens v_vol file density.dat

dump TRAJ all custom 500 dump.lammpstrj id mol type element q xu yu zu
dump_modify TRAJ element N C C H C O H H C C O C H C

run ${PRODRUN}
run 200000
PPPM initialization ...
  using 12-bit tables for long-range coulomb
  G vector (1/distance) = 0.27381527
  grid = 16 16 16
  stencil order = 5
  estimated absolute RMS force accuracy = 0.0034698886
  estimated relative force accuracy = 1.0449466e-05
  using double precision FFTW3
  3d grid and FFT values/proc = 7935 2048
Generated 91 of 91 mixed pair_coeff terms from geometric mixing rule
Per MPI rank memory allocation (min/avg/max) = 15.77 | 15.77 | 15.77 Mbytes
   Step          Temp          Press          Volume         v_dens         PotEng         TotEng    
         0   310.33679     -507.99049      20705.589      0.95228191    -3593.6404     -1981.2695    
      1000   295.91904      431.26895      20992.711      0.93925733    -3632.3185     -2094.8558    
      2000   295.70008     -2008.4869      20707.823      0.95217916    -3681.9797     -2145.6546    
      3000   300.91657      941.62985      20570.394      0.95854061    -3585.6442     -2022.2165    
      4000   295.09653      1166.0313      20469.146      0.96328193    -3657.8969     -2124.7076    
      5000   298.17237     -1505.6332      20663.585      0.95421768    -3664.7038     -2115.5338    
      6000   300.13561     -14.037717      20991.092      0.93932981    -3621.6106     -2062.2404    
      7000   311.01751     -1225.2501      20830.439      0.94657427    -3632.5457     -2016.638     
      8000   294.47929      501.97019      20572.871      0.95842521    -3580.3423     -2050.3599    
      9000   304.95782      538.60673      20675.786      0.9536546     -3660.1025     -2075.6783    
     10000   303.21746      126.51943      20746.999      0.9503812     -3628.4701     -2053.088     
     11000   295.12415     -889.00861      20785.244      0.94863249    -3677.6975     -2144.3646    
     12000   302.75834     -1904.7095      20781.721      0.94879332    -3609.0573     -2036.0607    
     13000   291.98624     -1139.8875      20652.311      0.95473859    -3676.6606     -2159.631     
     14000   303.94917      908.42182      20422.519      0.96548119    -3646.0246     -2066.8409    
     15000   302.08116     -424.64565      20553.447      0.95933098    -3629.8959     -2060.4175    
     16000   299.92612     -2232.3273      20613.351      0.95654308    -3577.867      -2019.5853    
     17000   288.82457      1303.2833      20246.344      0.97388239    -3627.0157     -2126.4126    
     18000   301.82863      990.14632      20392.789      0.96688872    -3661.8795     -2093.7132    
     19000   303.75725     -1503.5714      20348.306      0.96900242    -3613.5597     -2035.3731    
     20000   304.50635      499.35294      20453.148      0.96403535    -3674.5554     -2092.4768    
     21000   301.41054     -458.23141      20426.655      0.96528571    -3592.8129     -2026.8188    
     22000   300.06079      34.829092      20446.493      0.96434916    -3617.1508     -2058.1694    
     23000   299.04793     -2336.0458      20224.64       0.9749275     -3634.9649     -2081.2459    
     24000   297.74332      977.79185      20445.104      0.96441467    -3627.7477     -2080.8069    
     25000   299.91393     -734.84037      20601.008      0.95711615    -3562.6918     -2004.4734    
     26000   292.78875     -602.39988      20366.2        0.96815105    -3664.6158     -2143.4166    
     27000   305.00793      433.04996      20590.821      0.9575897     -3553.7748     -1969.0903    
     28000   299.18301      411.03955      20476.295      0.96294561    -3638.4378     -2084.0169    
     29000   297.85703      1341.7605      20214.67       0.97540838    -3620.0654     -2072.5337    
     30000   297.93346      155.31069      20474.772      0.96301721    -3620.3627     -2072.4339    
     31000   297.35211      1407.1242      20472.458      0.96312607    -3618.4598     -2073.5515    
     32000   302.09213     -397.31949      20443.507      0.96448999    -3602.5011     -2032.9658    
     33000   297.09617     -424.52373      20532.173      0.96032493    -3588.63       -2045.0514    
     34000   299.37883      2943.2504      20364.079      0.96825187    -3610.7604     -2055.3222    
     35000   293.09498      249.61531      20442.539      0.96453568    -3625.158      -2102.3678    
     36000   306.14873      2097.8748      20494.133      0.96210742    -3685.3072     -2094.6956    
     37000   294.9626       447.10458      20324.535      0.97013577    -3655.7675     -2123.274     
     38000   292.87039     -750.48002      20447.248      0.96431352    -3675.7275     -2154.1042    
     39000   308.82978     -1305.3079      20441.679      0.96457626    -3635.4769     -2030.9357    
     40000   299.06217     -815.07111      20408.735      0.96613329    -3700.0824     -2146.2894    
     41000   297.28199      202.58081      20419.928      0.9656037     -3607.3739     -2062.8299    
     42000   310.49143     -759.15511      20225.121      0.97490432    -3673.6364     -2060.4621    
     43000   294.1282       1778.8286      20205.086      0.97587102    -3675.7981     -2147.6398    
     44000   300.93194      504.32263      20326.304      0.97005133    -3650.5083     -2087.0008    
     45000   307.17384     -138.09535      20221.484      0.97507968    -3643.5347     -2047.5971    
     46000   297.35505      706.03963      20319.193      0.97039081    -3665.7809     -2120.8573    
     47000   305.86363      1746.6868      20331.928      0.96978299    -3655.0562     -2065.9258    
     48000   302.39818     -1444.5222      20390.937      0.96697655    -3647.6691     -2076.5436    
     49000   305.16262      369.64481      20375.574      0.96770564    -3684.9186     -2099.4304    
     50000   294.30135      527.84193      20285.524      0.97200143    -3665.8497     -2136.7917    
     51000   292.00336     -974.09324      20429.378      0.96515706    -3587.9177     -2070.799     
     52000   296.65848      2968.7783      20308.949      0.97088029    -3650.6114     -2109.3069    
     53000   296.33947     -72.563864      20455.793      0.96391073    -3655.2453     -2115.5982    
     54000   308.74368      707.60551      20464.871      0.96348315    -3608.9465     -2004.8527    
     55000   295.76667     -650.43081      20519.75       0.96090635    -3613.165      -2076.4939    
     56000   292.60696      247.14053      20161.172      0.97799661    -3638.5068     -2118.2522    
     57000   308.34941     -137.91738      20528.26       0.960508      -3599.6767     -1997.6314    
     58000   304.46657     -146.52432      20444.151      0.96445962    -3635.1921     -2053.3203    
     59000   305.78767      1415.1784      20155.804      0.97825707    -3632.6373     -2043.9016    
     60000   300.45552      5.4264102      20231.225      0.97461019    -3698.1439     -2137.1117    
     61000   299.77179     -464.75999      20302.761      0.9711762     -3673.5658     -2116.086     
     62000   293.4382       1841.7887      20428.059      0.96521938    -3606.3137     -2081.7403    
     63000   301.0175       141.38515      20520.269      0.96088205    -3656.7187     -2092.7666    
     64000   308.33334      117.26946      20284.929      0.97202993    -3639.2582     -2037.2963    
     65000   308.96164     -1060.3911      20729.574      0.95118007    -3685.0986     -2079.8723    
     66000   298.12329      16.944137      20271.074      0.97269427    -3682.9059     -2133.9909    
     67000   298.71824     -1168.9416      20330.726      0.96984033    -3644.0135     -2092.0074    
     68000   294.83504      1118.5675      20270.225      0.97273502    -3641.7341     -2109.9034    
     69000   294.35177      1623.6159      20270.704      0.97271205    -3665.1928     -2135.8729    
     70000   299.33655     -2030.3516      20428.964      0.9651766     -3709.2521     -2154.0335    
     71000   302.98721     -703.82833      20153.479      0.97836994    -3658.0011     -2083.8153    
     72000   296.11757      1311.3847      20368.008      0.96806509    -3627.6799     -2089.1857    
     73000   292.84422     -656.89369      20339.262      0.96943333    -3639.9108     -2118.4234    
     74000   307.38372     -1632.9013      20334.445      0.96966296    -3641.0077     -2043.9796    
     75000   299.47602      80.683399      20400.325      0.96653158    -3684.0092     -2128.066     
     76000   300.39242     -609.74281      20123.667      0.97981936    -3703.4998     -2142.7954    
     77000   299.08857      1536.86        20361.756      0.96836234    -3599.3503     -2045.4201    
     78000   303.68118     -289.62966      20297.274      0.97143873    -3682.3511     -2104.5598    
     79000   297.44454      443.17396      20364.745      0.96822021    -3696.443      -2151.0545    
     80000   312.53907      1062.0354      20166.264      0.97774966    -3682.1901     -2058.3771    
     81000   291.991       -227.50899      20229.516      0.9746925     -3656.2165     -2139.1621    
     82000   298.62813     -102.0153       20219.717      0.97516487    -3640.9093     -2089.3714    
     83000   292.07968      1246.2272      20447.838      0.96428572    -3682.514      -2164.9988    
     84000   293.63351     -1149.3782      20377.835      0.96759829    -3600.6838     -2075.0956    
     85000   291.45712     -604.7335       20416.814      0.96575095    -3654.0689     -2139.7883    
     86000   297.80057      350.92621      20421.77       0.96551658    -3677.735      -2130.4967    
     87000   304.01447      1073.9467      20694.622      0.95278658    -3660.3879     -2080.8649    
     88000   301.00996     -1934.2222      20409.46       0.96609893    -3619.5082     -2055.5953    
     89000   303.51739      772.15245      20427.508      0.96524539    -3653.6199     -2076.6795    
     90000   304.11666      456.20511      20261.587      0.97314972    -3703.9209     -2123.867     
     91000   298.01357      431.87476      20438.023      0.96474879    -3662.8977     -2114.5527    
     92000   312.24404      204.53229      20352.837      0.96878669    -3647.9758     -2025.6957    
     93000   304.00657     -204.35628      20360.074      0.96844236    -3670.6096     -2091.1277    
     94000   310.531        600.18494      20225.187      0.97490117    -3629.2014     -2015.8214    
     95000   298.13792      652.4066       20310.544      0.97080403    -3665.6241     -2116.633     
     96000   315.00083      513.4902       20231.715      0.97458656    -3689.2614     -2052.6583    
     97000   310.06838      1147.7068      20127.912      0.97961271    -3650.3645     -2039.3881    
     98000   300.53908     -339.56596      20417.334      0.96572637    -3659.573      -2098.1066    
     99000   298.46922      296.82296      20237.632      0.97430165    -3672.282      -2121.5696    
    100000   295.07681     -1333.0038      20397.294      0.96667521    -3631.5454     -2098.4585    
    101000   289.12448      47.804924      20271.283      0.97268426    -3749.3013     -2247.1401    
    102000   309.08311      1239.51        19987.471      0.98649589    -3707.7104     -2101.853     
    103000   303.30829     -66.62178       20069.246      0.98247628    -3682.441      -2106.5871    
    104000   300.46928     -1497.4977      20266.499      0.97291389    -3703.1527     -2142.049     
    105000   309.54847      1996.1005      20097.058      0.98111665    -3668.789      -2060.5138    
    106000   306.15133     -578.46758      20524.199      0.96069806    -3609.6765     -2019.0514    
    107000   303.61255     -978.66563      20341.078      0.96934673    -3690.7438     -2113.309     
    108000   308.89533     -642.79419      20331.237      0.96981597    -3634.4699     -2029.5881    
    109000   309.04716      1232.8817      20330.971      0.96982866    -3698.2412     -2092.5707    
    110000   306.79588      302.41025      20417.567      0.96571537    -3652.4896     -2058.5157    
    111000   292.28671     -502.98966      20428.825      0.96518316    -3655.0809     -2136.4901    
    112000   304.86573      829.35189      20496.12       0.96201417    -3585.3305     -2001.3848    
    113000   304.23858      2135.2723      20285.311      0.9720116     -3657.2759     -2076.5886    
    114000   297.46236     -213.01487      20206.516      0.97580198    -3685.6728     -2140.1917    
    115000   308.71027      70.313958      20234.378      0.97445832    -3657.7164     -2053.7962    
    116000   303.59787      222.08985      20520.486      0.96087186    -3725.2582     -2147.8997    
    117000   314.0357       943.34992      20245.512      0.97392241    -3682.4256     -2050.8368    
    118000   296.06621      1511.3895      20295.185      0.97153873    -3650.079      -2111.8516    
    119000   297.28791     -235.00133      20302.554      0.97118609    -3670.7265     -2126.1517    
    120000   297.3957       175.24821      20350.331      0.96890603    -3703.9017     -2158.7669    
    121000   295.40798     -1023.0795      20491.31       0.96224       -3613.7807     -2078.9732    
    122000   295.26894      43.546573      20702.187      0.95243842    -3645.5273     -2111.4422    
    123000   312.09152      841.28531      20531.262      0.96036756    -3696.7703     -2075.2826    
    124000   300.30156      502.22981      20320.158      0.9703447     -3677.9453     -2117.7129    
    125000   296.29708      519.80302      20592.754      0.95749979    -3675.3187     -2135.8919    
    126000   300.36421      2999.3756      20384.374      0.96728788    -3611.0833     -2050.5255    
    127000   304.7326       198.40617      20249.186      0.97374571    -3672.8296     -2089.5755    
    128000   301.20921      2499.623       20466.597      0.96340189    -3695.8021     -2130.8541    
    129000   297.22081     -179.46041      20308.029      0.97092425    -3674.4127     -2130.1866    
    130000   301.71037      1867.637       20202.986      0.97597246    -3696.2493     -2128.6973    
    131000   303.89653     -244.41012      20004.313      0.98566534    -3633.1338     -2054.2236    
    132000   302.06785     -638.64554      20011.682      0.98530237    -3678.2833     -2108.8741    
    133000   289.91605      450.30698      20279.882      0.97227184    -3701.7255     -2195.4516    
    134000   296.67487     -1365.8823      20239.343      0.97421926    -3643.2143     -2101.8246    
    135000   294.53604     -1084.2435      20260.615      0.97319641    -3697.5795     -2167.3022    
    136000   289.83707      1306.0535      20191.429      0.97653106    -3671.2197     -2165.3562    
    137000   305.05668      1633.0997      20155.337      0.97827973    -3713.4773     -2128.5395    
    138000   308.03404     -116.20525      20088.211      0.98154873    -3677.8812     -2077.4743    
    139000   295.15614     -390.9418       20248.527      0.9737774     -3683.9495     -2150.4504    
    140000   301.20577     -587.15577      20185.138      0.97683541    -3702.7023     -2137.7721    
    141000   306.88473      1888.6315      20231.852      0.97457997    -3693.0738     -2098.6383    
    142000   287.44478     -1148.4627      20183.811      0.97689964    -3662.4609     -2169.0266    
    143000   295.0642       882.89115      20154.06       0.97834176    -3667.3211     -2134.2997    
    144000   298.38823     -518.85736      20276.547      0.97243174    -3672.0981     -2121.8065    
    145000   295.26428      1452.4413      20373.494      0.96780443    -3658.4017     -2124.3408    
    146000   292.47341      476.00562      20274.854      0.97251293    -3709.8497     -2190.2889    
    147000   307.73897      860.27435      20354.352      0.96871459    -3695.0835     -2096.2097    
    148000   296.74938     -713.50033      20395.607      0.96675516    -3756.5036     -2214.7268    
    149000   297.36685     -274.67012      20258.804      0.9732834     -3668.9773     -2123.9924    
    150000   296.88586     -1526.8022      20066.717      0.98260009    -3697.513      -2155.0271    
    151000   300.10541     -157.93713      20234.571      0.97444903    -3669.736      -2110.5228    
    152000   301.67751     -534.86949      20020.177      0.98488432    -3722.1049     -2154.7238    
    153000   295.07736      1260.8191      20223.378      0.97498834    -3709.5415     -2176.4518    
    154000   300.41406     -1812.2512      20146.909      0.97868897    -3680.2288     -2119.4119    
    155000   293.77863      2738.8103      19919.817      0.98984636    -3666.3104     -2139.9683    
    156000   298.91443     -673.05304      20224.89       0.97491546    -3705.948      -2152.9226    
    157000   311.04779     -529.75454      20128.946      0.97956238    -3654.363      -2038.2981    
    158000   291.37081      47.670879      20130.335      0.97949476    -3657.6983     -2143.8661    
    159000   307.13829     -1296.4311      20191.377      0.97653359    -3665.7826     -2070.0296    
    160000   295.99628     -2028.4111      20328.964      0.9699244     -3692.1171     -2154.2531    
    161000   298.17208      437.11315      20168.258      0.97765302    -3732.8252     -2183.6567    
    162000   309.29629     -1746.2811      20278.829      0.97232233    -3728.2205     -2121.2555    
    163000   301.14133      572.36416      20288.838      0.97184266    -3644.2943     -2079.6989    
    164000   301.82904     -630.28318      20156.051      0.97824509    -3687.6235     -2119.4551    
    165000   293.50498      417.38431      20183.46       0.97691663    -3703.3906     -2178.4702    
    166000   309.29084     -1907.3547      20339.568      0.96941874    -3649.5926     -2042.656     
    167000   300.24116      746.64663      20111.866      0.98039426    -3712.4671     -2152.5486    
    168000   290.12822      1076.523       19973.228      0.98719936    -3722.8138     -2215.4375    
    169000   288.34177     -645.59139      20043.576      0.98373454    -3683.4275     -2185.3329    
    170000   297.21551      822.75554      20257.454      0.97334829    -3704.2189     -2160.0203    
    171000   295.10862     -9.1801558      20077.34       0.98208022    -3749.88       -2216.6278    
    172000   302.02671     -546.23591      19920.456      0.98981459    -3699.843      -2130.6475    
    173000   303.67657     -213.94089      20167.666      0.97768168    -3736.387      -2158.6196    
    174000   291.46972      699.63577      20356.057      0.96863348    -3665.7098     -2151.3637    
    175000   315.78355      1548.1337      20139.025      0.97907212    -3669.619      -2028.9492    
    176000   285.75147      1818.5794      19925.18       0.98957994    -3655.4396     -2170.803     
    177000   310.31885      596.59096      19920.959      0.98978961    -3652.4513     -2040.1736    
    178000   299.19046     -2323.2551      20105.469      0.9807062     -3723.5029     -2169.0433    
    179000   297.35496     -1323.1025      20241.353      0.97412252    -3691.4433     -2146.5201    
    180000   304.0401      -1058.0084      20139.954      0.97902696    -3693.985      -2114.3289    
    181000   293.33103     -452.26475      19926.904      0.98949432    -3709.2005     -2185.1839    
    182000   303.53337     -374.9938       19976.861      0.98701983    -3661.9893     -2084.9659    
    183000   302.93058      603.75617      19963.078      0.98770131    -3710.5197     -2136.6281    
    184000   283.00647     -1516.9759      20188.375      0.9766788     -3730.8019     -2260.4271    
    185000   293.48811      156.83451      20090.071      0.98145786    -3671.991      -2147.1583    
    186000   309.00174     -2506.1447      20265.993      0.97293814    -3645.5417     -2040.1072    
    187000   296.6305      -468.78017      20093.051      0.9813123     -3692.5956     -2151.4364    
    188000   303.68594      511.61478      19960.033      0.98785198    -3677.5617     -2099.7456    
    189000   301.75332      1149.9856      20007.75       0.98549602    -3682.8681     -2115.0931    
    190000   297.29091     -161.93517      20165.377      0.9777927     -3695.9673     -2151.377     
    191000   296.14094     -281.32648      20261.646      0.97314692    -3627.8373     -2089.2217    
    192000   301.09783     -987.00182      20281.528      0.97219292    -3718.1756     -2153.8061    
    193000   296.094        1158.7367      20105.367      0.98071116    -3658.1395     -2119.7678    
    194000   308.36272      802.35667      20045.639      0.98363332    -3745.548      -2143.4335    
    195000   303.07526     -757.75138      20138.299      0.97910743    -3708.9847     -2134.3415    
    196000   297.18         547.23999      20224.882      0.97491585    -3675.7647     -2131.7505    
    197000   302.91419      789.80115      19837.675      0.99394502    -3687.4308     -2113.6244    
    198000   299.46663     -2099.6383      20021.574      0.9848156     -3733.9804     -2178.086     
    199000   307.81231      922.70051      20204.035      0.97592177    -3656.2264     -2056.9716    
    200000   297.50979      377.20062      19951.039      0.9882973     -3638.4945     -2092.767     
Loop time of 10323.2 on 2 procs for 200000 steps with 2208 atoms

Performance: 1.674 ns/day, 14.338 hours/ns, 19.374 timesteps/s, 42.777 katom-step/s
97.9% CPU use with 2 MPI tasks x 1 OpenMP threads

MPI task timing breakdown:
Section |  min time  |  avg time  |  max time  |%varavg| %total
---------------------------------------------------------------
Pair    | 5985.5     | 6007.7     | 6029.8     |  28.6 | 58.20
Bond    | 497.71     | 499.98     | 502.24     |  10.1 |  4.84
Kspace  | 2212.7     | 2237.7     | 2262.7     |  52.9 | 21.68
Neigh   | 408.64     | 408.78     | 408.93     |   0.7 |  3.96
Comm    | 404.19     | 405.01     | 405.83     |   4.1 |  3.92
Output  | 10.076     | 10.232     | 10.388     |   4.9 |  0.10
Modify  | 634.71     | 634.88     | 635.06     |   0.7 |  6.15
Other   |            | 119        |            |       |  1.15

Nlocal:           1104 ave        1107 max        1101 min
Histogram: 1 0 0 0 0 0 0 0 0 1
Nghost:           9748 ave        9772 max        9724 min
Histogram: 1 0 0 0 0 0 0 0 0 1
Neighs:         442258 ave      445655 max      438861 min
Histogram: 1 0 0 0 0 0 0 0 0 1

Total # of neighbors = 884516
Ave neighs/atom = 400.59601
Ave special neighs/atom = 10.173913
Neighbor list builds = 5720
Dangerous builds = 0

write_data data.final.lmp
System init for write_data ...
PPPM initialization ...
  using 12-bit tables for long-range coulomb
  G vector (1/distance) = 0.27483095
  grid = 16 16 16
  stencil order = 5
  estimated absolute RMS force accuracy = 0.0033430585
  estimated relative force accuracy = 1.0067521e-05
  using double precision FFTW3
  3d grid and FFT values/proc = 7935 2048
Generated 91 of 91 mixed pair_coeff terms from geometric mixing rule
print "RENEU >>> finished. trajectory = dump.lammpstrj, density log = density.dat"
RENEU >>> finished. trajectory = dump.lammpstrj, density log = density.dat
Total wall time: 4:32:30
