        1576
  Built with Packmol                                             
  N            1.500000        1.500000        1.500000
  C           15.436623       12.735431       16.744452
  C           16.778906       13.469003       16.680355
  O           15.476891       11.474074       16.743929
  O           14.433264       13.502775       16.790828
  C           17.989924       12.545469       16.624693
  H           16.852387       14.117953       17.561759
  H           16.769177       14.116227       15.794682
  C           19.296824       13.330838       16.562363
  H           17.915729       11.892062       15.746649
  H           17.998417       11.893962       17.507232
  C           20.488815       12.378020       16.507356
  H           19.382393       13.981100       17.441706
  H           19.299464       13.979295       15.677543
  C           21.803576       13.148151       16.444672
  H           20.399948       11.727033       15.628876
  H           20.482821       11.729052       17.391784
  C           22.995441       12.196669       16.391635
  H           21.890441       13.799975       17.322732
  H           21.808554       13.795923       15.559362
  C           24.301569       12.967532       16.327393
  H           22.914207       11.544811       15.514310
  H           22.997308       11.550846       17.277143
  H           25.149329       12.277081       16.289768
  H           24.336679       13.600549       15.435826
  H           24.420236       13.606544       17.207402
  C           19.062967        6.910422       15.242160
  C           17.652810        6.474307       14.835685
  O           19.817824        7.326459       14.320342
  O           19.299852        6.796395       16.478517
  C           17.365177        6.611353       13.345362
  H           16.934737        7.077277       15.405076
  H           17.520387        5.429012       15.141024
  C           15.947963        6.163093       13.000049
  H           18.085542        6.013089       12.773904
  H           17.502089        7.655258       13.037262
  C           15.692131        6.312378       11.502052
  H           15.220920        6.762510       13.561758
  H           15.805550        5.116976       13.297985
  C           14.278790        5.868097       11.140514
  H           16.421759        5.714336       10.942233
  H           15.837408        7.358627       11.205969
  C           14.021635        6.018796        9.643906
  H           13.550218        6.465662       11.702214
  H           14.135254        4.821518       11.436281
  C           12.614562        5.573655        9.288489
  H           14.745927        5.421380        9.078475
  H           14.158938        7.064240        9.344889
  H           12.440118        5.685497        8.214293
  H           12.460203        4.523177        9.552125
  H           11.870315        6.174204        9.819780
  C           19.240879       17.518113       10.140652
  C           18.547003       17.530921        8.775979
  O           19.523023       16.387423       10.624985
  O           19.448869       18.668098       10.622286
  C           18.295634       16.145258        8.193460
  H           19.169990       18.112113        8.084956
  H           17.593438       18.062003        8.885869
  C           17.603396       16.220430        6.835582
  H           17.676993       15.560640        8.885497
  H           19.247784       15.610825        8.087630
  C           17.366072       14.817927        6.280251
  H           18.220031       16.796997        6.135054
  H           16.646049       16.746830        6.934562
  C           16.674383       14.875958        4.922376
  H           16.751530       14.242313        6.983399
  H           18.324341       14.292632        6.184368
  C           16.438578       13.474789        4.365783
  H           17.289036       15.453228        4.220686
  H           15.715943       15.400632        5.019940
  C           15.748279       13.537443        3.015268
  H           15.822656       12.894879        5.062605
  H           17.394377       12.948626        4.261776
  H           15.583859       12.528762        2.624931
  H           14.777226       14.034647        3.096989
  H           16.356743       14.088578        2.292180
  H           11.595211       19.524763       19.380177
  O           12.461721       19.856637       19.753031
  H           13.151866       19.136237       19.684311
  H           14.114999        9.073242       22.543087
  O           13.318531        8.653019       22.977887
  H           13.482464        7.673953       23.098527
  H           10.845347       20.910161       13.615002
  O            9.880495       21.027306       13.379759
  H            9.315438       20.511199       14.023454
  H           11.500916        8.249061       19.112978
  O           11.169255        9.039197       19.628425
  H           10.169922        9.060778       19.598977
  H           16.698665        4.791247        4.578167
  O           16.936378        3.831286        4.429949
  H           16.347330        3.251321        4.992676
  H            2.813927       11.050482       18.141285
  O            3.093692       10.801299       19.068452
  H            2.457452       11.202117       19.727651
  H           23.433982       13.780777       19.164054
  O           23.508986       12.788777       19.265589
  H           24.473925       12.530544       19.312583
  H            9.363260       16.663300       10.189563
  O            9.911500       17.234046       10.800858
  H           10.853534       17.270393       10.467315
  H           14.996285        9.551036        2.289802
  O           15.949762        9.771133        2.083796
  H           15.985975       10.582217        1.499990
  H            9.911129       23.703918        1.820259
  O           10.116643       22.848316        2.295347
  H            9.267225       22.441097        2.630996
  H           24.547659        3.631642        9.014171
  O           25.050012        2.901148        9.476793
  H           24.464452        2.481347       10.170252
  H           21.616523       12.157717       11.303444
  O           20.951470       12.664477       11.851986
  H           20.030015       12.334022       11.647732
  H           12.039992       22.617747       14.755374
  O           12.233619       22.948807       15.678904
  H           11.661705       22.457528       16.335834
  H            3.730176       16.928398       15.380821
  O            4.700734       16.961186       15.142194
  H            4.799493       17.229550       14.183953
  H           19.160034        1.666486        5.405897
  O           18.875867        2.611062        5.241503
  H           19.665006        3.217879        5.336543
  H           15.903474       11.134894       23.416735
  O           15.556121       11.971336       22.992811
  H           14.560909       12.003343       23.085160
  H           12.358002       11.339527       20.837916
  O           12.753751       10.691046       21.488189
  H           12.482719        9.761392       21.238618
  H            5.202865       24.427501       17.663303
  O            5.318733       23.434721       17.632285
  H            5.439172       23.084024       18.560997
  H            4.007407       18.547118        4.362889
  O            4.974225       18.699098        4.157550
  H            5.055623       19.292111        3.356483
  H            7.469394        7.328668       15.316225
  O            6.768066        7.987704       15.587908
  H            5.871156        7.662548       15.288200
  H            4.264872       23.429888        8.945787
  O            3.560189       24.065366        9.261367
  H            3.768176       24.356835       10.195062
  H            1.658247        4.277683       25.049986
  O            2.377650        3.583090       25.049997
  H            3.272310        4.029839       25.050035
  H           11.766941       11.992255       13.865851
  O           12.428082       11.505479       13.294937
  H           13.208960       12.101334       13.107360
  H           12.701759       16.212766       17.241160
  O           12.389073       15.327605       17.585713
  H           11.428295       15.395143       17.854680
  H           15.227521       25.049988        4.484970
  O           16.225138       25.005988        4.431835
  H           16.505562       24.076058        4.193941
  H            7.373841       13.992672       14.839056
  O            6.454983       14.346335       14.664066
  H            6.064304       13.880826       13.869918
  H            1.540607       21.558203       10.581677
  O            1.985838       22.369435       10.202638
  H            2.262574       22.187551        9.259062
  H           17.717689        3.769786       17.589176
  O           17.832350        3.953616       18.565423
  H           18.535415        4.653291       18.692519
  H           10.745371        6.181996       19.063830
  O           10.167389        5.368534       19.128755
  H            9.206220        5.643544       19.151630
  H            9.777688       20.560499       17.684393
  O           10.361153       19.787986       17.433809
  H            9.883310       18.931831       17.630443
  H           11.666141        1.710920       11.738142
  O           11.104882        1.642534       12.562953
  H           10.388484        2.339757       12.537381
  H            8.269548        4.089258       14.514857
  O            8.925685        4.614501       15.056710
  H            8.453970        5.370932       15.509808
  H           13.032542       16.422643        2.242619
  O           13.951575       16.235852        1.895507
  H           13.977985       15.318202        1.498998
  H            8.902143        7.529783       20.928053
  O            9.843916        7.230347       20.775082
  H            9.955877        6.296211       21.113986
  H           11.754255        5.645174       24.631989
  O           10.878278        5.436684       25.066956
  H           10.172493        6.044640       24.703283
  H           16.679403       20.687438       21.129415
  O           17.658267       20.712715       21.332362
  H           17.984088       21.656989       21.285598
  H            3.279482        4.778106        2.916206
  O            4.266173        4.875633        3.046315
  H            4.671631        3.975884        3.207734
  H           19.380143       20.209342        9.053849
  O           18.414764       20.066027        9.271802
  H           17.863462       20.202072        8.448662
  H            9.148623       13.644023       23.244401
  O            8.981353       14.393046       23.885482
  H            8.014664       14.403273       24.141231
  H            6.276001       22.604151        3.364626
  O            6.469229       22.488423        2.390321
  H            6.197642       21.569750        2.103476
  H           13.494241       23.477785       13.346552
  O           13.416225       23.794468       12.401235
  H           13.855948       23.135069       11.791451
  H            1.502654        9.156212       18.727138
  O            2.412321        8.743597       18.679652
  H            2.342041        7.825831       18.288800
  H            7.113718       22.614748       20.588452
  O            7.071153       23.154453       21.429229
  H            6.125851       23.432980       21.599017
  H            9.844408       15.764760       20.872228
  O            9.396232       15.322852       20.095148
  H            8.470173       15.049771       20.355612
  H            2.431106        6.976518       11.159663
  O            1.497312        6.634691       11.053921
  H            1.509738        5.635250       11.022896
  H           15.371010       24.945692       14.905722
  O           15.367422       24.346808       14.104894
  H           16.263285       23.912916       14.009148
  H           19.576671        8.974511       20.797347
  O           19.545996        8.088809       21.260587
  H           18.606790        7.745457       21.261440
  H            4.523715       15.126933        9.166596
  O            3.573897       14.836890        9.283732
  H            3.541788       13.846160        9.415726
  H            1.973210       15.993780       23.660534
  O            1.896852       16.979245       23.812286
  H            2.809988       17.370716       23.926004
  H           10.561562       25.051306       22.013118
  O            9.885347       24.512320       21.510896
  H            9.742448       24.915453       20.606981
  H            7.939042       24.108759       17.244719
  O            8.670804       24.343291       16.604781
  H            9.251213       25.051292       17.007097
  H            2.097199       11.780335        7.804578
  O            3.026083       12.149855        7.829698
  H            3.682728       11.397571        7.883420
  H           16.349656       21.467293       14.006281
  O           16.990621       21.928437       14.619886
  H           17.927460       21.746787       14.320996
  H            8.827711        5.170188        2.194619
  O            8.039900        4.571827        2.048610
  H            7.354656        5.050855        1.500000
  H            9.194057       16.247386       25.050003
  O           10.065148       16.551455       24.664333
  H           10.621656       15.754683       24.428853
  H           11.985701       16.771075        7.815554
  O           11.116080       16.277663        7.833013
  H           10.412420       16.856874        8.244567
  H           13.145768       14.462182       11.746423
  O           14.001412       13.945172       11.722492
  H           14.773217       14.579704       11.681426
  H            5.601769        9.263500       10.334183
  O            4.821914        8.640817       10.398148
  H            4.003187        9.156791       10.650051
  H           11.164348       13.435087       16.891216
  O           11.078577       12.813125       17.669553
  H           10.978484       13.344065       18.511030
  H           10.842350       16.843770       16.249207
  O           10.273066       16.079092       15.947243
  H           10.855101       15.295025       15.731665
  H           23.238872       23.748889       22.033260
  O           23.752098       23.801952       22.889872
  H           24.484875       23.121528       22.882094
  H           22.952494        2.444300       14.240449
  O           22.852486        2.433393       13.245522
  H           22.970040        1.499108       12.908934
  H           14.630557       10.148880       19.380054
  O           15.279322       10.466451       18.688496
  H           15.578666        9.691708       18.131571
  H           18.901375       24.092032       13.619502
  O           19.661669       23.484038       13.390818
  H           20.407122       24.018048       12.991905
  H           22.790628       13.794098       10.419256
  O           23.300405       14.440123       10.987393
  H           24.053282       13.963145       11.440899
  H            8.541427       16.894304       17.031660
  O            7.793427       16.286024       16.766158
  H            8.146018       15.564668       16.170066
  H            8.818851        9.725561       16.930004
  O            9.421530        9.029393       17.320041
  H           10.353879        9.387130       17.372473
  H           19.426576       20.694471       25.050722
  O           19.725887       19.740577       25.028375
  H           20.719845       19.705473       24.924380
  H           13.982256        7.965714        5.129275
  O           14.626992        7.320837        4.718850
  H           15.318006        7.064654        5.394771
  H           18.368574       15.929741       17.322366
  O           18.284824       15.837313       16.330175
  H           17.775316       16.616296       15.964680
  H           12.803848       18.995914       23.934948
  O           12.641561       18.017498       23.807020
  H           11.659782       17.833479       23.854430
  H            2.394180        9.951174       12.242777
  O            2.413000        8.955045       12.156907
  H            1.499999        8.587862       12.334685
  H           21.479345       13.950674        3.679520
  O           21.694748       13.212388        4.318688
  H           21.337463       12.348762        3.963024
  H           14.659580        6.067591        2.087780
  O           14.038084        5.292136        1.976363
  H           13.211883        5.592918        1.500000
  H            4.721063        6.318308        6.353195
  O            5.346320        5.636136        6.732269
  H            6.217248        6.071955        6.959305
  H            9.089658       10.638080        2.010948
  O            9.161515        9.679494        2.286539
  H           10.075743        9.337731        2.068860
  H           21.940068       25.050194       19.596931
  O           21.152156       24.545830       19.950217
  H           21.361961       23.568213       19.965917
  H            2.244711        6.527472        4.569376
  O            3.129101        6.150149        4.844115
  H            3.009557        5.202736        5.140962
  H           21.128534        4.651597       23.770888
  O           20.588678        3.928789       24.202287
  H           20.186154        4.274245       25.050010
  H           24.724569       11.571918        6.850581
  O           24.760209       10.804617        6.210285
  H           24.379046        9.989105        6.645780
  H           13.705741       22.462921       23.359278
  O           12.948410       21.981691       23.800718
  H           13.259640       21.596005       24.669269
  H            5.357358       21.431479       14.796414
  O            6.100779       22.100302       14.795468
  H            5.761894       22.974851       14.448593
  H            5.940975       15.287463       10.939031
  O            6.025896       14.291104       10.946509
  H            5.114798       13.878971       10.953378
  H           16.359400        6.965474        9.072177
  O           16.890092        7.794660        8.896631
  H           16.562224        8.531618        9.487728
  H           13.389108       25.053504       24.067823
  O           13.806885       24.526900       24.808195
  H           13.206240       23.767036       25.056855
  H           20.526552       11.184546        8.999331
  O           21.493109       10.941826        9.082123
  H           22.038707       11.774266        9.178897
  H           20.868441        3.419887        7.849516
  O           21.856660        3.440316        7.697842
  H           22.163978        4.389533        7.630433
  H            6.689529       13.478888        8.850593
  O            7.233003       14.273104        8.578829
  H            7.585453       14.134892        7.653261
  H           25.046509        8.011457       15.136097
  O           25.053869        7.266058       15.802675
  H           24.715342        6.429803       15.371310
  H            3.315331       17.909960        1.632254
  O            4.085217       18.540041        1.530899
  H            4.939178       18.020624        1.499969
  H           17.808230       13.123481       19.392763
  O           16.926394       12.669927       19.263712
  H           16.487251       12.536078       20.152102
  H           13.121851       20.403262       17.705078
  O           13.998235       20.497832       18.177314
  H           14.472618       21.310934       17.839932
  H            7.731228       19.305614       10.733685
  O            8.015635       18.350855       10.820563
  H            7.318949       17.757525       10.417341
  H            6.072931        7.471054       22.316833
  O            5.198735        7.956327       22.333942
  H            4.455273        7.309922       22.162408
  H            2.543643       17.760710        6.821210
  O            3.423314       18.206264        6.987526
  H            3.404563       19.132188        6.610282
  H           21.208687       17.140094        6.559863
  O           20.480731       17.789964        6.341343
  H           20.865435       18.710374        6.271720
  H           18.583817       17.578294       20.366779
  O           18.404502       17.973911       19.466038
  H           17.848444       17.340136       18.928330
  H            8.156917       11.890749       16.560805
  O            9.143349       11.915145       16.398456
  H            9.370047       12.715215       15.843032
  H           20.215047        6.275663       20.186977
  O           20.043707        5.290679       20.165750
  H           20.810792        4.828437       19.720876
  H           22.784377       20.782840        3.676973
  O           22.684257       19.787890        3.669986
  H           21.712808       19.550661        3.667118
  H           18.030585       21.448612       16.498198
  O           17.382272       20.732296       16.756231
  H           16.500218       21.146307       16.981119
  H            3.997877        3.038052        9.153737
  O            4.422068        3.391598        8.320030
  H            4.131499        4.337144        8.173365
  H           20.522058       22.953223        6.069980
  O           19.827617       23.663929        5.957511
  H           20.231184       24.558003        6.151843
  H           15.396342       18.812591       19.510330
  O           16.381071       18.807071       19.684336
  H           16.827052       19.482814       19.097419
  H            9.299693        4.242856       10.351350
  O            8.359423        4.219380       10.690968
  H            8.195615        3.350902       11.158849
  H           14.949426       11.401177        6.801073
  O           14.549677       10.651780        6.273242
  H           13.574363       10.580144        6.482118
  H           14.279031        8.376125       25.050088
  O           15.026783        7.841883       24.655815
  H           15.574949        8.426578       24.057780
  H           14.752287       16.230104       13.888912
  O           14.774223       17.072855       14.426770
  H           14.077125       17.703818       14.086271
  H           21.960605       15.028147        5.955918
  O           21.200259       14.707132        6.520563
  H           20.352840       15.143147        6.217626
  H           23.897293        7.270636       21.177322
  O           24.250626        6.905289       22.038529
  H           23.634817        7.157186       22.785073
  H           21.929065       15.426651       19.234985
  O           21.580475       14.733298       19.865656
  H           21.077440       14.038246       19.351986
  H           11.896942       17.556213       14.422601
  O           11.751161       16.592757       14.197878
  H           12.585941       16.076105       14.388171
  H           21.070697       20.690198       21.475415
  O           22.046504       20.857940       21.335190
  H           22.168946       21.716471       20.837263
  H           13.986031        1.499984       20.457064
  O           14.772615        1.538875       19.840807
  H           15.591094        1.784596       20.360145
  H           21.075907        5.175602       11.923344
  O           21.899791        5.621642       12.273005
  H           22.653577        5.479532       11.631436
  H           19.374335       20.495155        6.266553
  O           18.432313       20.163578        6.318035
  H           18.429427       19.163744        6.300036
  H            7.938960       22.167660       13.559295
  O            7.884386       22.864629       12.844273
  H            8.696705       22.810709       12.263557
  H           20.840957       19.014768        1.719700
  O           21.322529       18.166379        1.499871
  H           22.256114       18.211311        1.855398
  H           22.634212       18.215830       21.757697
  O           21.974120       18.177890       22.507923
  H           22.451552       18.297952       23.378350
  H           10.435811       11.970626       10.577166
  O           10.132378       11.529954       11.421995
  H            9.220802       11.141748       11.286629
  H            9.750415        4.370252       22.792484
  O           10.525683        5.001852       22.798822
  H           11.379571        4.481415       22.803343
  H           12.855380       14.803145        7.357964
  O           13.666419       15.297350        7.670978
  H           14.299037       14.657368        8.107118
  H           15.160799       25.053329       22.765864
  O           14.426452       24.923651       22.099592
  H           14.788063       25.050942       21.175994
  H           24.753781       18.978540       12.475759
  O           24.209444       18.333849       13.012481
  H           23.321274       18.742194       13.223215
  H           13.976316        7.960380       15.113104
  O           13.077228        8.388775       15.023002
  H           12.374868        7.764810       15.365576
  H           12.437584        8.522429       12.516149
  O           13.417576        8.703398       12.433287
  H           13.575307        9.690880       12.432886
  H           11.596970       20.143464        4.003900
  O           11.677137       20.892088        3.345769
  H           11.328314       21.734934        3.755564
  H           14.647575       13.210422       18.961169
  O           14.643124       13.963333       19.619276
  H           13.703677       14.273959       19.764022
  H           18.861881       11.518536       23.626766
  O           18.596774       10.611377       23.953539
  H           19.417487       10.074941       24.150179
  H           21.758938        7.767425        7.862405
  O           21.970276        8.074278        6.934409
  H           21.280045        8.733476        6.636015
  H           23.873663       13.389480        2.426601
  O           24.217031       12.512943        2.763914
  H           23.459447       11.864424        2.838005
  H           16.909939       24.548878       17.951123
  O           16.505461       25.063174       18.707362
  H           15.819322       24.498050       19.165453
  H            8.580548        9.211190       23.750434
  O            9.409280        9.549928       23.304947
  H           10.198693        9.377340       23.894048
  H            3.532546       22.583223       15.524702
  O            2.905082       21.820357       15.368738
  H            3.353816       20.962881       15.620477
  H           13.333154       24.365174        5.369570
  O           12.654443       23.633422        5.307202
  H           12.941339       22.970787        4.615389
  H            9.718442       18.709588       24.916071
  O            9.065509       18.456005       24.202367
  H            9.558592       18.252804       23.356448
  H           14.787286       17.538374       24.925209
  O           14.204895       16.737222       25.062968
  H           13.993580       16.322597       24.177851
  H           10.085682        3.750009       20.661086
  O            9.145664        3.781250       20.321394
  H            8.593262        4.359308       20.921977
  H           24.662463       19.799783       25.052044
  O           23.757291       19.449792       24.810861
  H           23.066974       20.145201       25.010530
  H           21.842565        1.826865       23.701701
  O           22.592530        2.316475       24.146488
  H           22.281231        2.674310       25.026855
  H            4.679402       12.337217       21.989118
  O            3.900176       12.522804       21.390481
  H            3.718993       13.506122       21.374380
  H           13.648774       24.289933       19.455332
  O           12.672106       24.202531       19.651495
  H           12.336180       25.052695       20.056927
  H            8.739712       21.307238        9.892410
  O            9.724288       21.260350       10.060965
  H            9.907022       21.453914       11.024884
  H            9.751253       14.479381        3.936061
  O            9.043484       14.116219        4.542012
  H            9.287161       14.309346        5.492445
  H           12.973408       21.187673       10.602478
  O           12.075581       21.604648       10.460921
  H           12.161540       22.600391       10.494196
  H           19.213765        8.672993        7.496162
  O           18.642567        8.909245        6.710084
  H           18.039205        8.141668        6.493800
  H           19.638968       16.022049       19.168021
  O           19.185783       15.160548       19.397015
  H           18.412253       15.341967       20.004253
  H           17.976711        2.689985       14.587389
  O           17.518933        3.464510       14.150868
  H           18.143703        3.898174       13.501563
  H           20.054992       21.616781       17.579141
  O           20.542797       21.912960       18.400313
  H           20.841197       21.111198       18.918130
  H           19.140997       18.140596        4.329921
  O           19.775923       17.368854        4.294108
  H           19.693531       16.910231        3.409305
  H           17.458750       25.050186       21.703976
  O           18.225273       24.478788       21.997143
  H           19.034949       25.050231       22.130851
  H            3.506548       17.156135        9.731696
  O            4.457447       17.306686        9.461278
  H            4.870475       17.991097       10.062100
  H           23.425694       17.560139        4.070070
  O           23.004082       16.679825        4.287531
  H           22.042124       16.694521        4.014730
  H           16.925626       18.675162       14.938134
  O           16.337819       19.483913       14.958242
  H           15.533976       19.326065       14.384726
  H            8.248338       15.493865       13.489445
  O            8.984660       16.138956       13.285268
  H            9.211349       16.657789       14.109539
  H            6.856990       16.683559       14.739321
  O            7.047728       17.576169       15.147814
  H            7.581658       18.128476       14.507599
  H           21.777725       24.135097       14.839917
  O           22.771609       24.193486       14.746190
  H           23.094617       25.050000       15.148744
  H           10.392218       14.709819       10.548086
  O           11.034407       15.186398       11.148474
  H           10.796318       15.004661       12.102562
  H           21.383791       24.792521        2.183990
  O           22.214411       25.050267        1.690393
  H           23.015987       24.746713        2.205495
  H            5.983694        2.155005        9.494925
  O            6.735304        1.495817        9.518488
  H            7.607231        1.985056        9.538190
  H           20.722154       11.170660       19.985992
  O           20.033555       11.746367       19.545093
  H           19.151064       11.276109       19.553346
  H            5.889931        2.882041       15.926702
  O            5.658335        3.850012       16.023631
  H            6.497454        4.393798       16.036842
  H            8.278148       16.293919        8.202119
  O            8.512703       16.395940        7.235385
  H            7.812093       16.943992        6.778454
  H            9.260557       24.260389        6.625938
  O            9.824537       24.909944        7.135846
  H           10.689662       25.050000        6.654242
  H           12.523265        9.189774       17.069047
  O           13.238535        8.986447       17.737662
  H           13.951985        8.435065       17.305265
  H           12.362985       11.071183       11.139301
  O           12.115437       10.287769       10.569228
  H           11.385901        9.768728       11.014621
  H           19.567360       21.324465       12.197338
  O           19.923502       20.393848       12.281688
  H           20.783770       20.411089       12.791239
  H           17.680832       25.026387        7.354921
  O           17.401176       24.683798        6.458024
  H           17.322922       23.687423        6.491381
  H           13.817104       18.627533        4.453194
  O           13.877893       17.742632        4.914989
  H           13.579016       17.020105        4.291589
  H            7.370521        2.088787        2.395403
  O            6.394152        2.297968        2.449678
  H            6.016257        2.367085        1.526413
  H           17.567289       10.375436        8.823048
  O           17.848524       11.324053        8.968074
  H           17.051890       11.923489        8.890287
  H           16.310281       15.457321       19.367638
  O           15.872201       15.822938       18.546413
  H           15.731570       16.807165       18.653746
  H            9.904683       15.953521        2.273617
  O           10.731715       16.153666        2.798935
  H           10.986781       17.111536        2.666924
  H            3.392384       21.118428        7.582545
  O            3.595632       21.830064        6.910039
  H            3.164558       22.687406        7.191356
  H            5.378823       19.857107        7.817816
  O            5.587525       18.966508        8.221890
  H            6.558848       18.763621        8.097917
  H            3.099040       22.593299        4.612964
  O            2.343633       22.204140        5.140140
  H            1.499921       22.262540        4.606530
  H            2.486415        3.304033       21.023949
  O            3.187900        3.987397       20.821634
  H            2.749787        4.850048       20.568868
  H           13.261658        5.115642       21.858324
  O           13.889288        4.661994       21.225644
  H           14.255581        5.333039       20.581030
  H           21.520925        1.499941        3.464537
  O           20.738887        1.956070        3.889227
  H           20.486866        2.758439        3.348219
  H           16.905456       16.651971       21.602933
  O           17.544180       15.955551       21.930088
  H           18.398816       16.392522       22.210539
  H           15.636004        7.529479       21.780026
  O           15.177812        6.697478       22.092813
  H           15.505883        6.459914       23.007106
  H           23.178202       20.519369       14.534569
  O           24.077812       20.926506       14.376640
  H           24.635206       20.833595       15.201673
  H            8.928899       19.570526        5.290356
  O            8.807316       19.766765        6.263345
  H            8.382453       20.665532        6.371551
  H           10.644541       18.054610        6.091116
  O           10.837428       18.457490        5.196419
  H           11.451116       17.855769        4.685227
  H           12.212288       18.980369       10.922096
  O           13.182556       18.882848       10.700579
  H           13.278011       18.522073        9.772823
  H           20.579481       17.842856       17.751575
  O           20.175376       17.204087       17.096844
  H           19.794960       17.713859       16.325212
  H           22.835418        7.184998       16.228621
  O           22.928095        8.045651       15.727933
  H           22.886715        7.865642       14.745139
  H           24.365924       12.500545       22.798488
  O           23.643503       11.819112       22.915780
  H           23.801492       11.054860       22.290513
  H           20.436995       16.841085       24.654838
  O           20.470876       17.677362       24.107578
  H           19.767124       17.640164       23.398108
  H            8.827630       17.716118       19.131946
  O            8.367652       17.275140       19.902633
  H            7.729324       17.919932       20.323084
  H            7.917884       20.230096       19.984999
  O            7.187297       20.028779       20.637466
  H            7.587525       19.767330       21.515795
  H           15.758083       18.580639       21.780803
  O           15.492345       18.421775       22.731669
  H           14.663594       17.862742       22.757195
  H           18.927540       25.050007        4.449368
  O           18.885193       24.723712        3.505049
  H           18.765305       23.730935        3.500498
  H            6.888324       25.050083       18.932513
  O            6.821915       24.673342       19.856448
  H            7.554208       25.050344       20.423561
  H           17.663246        9.137336       15.153452
  O           16.826165        9.684412       15.155079
  H           16.031361        9.077557       15.151227
  H            7.983125        7.650629       18.252563
  O            7.738949        8.152168       19.082524
  H            7.964788        9.119351       18.966106
  H           21.788073       19.687658       17.522884
  O           22.303502       20.446252       17.124302
  H           22.807656       20.921843       17.845164
  H            1.499584        6.064834        8.463106
  O            2.312125        5.573618        8.149285
  H            3.035439        6.229500        7.933334
  H           17.625263        9.733702       17.326211
  O           18.617078        9.738439       17.198613
  H           18.971275        8.809348       17.305068
  H            8.166569       20.461315       24.099063
  O            7.425367       19.900058       24.467316
  H            6.570269       20.130813       24.003031
  H           19.158840        5.544384        5.579221
  O           19.535746        6.155799        4.883439
  H           20.338742        6.624649        5.251374
  H           13.328760       14.758558       22.052850
  O           12.643197       15.470321       21.899885
  H           12.222632       15.340554       21.001951
  H            9.270518        6.187239       11.870667
  O            8.842033        5.477578       12.429935
  H            9.540677        5.018605       12.978789
  H           20.426217       13.270701        9.692865
  O           20.207164       14.213627        9.943676
  H           20.930250       14.822078        9.616667
  H            3.958248       19.095224       19.958838
  O            4.763374       19.672657       20.094279
  H            5.447294       19.459976       19.396411
  H           17.425490       13.179449       23.492198
  O           17.431624       13.012840       22.506194
  H           17.868217       13.782754       22.040770
  H           24.550810        3.387477        3.716573
  O           23.875510        4.014651        4.104674
  H           23.557209        4.642760        3.394629
  H            6.513461        6.190078       13.680757
  O            6.452195        5.192654       13.718084
  H            6.678926        4.811020       12.822011
  H            3.842492       11.000894       15.674512
  O            4.475294       11.215652       16.418448
  H            4.585964       10.412712       17.004142
  H           19.136025        5.449476       10.920932
  O           18.701985        4.568287       11.108322
  H           19.405536        3.885073       11.303856
  H           21.592978        9.790905       15.628487
  O           20.950764        9.067516       15.882000
  H           20.079338        9.216616       15.414682
  H            2.971121       19.841072        2.916579
  O            1.985495       20.008308        2.892670
  H            1.499869       19.134725        2.860748
  H           24.370943       19.792145        6.221429
  O           24.046967       19.033863        5.655702
  H           23.049741       18.981158        5.708252
  H            9.808606        7.401245       23.010227
  O           10.764621        7.534859       22.749112
  H           11.338323        7.525129       23.568118
  H           21.990623        9.318771       22.248845
  O           21.499952       10.179048       22.110408
  H           21.694564       10.799721       22.869941
  H           25.051968       13.945316       21.287980
  O           24.137688       14.333848       21.173371
  H           24.214243       15.273557       20.840074
  H           15.867454       22.003718        3.821820
  O           15.111840       22.275724        4.417690
  H           15.423844       22.286681        5.367708
  H            8.516640        1.499563       20.666462
  O            9.466646        1.655137       20.937175
  H           10.066587        1.499719       20.152372
  H            5.825312       10.784409       25.050204
  O            5.454480       11.662749       24.748537
  H            5.789892       11.868062       23.829111
  H            2.881017        2.377713        6.968762
  O            3.300397        1.661562        7.526659
  H            4.236074        1.499784        7.213073
  H           22.776052       18.122006        7.946252
  O           22.965176       17.755668        8.857311
  H           23.343374       18.478711        9.435391
  H           23.783986       15.300290        8.287757
  O           22.872871       15.299717        8.699909
  H           22.243207       15.813709        8.117384
  H            7.743786        6.683523        8.479055
  O            8.598320        6.370708        8.064423
  H            8.393452        5.781131        7.283125
  H            8.221324       25.047234       12.075919
  O            7.442943       25.050000       11.448132
  H            7.477655       24.234394       10.870566
  H            9.423155        1.580916       10.712278
  O            9.819143        1.497485        9.797821
  H           10.122449        2.396738        9.482624
  H           16.820928       15.363376       13.416639
  O           17.345232       16.176383       13.669870
  H           16.784260       16.992094       13.528712
  H            2.901752        3.241269       15.031309
  O            1.923731        3.414020       15.148065
  H            1.630226        4.118519       14.501894
  H            6.790287       10.714041        2.341227
  O            6.575272       11.555179        2.837468
  H            6.933803       12.340682        2.333048
  H           10.691423       11.338097        5.574293
  O           11.187526       10.485742        5.408846
  H           11.018629       10.178149        4.472439
  H           14.920067       22.848820       15.757411
  O           14.423557       23.343426       16.470743
  H           15.063837       23.635364       17.181245
  H            9.733345       23.496417        8.918150
  O           10.709132       23.290876        8.992933
  H           11.095977       23.172994        8.078354
  H           20.556357        8.482191       18.809347
  O           20.620579        9.459424       18.607130
  H           21.378949        9.619936       17.975378
  H           13.473818       12.666431        1.869428
  O           12.862040       11.878160        1.935431
  H           13.403846       11.039580        1.992242
  H           22.762337       21.931895        6.731708
  O           22.552731       21.022333        6.372874
  H           21.579924       20.829464        6.501120
  H           10.393759        6.802462        6.868754
  O           10.936502        5.996949        6.630891
  H           10.487375        5.176252        6.984078
  H           14.951539        7.812547        7.431003
  O           14.831712        8.802084        7.511370
  H           15.727244        9.241828        7.579532
  H           10.429810        2.424241       15.685105
  O           11.379372        2.249297       15.424863
  H           11.411409        1.497264       14.766517
  H           15.546767       16.482477       16.473003
  O           15.212141       15.542212       16.410332
  H           14.333560       15.532222       15.932844
  H            7.069799       14.619297        1.937598
  O            7.823577       15.274354        1.885455
  H            7.456834       16.194025        1.745078
  H           22.675678        5.680021       14.621151
  O           23.329767        5.379354       13.927057
  H           23.690633        6.175839       13.441890
  H           20.663956        2.255534       12.079139
  O           19.992496        1.522966       12.190880
  H           19.403074        1.727436       12.972400
  H            7.630004       11.858568       20.388274
  O            8.602347       11.977506       20.589278
  H            8.775255       12.927614       20.848889
  H            8.701125       10.406715        5.468360
  O            8.078099       11.151766        5.230165
  H            8.604738       11.983789        5.055842
  H           14.559693        3.946375       18.352811
  O           14.084924        3.900295       17.473908
  H           13.145316        4.223926       17.585264
  H            9.990268        9.934469       15.059159
  O           10.952744        9.802410       15.296226
  H           11.508475        9.837649       14.465611
  H           24.896034        6.533612        3.898823
  O           24.389602        7.358936        3.649090
  H           23.411956        7.151864        3.612640
  H           14.679635        1.701739       11.073561
  O           14.580947        2.694422       11.003982
  H           15.485719        3.120310       11.006404
  H           19.258763       19.688739       22.777302
  O           18.395100       19.642045       23.279205
  H           17.754363       19.053655       22.785998
  H            4.506837       20.251603       17.435168
  O            5.224771       20.492224       16.781966
  H            5.417564       19.706529       16.194162
  H           19.362128        8.134990       11.965553
  O           19.843512        7.259447       12.006710
  H           20.735743        7.348503       11.563998
  H           23.306181       15.463463       22.868112
  O           22.507154       16.053756       22.753605
  H           22.158084       15.964945       21.820727
  H            4.179522       13.989388        7.315124
  O            4.923191       14.128357        6.661179
  H            5.652641       13.468315        6.840752
  H            7.415252       10.141328       12.047918
  O            6.791096       10.699813       11.501545
  H            6.575513       11.540945       11.997550
  H           20.633798       21.247422        4.559434
  O           19.852294       20.786485        4.138970
  H           19.157232       21.463225        3.896255
  H           14.484284       11.460597       14.781095
  O           14.212555       10.499521       14.831062
  H           13.908807       10.286873       15.759781
  H            5.049620       15.814081       23.804142
  O            4.744275       14.862518       23.840069
  H            3.853529       14.815135       24.292094
  H           21.625939       17.002193       10.431183
  O           21.967941       17.729323       11.026428
  H           22.792668       17.414968       11.496540
  H           25.051378       17.685514       24.585059
  O           24.857960       16.714359       24.445602
  H           23.909363       16.523787       24.698281
  H           10.269084        6.961682       16.982307
  O           11.200111        7.279754       17.161250
  H           11.834712        6.510203       17.090024
  H            5.869336        9.968259       15.260235
  O            5.751134        9.691781       14.306511
  H            4.876254       10.035913       13.965694
  H           15.222987       20.878287       23.171155
  O           16.128403       20.460432       23.246120
  H           16.821949       21.177667       23.313701
  H           14.983442       12.720564        8.895641
  O           14.402736       12.271004        9.574373
  H           13.651004       12.880566        9.826036
  H           14.436536       11.025151       25.051726
  O           13.477561       11.122611       24.785511
  H           13.121073       10.235346       24.492805
  H           23.124377        1.840286        6.877616
  O           24.023621        2.105969        6.530094
  H           24.645881        2.258663        7.297868
  H           14.703502        4.642405        5.520470
  O           14.549042        4.782102        6.498543
  H           15.255431        5.388082        6.864332
  H           16.485993       15.843706       11.042694
  O           17.446873       16.004596       11.268135
  H           17.582318       16.972825       11.478338
  H            4.382772        7.997185       19.331829
  O            5.277148        8.398093       19.133429
  H            5.160762        9.351656       18.855629
  H            4.052784       25.050001       19.434174
  O            3.647003       24.211582       19.798036
  H            3.545394       24.293484       20.789483
  H           13.981692       17.886159       17.873600
  O           13.568007       18.340320       17.084548
  H           14.087004       18.114609       16.260112
  H            2.678476        4.685804       12.627525
  O            3.359638        5.236187       12.144724
  H            4.106293        4.646934       11.836037
  H           24.882223       11.368995       10.582424
  O           25.050031       10.518817       10.083386
  H           24.268446       10.319449        9.492306
  H            5.595173       18.160008       12.140703
  O            6.546486       18.167787       12.448830
  H            6.880304       17.228124       12.523663
  H           18.739490        8.724976        9.736082
  O           18.960131        7.753342        9.650961
  H           19.947048        7.644859        9.531693
  H            4.642533       11.682281       10.956536
  O            4.992491       11.408350       10.060718
  H            5.002032       12.200295        9.450201
  H           11.159629       19.716745        7.471603
  O           12.018001       20.059130        7.853662
  H           11.950265       20.089657        8.850898
  H            6.738113       21.954592        5.430526
  O            5.880184       21.790758        5.917471
  H            5.110348       22.034891        5.327767
  H            1.825125        6.924552       22.682785
  O            2.387422        7.566138       23.204503
  H            3.008428        7.056884       23.800330
  H            6.378268       18.025121       22.683636
  O            6.703574       17.079645       22.667760
  H            7.703012       17.070442       22.699964
  H            1.714164        4.734447       22.506357
  O            2.537360        4.622714       23.063011
  H            3.276517        5.176672       22.679897
  H            5.315667       21.278942       11.923659
  O            6.175018       21.574172       12.341216
  H            6.930819       21.041185       11.960835
  H           18.694340       19.458748        1.534712
  O           17.885210       20.045158        1.496865
  H           17.905667       20.691037        2.260031
  H            7.650613        8.844216        8.076152
  O            7.895246        9.392392        7.276366
  H            7.124735        9.414864        6.639336
  H           16.610599        1.497743       12.106585
  O           17.265611        2.208715       12.362472
  H           17.575410        2.687718       11.541144
  H            1.499525        3.329548       11.038334
  O            2.193644        3.475603       10.333447
  H            1.823403        3.214625        9.441925
  H           19.518799       13.447177        4.541779
  O           19.151489       14.284673        4.137202
  H           18.913757       14.116272        3.180580
  H           23.498801        9.410777       17.357076
  O           24.405839        9.239565       16.972410
  H           24.878726       10.109699       16.833682
  H            9.224258       18.823908       12.596927
  O           10.208895       18.998511       12.595255
  H           10.701389       18.130822       12.662816
  H            4.362256        2.863033       23.112676
  O            4.475694        1.902124       23.365233
  H            3.580444        1.500000       23.557127
  H           22.724010        4.421135       22.164941
  O           22.401839        3.578304       21.733848
  H           21.440853        3.430568       21.967685
  H           17.515225       23.229810        8.862631
  O           17.510202       22.416116        8.281360
  H           16.596213       22.010385        8.283801
  H           22.080459       21.798306       23.945820
  O           21.576996       22.073502       23.126801
  H           20.602460       21.891472       23.257734
  H           21.206804       18.994087        9.338761
  O           21.554304       19.859634        9.699418
  H           21.356572       19.916339       10.678032
  H           20.510647       20.084590       14.949625
  O           19.626571       19.765880       15.291435
  H           19.582137       19.904391       16.280799
  H            2.367559        4.544988       17.168371
  O            1.982732        5.447455       16.974817
  H            2.721422        6.118761       16.914116
  H           15.580164       12.945568       13.504595
  O           15.278239       13.838514       13.838494
  H           14.280553       13.849347       13.905618
  H           16.608336       11.270545       11.017453
  O           15.688787       11.596976       11.236252
  H           15.700021       12.593375       11.320295
  H           25.050408        5.014322       11.594755
  O           24.451495        4.216797       11.522251
  H           24.395724        3.760030       12.410087
  H           24.614925       17.277213        6.852096
  O           25.050576       17.480026        7.729066
  H           24.950699       18.453785        7.933558
  H            9.092692       16.722091        4.629175
  O            8.178794       17.127689        4.612417
  H            7.493651       16.402762        4.541297
  H           14.586013       20.694065       20.320776
  O           13.925546       21.435754       20.203812
  H           14.389681       22.239888       19.832400
  H           22.588003        8.759572        2.357102
  O           22.544130        9.607906        2.884742
  H           22.861224        9.436992        3.817608
  H           15.723861       22.937459       22.584356
  O           15.388751       22.988045       21.643536
  H           16.148200       22.837407       21.010650
  H           15.882479       22.083169       10.541464
  O           16.554099       21.554235       11.060266
  H           17.472053       21.752856       10.716886
  H            3.885658        2.964788       16.979522
  O            3.725708        1.977726       16.990633
  H            4.601468        1.498813       17.051348
  H            3.785278        7.368193       12.848627
  O            4.734213        7.384949       12.533599
  H            5.095903        8.313735       12.614451
  H            5.905776        3.562029       11.184308
  O            6.011817        4.457854       10.752739
  H            5.468566        4.490065        9.913788
  H           13.507598        6.158735       18.565975
  O           14.274902        6.781342       18.719611
  H           15.123220        6.255636       18.782771
  H           22.335594       25.050027        6.563322
  O           22.709403       24.122831        6.539377
  H           23.705786       24.166925        6.466733
  H            4.050090       22.530263        1.499952
  O            3.840550       21.662829        1.951229
  H            4.151310       21.697662        2.901078
  H           13.913473       16.597984       11.889334
  O           13.170103       17.218446       12.139190
  H           12.296012       16.738446       12.064592
  H            1.757829       14.858354        5.670076
  O            1.968543       15.710004        6.149964
  H            2.752745       15.567106        6.753790
  H           16.766323       17.544018        4.662566
  O           16.032935       18.184354        4.890843
  H           16.201835       18.575861        5.795384
  H           15.919131       14.857521       22.926653
  O           15.073030       14.579321       23.381316
  H           15.250952       14.429597       24.353903
  H            4.322981        6.441967       10.172320
  O            4.729765        6.629916        9.278339
  H            5.726564        6.601668        9.353127
  H           10.654019       13.786157       21.604879
  O           11.536847       13.485893       21.966066
  H           11.433850       12.588111       22.394293
  H           10.565732       19.263167       21.507868
  O           10.541064       18.404572       20.995808
  H           10.752940       17.644152       21.609706
  H            5.379188        2.159291       12.794793
  O            5.720299        2.355647       13.714080
  H            5.835909        1.498935       14.216750
  H           20.065275       16.044557       14.887797
  O           20.991260       15.802100       15.177221
  H           21.539418       16.633168       15.271287
  H           15.754308       23.530401       25.035631
  O           15.148465       22.734844       25.042272
  H           15.696561       21.898638       25.060984
  H           10.111073        1.499821       17.722874
  O            9.241338        1.775838       18.131988
  H            9.285022        2.741505       18.388069
  H            4.649246        5.979922       20.420764
  O            4.634296        5.517591       19.534183
  H            4.950761        4.575391       19.644228
  H           10.321117       24.652768       11.254705
  O           10.317803       24.396351       12.221266
  H           11.259492       24.304572       12.544990
  H            7.425676        8.216730       10.980322
  O            6.793676        7.448547       11.082647
  H            7.279958        6.591735       10.911174
  H           20.956713       15.547192       12.066695
  O           20.469095       15.233711       12.881532
  H           20.952787       14.454593       13.280300
  H           14.470976       22.367933        7.711064
  O           14.628797       23.315237        7.989827
  H           13.881640       23.889858        7.655814
  H           22.107066       11.590189       13.468908
  O           22.032440       12.542829       13.763709
  H           22.686761       13.101639       13.254204
  H           21.907540        3.321814       18.032449
  O           20.964931        2.992409       17.977843
  H           20.945879        2.007014       18.147059
  H           19.613476        3.796880       16.247246
  O           19.624685        4.642069       16.781596
  H           20.571055        4.906737       16.966889
  H            8.151142        3.029435       16.524372
  O            8.017451        2.334803       15.817539
  H            8.479622        1.490391       16.088401
  H            3.590568       21.508858       19.010605
  O            3.454139       22.178068       18.280163
  H            2.838902       21.797277       17.589887
  H            2.832192       10.847318       23.261856
  O            1.875309       10.618322       23.083150
  H            1.805460        9.654039       22.827653
  H            5.983671       23.458829       24.840140
  O            5.311098       24.186899       24.707628
  H            5.682366       25.049989       25.050023
  H            5.372455       11.416307        6.069186
  O            5.217042       10.453607        6.290671
  H            4.260125       10.221671        6.115989
  H           23.895729        8.741723       11.141239
  O           24.174551        8.432514       12.050441
  H           24.729371        7.604898       11.965433
  H           12.878415        5.482366       15.298147
  O           13.517669        5.663384       14.550760
  H           13.098007        6.294917       13.898802
  H           15.297673        2.988564       13.523462
  O           15.536599        2.539838       14.384601
  H           15.922512        1.637162       14.194218
  H           12.369605       21.715318        6.346310
  O           11.381258       21.674594        6.492979
  H           10.922978       22.284869        5.846802
  H            3.203660       16.005249       19.482887
  O            3.562639       16.937927       19.518164
  H            4.420703       16.945617       20.031649
  H           12.459550        2.545361        8.256343
  O           12.820386        1.677475        8.597768
  H           12.660058        1.614276        9.582806
  H           13.394689       25.050249       17.407258
  O           12.637692       24.409447       17.279480
  H           11.807547       24.916292       17.047173
  H           17.028820       17.203406       23.728844
  O           16.999500       17.132891       24.725923
  H           17.821250       16.665065       25.051291
  H            9.210367        1.997260       24.364765
  O            8.559269        1.557929       23.745846
  H            7.867443        2.222458       23.463396
  H           15.592040       18.880486       10.320908
  O           15.895638       17.928282       10.287192
  H           15.101503       17.328511       10.189090
  H            1.499974       12.832275       10.879726
  O            2.077235       13.632268       11.043381
  H            1.499969       14.436204       11.186382
  H            9.638217        4.534673       17.163764
  O           10.636559        4.581156       17.129799
  H           11.020373        3.692954       17.382353
  H            7.838459       21.990423       17.852660
  O            7.312046       21.261521       17.414949
  H            7.496635       21.261119       16.432133
  H            6.763094       16.090244       18.798108
  O            6.069018       15.954086       18.091199
  H            5.848880       14.980986       18.023262
  H           24.510568       12.032429       12.646799
  O           24.381382       11.100599       12.985921
  H           23.816373       10.586401       12.340658
  H           12.777154        7.855594        7.762825
  O           12.118284        7.925142        8.511860
  H           12.417455        8.630469        9.154518
  H            6.761891        1.499374       17.462743
  O            6.705112        1.980897       18.337336
  H            6.068732        1.501066       18.941308
  H           21.292239       17.393756       13.214249
  O           20.488509       17.825316       12.804647
  H           19.684327       17.634123       13.367441
  H           22.594003        7.858520       19.505105
  O           22.124283        7.008429       19.266969
  H           22.474133        6.263791       19.835405
  H           19.032238       10.485465       13.954201
  O           18.109660       10.761231       13.684381
  H           18.033711       10.740424       12.687486
  H           24.792113       20.100078       17.368306
  O           24.303117       19.228707       17.328359
  H           24.910049       18.522288       16.964210
  H            2.814667       10.652118        3.543801
  O            3.148947        9.720301        3.685125
  H            2.608414        9.085030        3.133533
  H           17.613765        9.033005       19.774700
  O           16.834974        8.482974       19.473120
  H           16.846973        7.601330       19.944883
  H            8.175516       11.092150       14.434791
  O            7.662351       11.912867       14.183621
  H            6.683479       11.708455       14.188580
  H            2.339346       15.569619        1.540147
  O            2.456646       14.577339        1.499898
  H            2.871372       14.255928        2.351189
  H            3.876272       22.336684       23.463533
  O            4.125061       22.354888       24.431920
  H            4.406991       21.440002       24.720880
  H           22.593527       21.592773        1.499985
  O           23.349369       22.235278        1.626042
  H           23.327028       22.597511        2.557861
  H            4.985085        8.432324        3.789835
  O            4.893560        7.888070        4.623748
  H            4.048651        8.140405        5.095400
  H           14.811056        1.830548       17.640460
  O           15.166326        1.547370       16.749621
  H           14.441410        1.616804       16.064293
  H            2.330741        8.128188       16.108297
  O            3.208079        8.605992       16.152809
  H            3.940923        7.943501       16.307878
  H            3.010084       20.077570       23.613366
  O            2.189379       20.648332       23.639335
  H            2.224792       21.246818       24.439685
  H           21.638171        4.207727        9.760441
  O           20.929665        4.912081        9.716800
  H           21.357930        5.809547        9.611235
  H            6.573661        3.956944        7.448337
  O            7.063877        3.708665        8.283828
  H            7.344172        4.539204        8.765118
  H            9.258571       11.163476       18.653974
  O           10.250512       11.092228       18.758736
  H           10.523732       11.499381       19.630274
  H           10.991323       17.457482       18.829522
  O           11.433557       16.972861       19.584222
  H           12.384157       16.777220       19.343217
  H            5.632118        7.073121       17.413547
  O            5.613110        6.205706       16.916326
  H            4.846175        5.652158       17.240971
  H            4.319472       20.113983       10.234229
  O            4.213127       21.087033       10.029618
  H            4.895114       21.361569        9.351737
  H           17.673621       20.287485       12.694507
  O           17.700908       19.294271       12.581451
  H           16.873062       18.989546       12.110481
  H            3.967491       13.334972       16.116234
  O            4.408811       13.690602       16.940106
  H            3.837622       14.406518       17.341611
  H            8.626246       19.437379        8.728251
  O            9.237129       18.647382        8.780481
  H           10.093201       18.916611        9.221678
  H            8.460344        7.596556       13.368597
  O            7.767010        8.295086       13.191556
  H            7.801006        8.988426       13.911363
  H           19.005111        1.499796       19.843837
  O           18.878099        2.076550       19.036853
  H           18.806506        1.499937       18.222979
  H            7.723125        7.797280        5.234431
  O            7.084068        8.068533        4.514689
  H            7.054129        9.066252        4.454188
  H           11.419487       13.539182        1.933552
  O           11.754236       13.609333        2.873245
  H           12.461149       14.314849        2.923455
  H           18.517800        7.063850       18.610332
  O           17.735213        7.120569       17.990379
  H           17.198600        6.279078       18.053132
  H           17.070498        1.499314        9.074405
  O           17.828266        2.027198        9.457976
  H           18.674329        1.499620        9.381570
  H           20.787912       11.422256        6.200077
  O           20.911296       12.012539        6.997788
  H           20.034037       12.421977        7.248341
  H           14.067148       21.073729       12.946164
  O           13.863847       20.266154       12.392547
  H           14.700809       19.736128       12.256292
  H           20.043795        4.728522       14.235924
  O           20.466823        3.925384       13.816379
  H           21.459422        4.044780       13.794196
  H            6.854215        9.965380       21.471748
  O            6.968186        9.978235       22.465149
  H            6.073918        9.892453       22.904384
  H           10.308558       20.792321       24.517410
  O           10.810636       21.570554       24.140221
  H           10.502066       21.744693       23.205096
  H           11.551782       23.918117       23.616141
  O           10.877388       24.385134       24.188057
  H           11.348665       24.931328       24.880567
  H           10.819427        6.183278       14.963082
  O           10.158947        6.773054       14.498397
  H           10.236692        7.704778       14.853145
  H           10.160892       11.575564       23.875362
  O           10.985743       11.751335       24.412693
  H           11.134441       10.996588       25.051633
  H           11.710249        9.808448        7.435811
  O           10.819899        9.797058        7.890946
  H           10.099820        9.657871        7.211157
  H           13.630669       14.573079        4.894619
  O           14.063050       14.097282        5.660559
  H           13.706831       13.164614        5.717450
  H           14.201424        9.070144       10.365529
  O           14.221711       10.001562       10.002144
  H           15.130763       10.195793        9.633498
  H           23.147287       22.150348       12.707957
  O           22.150667       22.162099       12.789260
  H           21.894623       22.127390       13.755301
  H           15.914637        2.860852       24.169617
  O           15.280539        3.464081       23.685846
  H           15.220930        3.185284       22.727348
  H           20.188678       19.079134       20.264750
  O           19.394231       19.625530       20.529903
  H           19.012191       20.072577       19.721080
  H           10.294902        8.095505       12.257508
  O           10.298852        8.845786       12.918615
  H            9.565943        9.489051       12.697136
  H           12.483863        3.032294        2.519947
  O           13.304079        2.573037        2.178878
  H           13.753339        3.153803        1.500000
  H           12.407877       14.667996        9.510145
  O           12.628190       15.634374        9.642718
  H           13.591188       15.724918        9.896559
  H            6.220058       24.437879        8.980130
  O            7.011747       25.038333        8.867512
  H            7.550203       24.735971        8.080974
  H           21.069945       12.614361       21.609181
  O           20.282835       12.328187       22.155590
  H           19.461128       12.335463       21.585727
  H            7.840046       24.620405       25.050792
  O            8.789626       24.759472       24.769796
  H            8.815002       25.050598       23.813448
  H           16.571619       19.003631        2.921476
  O           16.230110       19.803650        3.414772
  H           16.893450       20.072942        4.112956
  H           23.484243        5.729872        6.476136
  O           23.500121        5.931124        5.496725
  H           22.601552        5.738750        5.102308
  H           19.628236       10.204302       11.270189
  O           20.586142       10.239945       10.985328
  H           20.865674        9.342915       10.642984
  H           20.462910        8.990718        1.836956
  O           19.576202        9.307271        1.499994
  H           18.898371        8.580616        1.611878
  H           20.045439       14.360160       22.964326
  O           19.688432       15.115223       23.514259
  H           18.751244       14.908764       23.795421
  H            7.015539        3.833610       19.481985
  O            7.056280        4.200545       18.552631
  H            6.832875        5.175133       18.568981
  H           16.544169        1.663793        6.840191
  O           16.961272        2.524826        7.131132
  H           17.949119        2.401456        7.225669
  H            5.724785        1.992329       21.271571
  O            6.080979        2.926301       21.300233
  H            7.055846        2.904583       21.521956
  H           13.673758        7.874994       20.538930
  O           12.938802        7.208423       20.414339
  H           12.403138        7.141659       21.256126
  H           15.826763        3.530301        2.416232
  O           16.188694        4.461644        2.456324
  H           17.145653        4.460135        2.166105
  H           10.413048       13.710781       14.096506
  O            9.894080       13.396091       13.301747
  H            9.658651       12.431195       13.418147
  H           25.051069       19.774326       22.238146
  O           24.187315       19.490090       22.654243
  H           23.600829       20.289592       22.783975
  H            4.307193        4.848035       14.097506
  O            3.791308        5.245540       14.856356
  H            4.036126        6.209884       14.956875
  H           24.664466        5.797698       17.478999
  O           23.930890        5.932778       18.145047
  H           23.358662        5.113489       18.181396
  H           24.942940       22.820393        5.243511
  O           25.050017       22.808426        4.249333
  H           24.727121       23.675016        3.868860
  H            4.311211       16.640034        3.127425
  O            4.339903       16.064886        2.309879
  H            5.291531       15.910166        2.044424
  H            7.538952       12.304407       22.558532
  O            6.843810       12.903672       22.161468
  H            7.164793       13.850361       22.188858
  H            8.894762       20.243540        2.288113
  O            8.783651       19.560832        1.565919
  H            7.820778       19.299051        1.500000
  H            4.957072       15.347161        4.803584
  O            3.961457       15.253700        4.799505
  H            3.717148       14.296766        4.642693
  H           22.129157        8.649996       12.830466
  O           21.202765        8.752144       13.192906
  H           20.967306        9.723023       13.237087
  H           11.607227        1.491769       21.722479
  O           11.416516        2.395477       22.105808
  H           10.605182        2.346013       22.688294
  H            3.576805        1.499545       13.869798
  O            3.134423        1.657774       12.987040
  H            2.377054        2.300173       13.104149
  H           10.273015       21.566904       20.930143
  O            9.291450       21.728021       20.827327
  H            8.897068       21.961313       21.716168
  H           19.535602       23.041232        9.721303
  O           20.100161       22.294901        9.368791
  H           19.971709       22.218139        8.380051
  H            5.499077       12.965479        4.511933
  O            6.498149       12.944269        4.549421
  H            6.850444       13.879625        4.580990
  H            6.546996        5.160047       21.173173
  O            6.805559        5.360098       22.118226
  H            7.628760        5.927800       22.125521
  H            9.401679        7.981343        3.664421
  O           10.322651        8.140623        4.020004
  H           10.333587        7.970321        5.005335
  H            8.050036       22.520340        7.885645
  O            7.116029       22.379214        8.213842
  H            6.979370       21.411204        8.424269
  H           25.051391       15.081712       13.487085
  O           24.101747       14.768450       13.493535
  H           23.499810       15.523867       13.234659
  H            4.578635       12.219871        1.500002
  O            5.031212       13.110864        1.536141
  H            4.933872       13.497198        2.453349
  H           19.049933       23.488126       15.729631
  O           18.288193       24.077553       15.998570
  H           17.455358       23.529938       16.079213
  H           11.461622        4.206606       12.087949
  O           11.900274        5.010333       11.685944
  H           11.441648        5.837621       12.010376
  H            3.052015       21.282360       21.715146
  O            3.953967       21.334978       21.286527
  H            4.275009       22.281936       21.300706
  H           10.664103       23.918141       18.666861
  O            9.853568       23.421683       18.356117
  H            9.140858       23.476164       19.055457
  H            6.256699        1.952473        6.151944
  O            7.102984        1.561966        6.514305
  H            7.772677        2.291007        6.655762
  H           11.470843       14.511921        5.307804
  O           11.229083       15.477653        5.402208
  H           12.030581       15.993943        5.703945
  H            5.662659       16.523146        6.566407
  O            5.467621       17.503869        6.578403
  H            6.063460       17.970226        5.924579
  H           18.154234       12.776053       10.591659
  O           17.993281       13.599933       10.048230
  H           17.016050       13.812099       10.045975
  H           13.159552       12.347993        7.723902
  O           12.192555       12.142655        7.573064
  H           11.785347       12.856030        7.002733
  H           13.982995       17.385140       20.724730
  O           14.859605       16.906974       20.670772
  H           14.713609       15.926987       20.806086
  H            5.374466       14.988353       21.606040
  O            5.729194       14.830764       20.684447
  H            4.970373       14.815389       20.033329
  H            8.811296       13.258587       18.154746
  O            8.624805       14.226798       18.321441
  H            9.316265       14.783504       17.861050
  H           19.172284       22.832008       19.855068
  O           19.080038       23.825441       19.787369
  H           18.112880       24.074581       19.837693
  H            1.916349       17.031744        3.354717
  O            2.237761       16.136525        3.663384
  H            1.499919       15.467771        3.571968
  H            8.021620       10.898044       25.049339
  O            8.322271       11.851777       25.050845
  H            7.523288       12.453129       25.050481
  H            1.499960       11.072305       15.335821
  O            1.847095       10.134547       15.346152
  H            2.155371        9.883120       14.428683
  H           18.102039        3.076384       23.805793
  O           18.446388        2.137553       23.810206
  H           17.676016        1.499994       23.816897
  H            7.629817       13.623415       12.345948
  O            7.881719       13.228449       11.462462
  H            8.866979       13.326490       11.322281
  H           18.654871        4.003258       21.285483
  O           18.983187        3.105559       21.579327
  H           18.210582        2.474509       21.649019
  H            2.393065       19.982862        9.179990
  O            1.499620       19.621833        8.912755
  H            1.604217       18.683343        8.583671
  H            1.499995        9.578181        5.784764
  O            1.658915        8.609663        5.976382
  H            2.458563        8.514010        6.569182
  H           19.420710       12.944646       13.740380
  O           18.547397       12.873473       13.258448
  H           17.807995       13.169941       13.862923
  H            2.674422       23.788257       13.524603
  O            1.899750       23.155961       13.515366
  H            2.213762       22.248156       13.237362
  H            4.398600       12.721470       13.020574
  O            3.586992       12.890938       12.461492
  H            2.998130       12.082821       12.475196
  H            4.417897       19.315405       13.597710
  O            3.612771       19.310915       14.190797
  H            3.035935       18.526233       13.963787
  H           12.322177        4.614470       19.591917
  O           12.061263        3.653719       19.686151
  H           12.835065        3.072048       19.435371
  H            9.552749        9.666958        9.686744
  O            9.131591        8.760096        9.701810
  H            9.846329        8.060747        9.709593
  H            4.161630       16.307501       11.734770
  O            4.131804       15.414694       12.184221
  H            4.771894       15.406730       12.952479
  H           22.209879       18.820668       15.545371
  O           22.901759       18.228650       15.958671
  H           23.597497       18.002727       15.276830
  H           20.873367        7.128970       22.729190
  O           20.452474        6.268750       22.441318
  H           19.476603        6.285911       22.658991
  H            1.660541       14.173833       22.049390
  O            2.129169       14.989244       21.709549
  H            1.541310       15.462390       21.053383
  H            6.370699        8.390452        2.081528
  O            5.780263        8.949966        1.499867
  H            4.830829        8.654680        1.606546
  H            9.879228       12.553676        8.268801
  O            9.593522       11.613754        8.081933
  H            8.638592       11.608409        7.785151
  H           11.236716       21.787494       18.861968
  O           12.136188       22.135095       19.126776
  H           12.621875       22.456484       18.313870
  H           15.666198        3.417432        8.834036
  O           14.905238        2.768651        8.829280
  H           14.771470        2.418592        7.902153
  H           12.689968       23.584661       21.763006
  O           11.981179       22.902418       21.583667
  H           12.369230       21.985704       21.678807
  H           12.912963       11.914100       16.855181
  O           13.487634       11.711429       17.648073
  H           12.970010       11.160645       18.302826
  H            4.163014        9.350052       24.911714
  O            4.565162        8.648081       24.323910
  H            5.228331        8.114047       24.848328
  H           14.557571        5.933853       16.646069
  O           15.556586        5.889669       16.642014
  H           15.847989        4.933198       16.657729
  H           18.560292        3.991907        8.791731
  O           18.242598        4.920960        8.981283
  H           17.243906        4.947177        8.937382
  H            3.340884        2.757346        4.851139
  O            2.694276        2.156708        4.380892
  H            2.408575        2.581779        3.522004
  H            4.097336       18.093152       17.550957
  O            4.948267       17.703951       17.198197
  H            5.724050       18.094416       17.693875
  H           24.047954       19.933011       20.015627
  O           24.098607       20.924177       20.138202
  H           25.050217       21.221458       20.060340
  H           19.071538        8.250061        4.395128
  O           18.451692        9.024556        4.521413
  H           18.963479        9.879037        4.432333
  H           17.572341       22.480689       18.386190
  O           16.625791       22.503305       18.707954
  H           16.408915       21.641464       19.166424
  H            9.474162       22.229773       16.283961
  O            9.038003       22.518763       15.431757
  H            9.740998       22.738614       14.755397
  H           12.262199        3.752951       14.085908
  O           13.204661        3.420666       14.049130
  H           13.203879        2.431901       13.899654
  H           17.140574       10.977860       21.560502
  O           16.533985       10.222491       21.312575
  H           15.585595       10.539428       21.322919
  H           13.956827       11.875741        3.952222
  O           13.095587       11.403397        4.139722
  H           12.382851       12.076127        4.338317
  H            8.619300        4.087088       24.717309
  O            7.717669        3.810720       25.050000
  H            7.034643        4.479475       24.756329
  H            3.846269        8.471196        8.279045
  O            4.576005        8.349994        7.606144
  H            5.456821        8.567024        8.026928
  H           24.578238       15.481591        1.919855
  O           23.792313       16.045979        2.172419
  H           22.988439       15.463419        2.292459
  H            4.752248       10.385690       20.976938
  O            4.323200        9.482934       21.007759
  H            3.334133        9.587340       21.111906
  H            6.083599        6.208007        3.402507
  O            6.882666        5.726707        3.762842
  H            6.645517        4.771012        3.937221
  H           18.563533       22.376775       23.926131
  O           17.920509       23.104593       23.687798
  H           17.860283       23.756792       24.443449
  H           17.687354       18.584559       17.120759
  O           16.758974       18.214864       17.082856
  H           16.100206       18.967200       17.086527
  H           14.104442       20.901408       15.139060
  O           13.119270       20.730035       15.147297
  H           12.938061       19.810085       14.799655
  H           15.619876       10.497913       13.140346
  O           16.150504        9.657216       13.032358
  H           15.531599        8.871870       13.018630
  H           23.176500       10.365978       24.967144
  O           22.191115       10.207996       25.030843
  H           21.713355       11.086255       25.051003
  H           15.440641        9.866746        4.421238
  O           16.402848        9.808456        4.687244
  H           16.795970       10.727372        4.719616
  H           23.287096       23.037812        9.609354
  O           23.019623       23.178829        8.656164
  H           22.153556       23.677676        8.623308
  H           22.265518        3.845856       15.914644
  O           23.156444        4.210373       16.185526
  H           23.770241        3.454720       16.414089
  H           18.822009       11.775706        3.067912
  O           17.934049       11.455724        2.737550
  H           17.980277       10.473476        2.555750
  H            7.838947        2.436928       13.127773
  O            8.035856        1.508173       13.441843
  H            8.908207        1.499537       13.930646
  H            7.365784       22.414615       23.479974
  O            8.255078       22.841579       23.643858
  H            8.590759       22.576157       24.547666
  H           23.729862        2.069780       20.839024
  O           24.340138        2.341641       21.583105
  H           25.050004        1.647491       21.702462
  H           20.761815       22.894465        3.106669
  O           20.632485       22.725536        2.129562
  H           19.684550       22.455603        1.960577
  H            3.831850       12.868297       19.218924
  O            4.819705       12.737840       19.303329
  H            5.063181       11.821286       18.986078
  H           20.272007        5.504346        7.476325
  O           19.945123        6.421822        7.703006
  H           18.953377        6.461864        7.581201
  H            7.762878       24.339588        4.240934
  O            7.799161       24.201943        3.251117
  H            8.375436       24.906792        2.837482
  H           16.831014        5.667692       21.071157
  O           17.068792        5.132130       20.260827
  H           16.246202        4.695223       19.896881
