LAMMPS (10 Dec 2025)
OMP_NUM_THREADS environment is not set. Defaulting to 1 thread.
  using 1 OpenMP thread(s) per MPI task
# created by fftool

units real
boundary p p p

atom_style full
bond_style harmonic
angle_style harmonic
dihedral_style opls

special_bonds lj/coul 0.0 0.0 0.5

# remove hybrid if not necessary
pair_style hybrid lj/cut/coul/long 10.0 10.0
pair_modify mix geometric tail yes
read_data data.lmp
Reading data file ...
  orthogonal box = (0 0 0) to (35.56 35.56 35.56)
  1 by 1 by 2 MPI processor grid
  reading atoms ...
  3009 atoms
  scanning bonds ...
  1 = max bonds/atom
  scanning angles ...
  6 = max angles/atom
  scanning dihedrals ...
  9 = max dihedrals/atom
  orthogonal box = (0 0 0) to (35.56 35.56 35.56)
  1 by 1 by 2 MPI processor grid
  reading bonds ...
  2655 bonds
  reading angles ...
  4307 angles
  reading dihedrals ...
  5192 dihedrals
Finding 1-2 1-3 1-4 neighbors ...
  special bond factors lj:    0        0        0.5     
  special bond factors coul:  0        0        0.5     
     4 = max # of 1-2 neighbors
     6 = max # of 1-3 neighbors
    12 = max # of 1-4 neighbors
    16 = max # of special neighbors
  special bonds CPU = 0.003 seconds
  read_data CPU = 0.381 seconds
# read_restart restart1.lmp

kspace_style pppm 1.0e-5

# remove pair style if not using hybrid
pair_coeff    1    1 lj/cut/coul/long     0.170000     3.250000  # N1 N1
pair_coeff    2    2 lj/cut/coul/long     0.065999     3.500000  # C1N C1N
pair_coeff    3    3 lj/cut/coul/long     0.000000     0.000000  # HN HN
pair_coeff    4    4 lj/cut/coul/long     0.065999     3.500000  # CS CS
pair_coeff    5    5 lj/cut/coul/long     0.030000     2.500000  # H1N H1N
pair_coeff    6    6 lj/cut/coul/long     0.065999     3.500000  # CEN CEN
pair_coeff    7    7 lj/cut/coul/long     0.030000     2.500000  # HC HC
pair_coeff    8    8 lj/cut/coul/long     0.030000     2.500000  # HCN HCN
pair_coeff    9    9 lj/cut/coul/long     0.105000     3.750000  # CO2 CO2
pair_coeff   10   10 lj/cut/coul/long     0.065999     3.500000  # C2C C2C
pair_coeff   11   11 lj/cut/coul/long     0.210000     2.960000  # O2 O2
pair_coeff   12   12 lj/cut/coul/long     0.065999     3.500000  # CT CT
pair_coeff   13   13 lj/cut/coul/long     0.000000     1.000000  # Hw Hw
pair_coeff   14   14 lj/cut/coul/long     0.155425     3.165500  # Ow Ow

# minimize 1.0e-4 1.0e-6 100 1000
# reset_timestep 0

fix SHAKE all shake 0.0001 20 0 b 2 4 7
Finding SHAKE clusters ...
       0 = # of size 2 clusters
     708 = # of size 3 clusters
     177 = # of size 4 clusters
       0 = # of frozen angles
  find clusters CPU = 0.009 seconds

neighbor 2.0 bin
neigh_modify delay 0 every 1 check yes








#fix VAVG all ave/time 10 1000 50000 v_vinst

# ---------------------------------------------------------------------------
# RENEU 2026 simulation protocol (stage2 M2 propylammonium octanoate)
# 1 minimise  2 NVT relaxation  3 NPT equilibration  4 NPT production
# ---------------------------------------------------------------------------
timestep 1.0

variable TK      equal 300.0
variable PBAR    equal 1.0
variable NVTRUN  equal 20000
variable EQRUN   equal 100000
variable PRODRUN equal 200000

variable dens equal density
variable vol  equal vol

thermo 1000
thermo_style custom step temp press vol v_dens pe etotal

# --- 1. energy minimisation ------------------------------------------------
print "RENEU >>> stage 1 of 4: energy minimisation"
RENEU >>> stage 1 of 4: energy minimisation
minimize 1.0e-4 1.0e-6 10000 100000
PPPM initialization ...
  using 12-bit tables for long-range coulomb
  G vector (1/distance) = 0.2856638
  grid = 24 24 24
  stencil order = 5
  estimated absolute RMS force accuracy = 0.0030601846
  estimated relative force accuracy = 9.2156551e-06
  using double precision FFTW3
  3d grid and FFT values/proc = 18259 6912
Generated 91 of 91 mixed pair_coeff terms from geometric mixing rule
WARNING: Using fix shake with minimization.
  Substituting constraints with harmonic restraint forces using kbond=1987206.7 (src/RIGID/fix_shake.cpp:397)
Neighbor list info ...
  update: every = 1 steps, delay = 0 steps, check = yes
  max neighbors/atom: 2000, page size: 100000
  master list distance cutoff = 12
  ghost atom cutoff = 12
  binsize = 6, bins = 6 6 6
  1 neighbor lists, perpetual/occasional/extra = 1 0 0
  (1) pair lj/cut/coul/long, perpetual
      attributes: half, newton on
      pair build: half/bin/newton
      stencil: half/bin/3d
      bin: standard
Per MPI rank memory allocation (min/avg/max) = 17.39 | 17.39 | 17.39 Mbytes
   Step          Temp          Press          Volume         v_dens         PotEng         TotEng    
         0   0             -11963007       44966.104      0.60000887     223356.69      223356.69    
        33   0              9772.1433      44966.104      0.60000887    -637.73593     -637.73593    
Loop time of 8.01635 on 2 procs for 33 steps with 3009 atoms

98.7% CPU use with 2 MPI tasks x 1 OpenMP threads

Minimization stats:
  Stopping criterion = energy tolerance
  Energy initial, next-to-last, final = 
      223356.691663104  -637.691984022189  -637.735930238903
  Force two-norm initial, final = 1630738.2 2035.7353
  Force max component initial, final = 82760.359 208.21898
  Final line search alpha, max atom move = 5.6787079e-05 0.011824148
  Iterations, force evaluations = 33 149

MPI task timing breakdown:
Section |  min time  |  avg time  |  max time  |%varavg| %total
---------------------------------------------------------------
Pair    | 5.4695     | 5.5017     | 5.5339     |   1.4 | 68.63
Bond    | 0.24374    | 0.25438    | 0.26503    |   2.1 |  3.17
Kspace  | 2.0569     | 2.0754     | 2.0939     |   1.3 | 25.89
Neigh   | 0          | 0          | 0          |   0.0 |  0.00
Comm    | 0.084378   | 0.086986   | 0.089594   |   0.9 |  1.09
Output  | 0          | 0          | 0          |   0.0 |  0.00
Modify  | 0.063376   | 0.067147   | 0.070918   |   1.5 |  0.84
Other   |            | 0.03077    |            |       |  0.38

Nlocal:         1504.5 ave        1606 max        1403 min
Histogram: 1 0 0 0 0 0 0 0 0 1
Nghost:         7788.5 ave        8003 max        7574 min
Histogram: 1 0 0 0 0 0 0 0 0 1
Neighs:         416000 ave      420308 max      411691 min
Histogram: 1 0 0 0 0 0 0 0 0 1

Total # of neighbors = 831999
Ave neighs/atom = 276.50349
Ave special neighs/atom = 8.0392157
Neighbor list builds = 0
Dangerous builds = 0
reset_timestep 0

# --- 2. NVT relaxation (lets the packed box relax before the barostat) ------
print "RENEU >>> stage 2 of 4: NVT relaxation"
RENEU >>> stage 2 of 4: NVT relaxation
velocity all create ${TK} 12345 mom yes rot yes dist gaussian
velocity all create 300 12345 mom yes rot yes dist gaussian
fix NVTRELAX all nvt temp ${TK} ${TK} 100
fix NVTRELAX all nvt temp 300 ${TK} 100
fix NVTRELAX all nvt temp 300 300 100
run ${NVTRUN}
run 20000
PPPM initialization ...
  using 12-bit tables for long-range coulomb
  G vector (1/distance) = 0.2856638
  grid = 24 24 24
  stencil order = 5
  estimated absolute RMS force accuracy = 0.0030601846
  estimated relative force accuracy = 9.2156551e-06
  using double precision FFTW3
  3d grid and FFT values/proc = 18259 6912
Generated 91 of 91 mixed pair_coeff terms from geometric mixing rule
Per MPI rank memory allocation (min/avg/max) = 16.27 | 16.27 | 16.27 Mbytes
   Step          Temp          Press          Volume         v_dens         PotEng         TotEng    
         0   300            19795.56       44966.104      0.60000887    -638.04522      1471.4741    
      1000   301.17194      84.358703      44966.104      0.60000887    -9299.3577     -7181.5977    
      2000   304.65445      272.75114      44966.104      0.60000887    -9528.7401     -7386.492     
      3000   301.05794     -503.24658      44966.104      0.60000887    -9714.7796     -7597.8212    
      4000   297.59382     -506.02247      44966.104      0.60000887    -9838.9533     -7746.3536    
      5000   295.48993     -1284.474       44966.104      0.60000887    -9897.4754     -7819.6697    
      6000   298.34174     -815.32375      44966.104      0.60000887    -10019.194     -7921.3352    
      7000   303.19393     -603.53527      44966.104      0.60000887    -10109.36      -7977.3818    
      8000   302.08335     -280.634        44966.104      0.60000887    -10187.477     -8063.3083    
      9000   295.82754     -689.50203      44966.104      0.60000887    -10251.974     -8171.7939    
     10000   300.49185     -588.92442      44966.104      0.60000887    -10326.469     -8213.4913    
     11000   305.48635     -555.04552      44966.104      0.60000887    -10312.787     -8164.6894    
     12000   294.617       -735.03205      44966.104      0.60000887    -10387.944     -8316.277     
     13000   300.33265     -979.05578      44966.104      0.60000887    -10389.799     -8277.9404    
     14000   294.12125     -622.54648      44966.104      0.60000887    -10415.721     -8347.5391    
     15000   294.93831     -696.58102      44966.104      0.60000887    -10423.849     -8349.9222    
     16000   304.72812     -279.11648      44966.104      0.60000887    -10537.915     -8395.1488    
     17000   304.4422      -537.02785      44966.104      0.60000887    -10475.236     -8334.4801    
     18000   295.26919     -383.41888      44966.104      0.60000887    -10465.479     -8389.226     
     19000   291.44101     -210.45117      44966.104      0.60000887    -10503.416     -8454.0814    
     20000   299.0239      -1050.4253      44966.104      0.60000887    -10507.128     -8404.4728    
Loop time of 985.255 on 2 procs for 20000 steps with 3009 atoms

Performance: 1.754 ns/day, 13.684 hours/ns, 20.299 timesteps/s, 61.081 katom-step/s
98.3% CPU use with 2 MPI tasks x 1 OpenMP threads

MPI task timing breakdown:
Section |  min time  |  avg time  |  max time  |%varavg| %total
---------------------------------------------------------------
Pair    | 470.27     | 508.24     | 546.21     | 168.4 | 51.58
Bond    | 38.129     | 40.372     | 42.616     |  35.3 |  4.10
Kspace  | 275.53     | 313.67     | 351.81     | 215.4 | 31.84
Neigh   | 63.546     | 63.711     | 63.875     |   2.1 |  6.47
Comm    | 29.763     | 31.691     | 33.619     |  34.2 |  3.22
Output  | 0.006401   | 0.0099493  | 0.013498   |   3.6 |  0.00
Modify  | 23.455     | 23.545     | 23.636     |   1.9 |  2.39
Other   |            | 4.018      |            |       |  0.41

Nlocal:         1504.5 ave        1766 max        1243 min
Histogram: 1 0 0 0 0 0 0 0 0 1
Nghost:           7287 ave        7835 max        6739 min
Histogram: 1 0 0 0 0 0 0 0 0 1
Neighs:         415032 ave      499441 max      330623 min
Histogram: 1 0 0 0 0 0 0 0 0 1

Total # of neighbors = 830064
Ave neighs/atom = 275.86042
Ave special neighs/atom = 8.0392157
Neighbor list builds = 968
Dangerous builds = 0
unfix NVTRELAX

# --- 3. NPT equilibration (this is where the density finds its own value) ---
# restart files are written every 25000 steps. If the run stops for any
# reason you can pick up from the last one instead of starting over:
#     read_restart rst_a.lmp      (or rst_b.lmp, whichever is newer)
print "RENEU >>> stage 3 of 4: NPT equilibration - watch the density column"
RENEU >>> stage 3 of 4: NPT equilibration - watch the density column
restart 25000 rst_a.lmp rst_b.lmp
fix NPTEQ all npt temp ${TK} ${TK} 100 iso ${PBAR} ${PBAR} 1000
fix NPTEQ all npt temp 300 ${TK} 100 iso ${PBAR} ${PBAR} 1000
fix NPTEQ all npt temp 300 300 100 iso ${PBAR} ${PBAR} 1000
fix NPTEQ all npt temp 300 300 100 iso 1 ${PBAR} 1000
fix NPTEQ all npt temp 300 300 100 iso 1 1 1000
run ${EQRUN}
run 100000
PPPM initialization ...
  using 12-bit tables for long-range coulomb
  G vector (1/distance) = 0.2856638
  grid = 24 24 24
  stencil order = 5
  estimated absolute RMS force accuracy = 0.0030601846
  estimated relative force accuracy = 9.2156551e-06
  using double precision FFTW3
  3d grid and FFT values/proc = 18259 6912
Generated 91 of 91 mixed pair_coeff terms from geometric mixing rule
Per MPI rank memory allocation (min/avg/max) = 16.36 | 16.56 | 16.75 Mbytes
   Step          Temp          Press          Volume         v_dens         PotEng         TotEng    
     20000   299.0239      -1050.1295      44966.104      0.60000887    -10507.128     -8404.4728    
     21000   303.48451     -524.6093       41939.636      0.643307      -10549.847     -8415.8257    
     22000   293.02385      781.06575      38909.974      0.69339705    -10618.78      -8558.3155    
     23000   312.70277     -109.30741      36646.883      0.73621709    -10602.449     -8403.6074    
     24000   303.72317     -90.492482      35371.354      0.76276585    -10737.166     -8601.4668    
     25000   297.24147     -115.50211      34516.266      0.78166222    -10737.92      -8647.7979    
     26000   305.77764      87.732836      34466.959      0.78278044    -10731.147     -8581.001     
     27000   298.03549     -766.80528      33333.327      0.80940199    -10729.212     -8633.507     
     28000   303.43235      728.60652      32209.412      0.83764526    -10822.187     -8688.5321    
     29000   305.91637     -616.04867      32616.972      0.82717861    -10854.852     -8703.7303    
     30000   302.57376      556.99986      31890.87       0.84601207    -10819.726     -8692.1088    
     31000   288.55069     -548.10895      31759.452      0.84951281    -10800.291     -8771.28      
     32000   301.22293     -129.84292      31088.96       0.86783415    -10856.457     -8738.3382    
     33000   312.37466      739.82036      30555.209      0.88299382    -10943.859     -8747.3247    
     34000   305.01316     -205.44818      30569.076      0.88259329    -10902.573     -8757.8021    
     35000   301.36545     -1061.0429      31211.427      0.86442896    -10932.419     -8813.2979    
     36000   296.80575      1638.771       30533.222      0.88362967    -10922.569     -8835.5109    
     37000   298.75662     -1331.3188      30646.206      0.88037199    -10875.108     -8774.3317    
     38000   301.6166       564.03471      30329.968      0.88955125    -10936.907     -8816.0202    
     39000   307.75332     -228.33204      29811.145      0.9050327     -10988.841     -8824.8022    
     40000   300.7469      -988.70215      30113.197      0.89595471    -10908.46      -8793.6887    
     41000   295.87046     -899.21562      30207.133      0.89316853    -10956.786     -8876.3042    
     42000   295.50992      147.8265       29836.205      0.90427254    -10951.474     -8873.5281    
     43000   299.0978       69.02799       29693.893      0.90860639    -10977.42      -8874.2443    
     44000   308.49804     -411.82447      29328.531      0.91992541    -10957.016     -8787.7405    
     45000   298.87324      885.05387      29283.911      0.9213271     -10967.966     -8866.3693    
     46000   287.38357     -962.45226      29609.485      0.91119658    -11001.725     -8980.9211    
     47000   299.89257     -42.391601      29216.857      0.92344161    -10985.36      -8876.5958    
     48000   311.35939     -1302.3737      29099.67       0.92716039    -10964.895     -8775.4994    
     49000   295.28413      423.00146      29167.748      0.92499638    -10941.066     -8864.7072    
     50000   290.20396      385.48004      28981.863      0.93092914    -10984.426     -8943.7893    
     51000   303.12293      59.606482      28863.741      0.93473888    -11058.141     -8926.6616    
     52000   309.5795      -775.52987      28890.825      0.93386262    -10981.565     -8804.6856    
     53000   300.93971      92.640955      28844.148      0.93537382    -11039.94      -8923.8127    
     54000   301.47959      396.94929      28775.9        0.93759226    -10986.25      -8866.3264    
     55000   302.35253      33.419901      28895.342      0.93371662    -11001.072     -8875.0108    
     56000   302.01756      49.541803      28429.249      0.94902475    -11063.773     -8940.0668    
     57000   302.5477       269.32242      28687.421      0.94048401    -11077.146     -8949.7124    
     58000   299.79041     -278.65882      28996.386      0.93046288    -10954.024     -8845.9783    
     59000   301.88355      577.30113      28550.596      0.94499117    -11011.625     -8888.8614    
     60000   296.38691      254.52009      28763.525      0.93799563    -11064.77      -8980.6573    
     61000   301.27583     -962.28499      28835.395      0.93565775    -10988.845     -8870.3548    
     62000   294.62956      1452.1673      28912.659      0.93315736    -11017.895     -8946.1396    
     63000   297.84721      183.80136      28718.03       0.9394816     -11007.292     -8912.9102    
     64000   306.59937      250.9212       28937.722      0.93234918    -11028.164     -8872.2402    
     65000   309.68413     -521.322        28515.503      0.94615415    -11047.093     -8869.4774    
     66000   304.45674      153.18958      28896.795      0.93366967    -11041.287     -8900.4291    
     67000   300.85571      601.28343      27915.836      0.96647872    -11025.791     -8910.2547    
     68000   299.86779     -314.8838       28386.592      0.95045089    -11094.398     -8985.8087    
     69000   305.36567      77.60642       28169.44       0.9577777     -11069.088     -8921.8383    
     70000   296.37716      522.19238      28637.206      0.94213316    -11016.728     -8932.6836    
     71000   295.46213      1300.8398      28684.857      0.94056809    -11012.065     -8934.4544    
     72000   305.71915      417.32116      28180.836      0.95739037    -11016.069     -8866.3346    
     73000   305.99241      72.197833      28444.629      0.94851163    -11065.812     -8914.1556    
     74000   297.88874     -257.66369      28566.353      0.94446991    -11041.452     -8946.7783    
     75000   305.20613      782.8046       28487.243      0.94709275    -11030.974     -8884.8467    
     76000   301.20645      444.31118      28173.162      0.95765117    -11102.162     -8984.1589    
     77000   309.64022      44.685504      28447.794      0.9484061     -11034.043     -8856.7365    
     78000   298.43864      154.27425      28074.143      0.96102885    -11074.614     -8976.0738    
     79000   305.42131     -195.33611      28306.486      0.95314059    -11072.082     -8924.4413    
     80000   306.36161     -300.82699      27920.725      0.96630947    -11045.582     -8891.3299    
     81000   296.44199      1298.3038      28074.651      0.96101147    -11108.551     -9024.0511    
     82000   305.10936      877.99381      28307.526      0.95310557    -11061.936     -8916.4894    
     83000   298.90703     -474.59703      28200.286      0.95673004    -11100.922     -8999.0882    
     84000   298.62139      1101.5603      28390.317      0.95032618    -11093.244     -8993.4186    
     85000   312.75564     -368.3437       28545.21       0.94516947    -11037.601     -8838.3871    
     86000   302.20117     -1308.9666      28154.282      0.95829335    -11126.978     -9001.9804    
     87000   308.03318      161.08276      28106.84       0.95991087    -11071.555     -8905.5481    
     88000   300.23136      899.62423      27853.051      0.96865731    -11078.228     -8967.0819    
     89000   297.66449      662.2881       28014.856      0.96306262    -11168.401     -9075.3046    
     90000   294.24052      193.24148      28153.931      0.95830531    -11096.922     -9027.9017    
     91000   296.4825      -7.1678537      28177.161      0.95751523    -11119.724     -9034.9385    
     92000   296.04614     -152.06175      28088.943      0.96052246    -11085.838     -9004.1216    
     93000   294.43395      334.26887      28204.331      0.95659285    -11084.51      -9014.1301    
     94000   299.64829      926.8955       28103.548      0.96002331    -11095.869     -8988.8227    
     95000   300.66491      163.19739      27979.963      0.96426365    -11087.055     -8972.8606    
     96000   298.82226     -665.51438      28228.251      0.95578226    -11031.18      -8929.9424    
     97000   302.58426      432.64945      28152.729      0.95834619    -11123.907     -8996.2157    
     98000   305.04562      2250.8173      27804.692      0.97034203    -11104.095     -8959.0961    
     99000   294.3498      -164.83606      28070.32       0.96115971    -11102.84      -9033.0512    
    100000   305.21832      42.079486      28247.001      0.9551478     -11130.103     -8983.8895    
    101000   301.05546      934.05095      28045.864      0.96199785    -11108.813     -8991.872     
    102000   298.01068      14.817776      27824.907      0.96963705    -11139.946     -9044.4155    
    103000   294.13192     -550.71418      28483.629      0.94721292    -11051.138     -8982.8816    
    104000   302.87924     -167.78485      27855.829      0.9685607     -11131.032     -9001.267     
    105000   299.92088     -672.89177      27993.101      0.96381109    -11066.016     -8957.0533    
    106000   310.61861     -872.52449      28234.844      0.95555908    -11074.713     -8890.5264    
    107000   300.46631      83.997467      28116.805      0.95957066    -11123.994     -9011.1955    
    108000   298.17393     -427.03219      27909.648      0.966693      -11043.15      -8946.4714    
    109000   292.96931     -180.15534      28013.503      0.96310914    -11105.671     -9045.59      
    110000   303.32461      1379.6829      28170.627      0.95773734    -11053.122     -8920.2245    
    111000   299.34873     -489.37856      28353.851      0.95154837    -11135.028     -9030.0886    
    112000   297.10058     -68.967094      28165.327      0.95791754    -11101.652     -9012.5202    
    113000   296.44543      104.8249       27705.615      0.97381201    -11032.461     -8947.9362    
    114000   298.80023      465.5959       28178.674      0.95746383    -11105.788     -9004.7047    
    115000   302.51412     -51.60144       28148.338      0.95849572    -11092.975     -8965.7774    
    116000   302.65624      1418.0894      28144.862      0.95861408    -11087.994     -8959.797     
    117000   305.34082      906.24619      28186.154      0.95720973    -11112.551     -8965.4769    
    118000   296.27463     -265.15438      27756.895      0.97201293    -11075.011     -8991.6873    
    119000   291.15816      206.39021      28430.017      0.94899911    -11020.674     -8973.3278    
    120000   287.5018      -678.27154      28134.771      0.95895792    -11090.751     -9069.1162    
Loop time of 6877.15 on 2 procs for 100000 steps with 3009 atoms

Performance: 1.256 ns/day, 19.103 hours/ns, 14.541 timesteps/s, 43.754 katom-step/s
98.4% CPU use with 2 MPI tasks x 1 OpenMP threads

MPI task timing breakdown:
Section |  min time  |  avg time  |  max time  |%varavg| %total
---------------------------------------------------------------
Pair    | 3777       | 3860.4     | 3943.8     | 134.2 | 56.13
Bond    | 238.6      | 242.71     | 246.82     |  26.4 |  3.53
Kspace  | 1581       | 1669.4     | 1757.7     | 216.3 | 24.27
Neigh   | 326.54     | 326.82     | 327.1      |   1.5 |  4.75
Comm    | 165.37     | 166.26     | 167.16     |   7.0 |  2.42
Output  | 0.072621   | 0.099415   | 0.12621    |   8.5 |  0.00
Modify  | 543.24     | 543.45     | 543.66     |   0.9 |  7.90
Other   |            | 68.02      |            |       |  0.99

Nlocal:         1504.5 ave        1556 max        1453 min
Histogram: 1 0 0 0 0 0 0 0 0 1
Nghost:          10829 ave       11015 max       10643 min
Histogram: 1 0 0 0 0 0 0 0 0 1
Neighs:         582010 ave      594427 max      569592 min
Histogram: 1 0 0 0 0 0 0 0 0 1

Total # of neighbors = 1164019
Ave neighs/atom = 386.8458
Ave special neighs/atom = 8.0392157
Neighbor list builds = 3974
Dangerous builds = 0
unfix NPTEQ
write_data data.after_equilibration.lmp
System init for write_data ...
PPPM initialization ...
  using 12-bit tables for long-range coulomb
  G vector (1/distance) = 0.29776254
  grid = 24 24 24
  stencil order = 5
  estimated absolute RMS force accuracy = 0.0019108749
  estimated relative force accuracy = 5.7545429e-06
  using double precision FFTW3
  3d grid and FFT values/proc = 18259 6912
Generated 91 of 91 mixed pair_coeff terms from geometric mixing rule

# --- 4. NPT production - this is the trajectory you analyse ----------------
print "RENEU >>> stage 4 of 4: NPT production"
RENEU >>> stage 4 of 4: NPT production
reset_timestep 0
fix NPTPROD all npt temp ${TK} ${TK} 100 iso ${PBAR} ${PBAR} 1000
fix NPTPROD all npt temp 300 ${TK} 100 iso ${PBAR} ${PBAR} 1000
fix NPTPROD all npt temp 300 300 100 iso ${PBAR} ${PBAR} 1000
fix NPTPROD all npt temp 300 300 100 iso 1 ${PBAR} 1000
fix NPTPROD all npt temp 300 300 100 iso 1 1 1000
fix DENSAVG all ave/time 10 100 1000 v_dens v_vol file density.dat

dump TRAJ all custom 500 dump.lammpstrj id mol type element q xu yu zu
dump_modify TRAJ element N C H C H C H H C C O C H O

run ${PRODRUN}
run 200000
PPPM initialization ...
  using 12-bit tables for long-range coulomb
  G vector (1/distance) = 0.29776254
  grid = 24 24 24
  stencil order = 5
  estimated absolute RMS force accuracy = 0.0019108749
  estimated relative force accuracy = 5.7545429e-06
  using double precision FFTW3
  3d grid and FFT values/proc = 18259 6912
Generated 91 of 91 mixed pair_coeff terms from geometric mixing rule
Per MPI rank memory allocation (min/avg/max) = 17.18 | 17.18 | 17.18 Mbytes
   Step          Temp          Press          Volume         v_dens         PotEng         TotEng    
         0   287.5018      -719.02615      28134.771      0.95895792    -11090.737     -9069.1019    
      1000   300.15638     -477.95291      28014.456      0.9630764     -11124.47      -9013.8511    
      2000   304.44918      288.90118      27943.518      0.96552126    -11086.908     -8946.1034    
      3000   299.45021     -451.39919      28238.765      0.95542638    -11002.546     -8896.8932    
      4000   297.1684      -426.02834      27781.165      0.97116376    -11149.747     -9060.139     
      5000   300.03014     -297.42667      28388.304      0.95039356    -11060.101     -8950.3698    
      6000   305.90696     -273.5794       28197.227      0.95683385    -11182.203     -9031.1471    
      7000   302.92905     -261.13951      28510.905      0.94630672    -11026.485     -8896.3693    
      8000   297.40666      741.72308      28358.313      0.95139866    -11069.689     -8978.4056    
      9000   293.67403      125.6506       28677.688      0.94080323    -11011.064     -8946.0275    
     10000   299.20875     -564.0345       28618.497      0.94274906    -11075.506     -8971.5508    
     11000   294.50655     -963.36901      28368.665      0.95105148    -11103.966     -9033.0752    
     12000   302.59351      611.0093       28163.466      0.95798084    -11068.981     -8941.2245    
     13000   298.99641      1012.1063      28020.822      0.9628576     -11096.516     -8994.0534    
     14000   299.81509      962.64817      28171.366      0.9577122     -11041.676     -8933.4566    
     15000   308.03252      608.93748      28233.038      0.95562018    -11114.752     -8948.7498    
     16000   308.29471      1811.2185      28487.442      0.94708611    -11050.659     -8882.8134    
     17000   305.21546     -1254.3692      28201.84       0.95667732    -11106.562     -8960.369     
     18000   304.94787      744.90152      28503.623      0.94654847    -11125.009     -8980.698     
     19000   298.08926      1626.8118      28087.455      0.96057337    -11118.618     -9022.5343    
     20000   292.62669      214.43146      28320.547      0.95266739    -11081.983     -9024.3105    
     21000   295.52514      0.16328889     28124.744      0.9592998     -11066.878     -8988.825     
     22000   301.59067      2.2517365      28217.062      0.95616126    -11146.971     -9026.2668    
     23000   295.55528      713.83594      28271.264      0.95432809    -11066.271     -8988.0062    
     24000   298.71511      66.989717      28293.162      0.95358947    -11088.18      -8987.696     
     25000   311.94967      534.13507      28009.714      0.96323944    -11126.028     -8932.4819    
     26000   295.19355      365.91682      28228          0.95579073    -11083.618     -9007.8962    
     27000   301.0871      -1956.8184      27902.275      0.96694845    -11182.927     -9065.7631    
     28000   303.64833      1451.3075      28308.122      0.95308553    -11090.113     -8954.9397    
     29000   289.13446     -337.34715      28500.529      0.94665125    -11100.116     -9067.0001    
     30000   299.70424      261.87977      28277.455      0.95411913    -11081.684     -8974.2439    
     31000   308.8366      -479.21252      27983.668      0.96413597    -11084.984     -8913.3283    
     32000   302.32117      1818.7214      27923.264      0.96622162    -11022.837     -8896.9954    
     33000   299.26014     -41.611638      28239.667      0.95539586    -11099.118     -8994.8015    
     34000   296.8075       922.89652      28104.322      0.95999686    -11052.659     -8965.5885    
     35000   300.9318      -515.97115      27866.743      0.96818137    -11085.804     -8969.733     
     36000   301.84843     -0.60854243     28323.851      0.95255625    -11046.263     -8923.7456    
     37000   293.87065      72.949129      28082.236      0.96075188    -11056.098     -8989.6784    
     38000   305.55389     -42.334171      28224.957      0.9558938     -11050.599     -8902.026     
     39000   299.72691     -923.2044       28056.938      0.96161817    -11126.401     -9018.8018    
     40000   309.38112      495.17379      27956.738      0.96506469    -11079.11      -8903.625     
     41000   294.33872     -453.29257      27983.85       0.96412969    -11098.43      -9028.7192    
     42000   298.62213      730.06632      28024.901      0.96271744    -11036.55      -8936.72      
     43000   303.01757      1199.4574      27837.373      0.96920285    -11150.013     -9019.2754    
     44000   309.85537     -99.932074      28304.181      0.95321822    -11042.754     -8863.934     
     45000   300.39254     -1505.1812      28163.167      0.95799103    -11146.371     -9034.0916    
     46000   297.16617      1026.415       27795.833      0.97065128    -11082.732     -8993.1397    
     47000   299.30033     -467.15745      28191.405      0.95703143    -11094.865     -8990.2654    
     48000   290.78184     -161.85645      28146.567      0.95855603    -11126.756     -9082.0566    
     49000   307.95008      729.28377      28061.606      0.96145819    -11108.296     -8942.8742    
     50000   296.67646     -230.03233      28166.782      0.95786806    -11158.847     -9072.698     
     51000   301.24891      739.17147      28257.297      0.95479978    -11083.415     -8965.1133    
     52000   297.63645      312.15525      28288.229      0.95375575    -11117.105     -9024.2054    
     53000   297.05555     -1386.1532      28564.519      0.94453057    -11082.53      -8993.7155    
     54000   291.03077     -1253.9846      28183.198      0.95731013    -11102.443     -9055.9927    
     55000   294.11581     -665.71675      28110.959      0.9597702     -11128.295     -9060.1515    
     56000   300.22988      1050.7664      28111.213      0.95976154    -11068.48      -8957.3446    
     57000   302.4408       1094.3458      27881.802      0.96765843    -11146.629     -9019.9467    
     58000   300.22008      143.80493      28138.959      0.95881518    -11157.564     -9046.4974    
     59000   310.07395      338.07226      28154.426      0.95828846    -11121.015     -8940.6588    
     60000   303.02198     -97.535586      28264.467      0.95455757    -11150.936     -9020.1673    
     61000   300.7491       609.50254      28238.522      0.95543461    -11113.131     -8998.3446    
     62000   295.70553      1104.221       28255.62       0.95485645    -11131.126     -9051.8047    
     63000   302.27556      802.1855       28178.551      0.957468      -11122.143     -8996.6224    
     64000   297.2942       364.22089      28254.241      0.95490307    -11093.288     -9002.7955    
     65000   295.23097     -843.31191      27914.732      0.96651695    -11106.236     -9030.2514    
     66000   302.00519      26.263437      28079.813      0.96083478    -11115.447     -8991.8282    
     67000   298.3038      -584.48931      27888.75       0.96741737    -11183.35      -9085.7583    
     68000   302.25415     -102.53422      28078.651      0.96087455    -11098.392     -8973.0217    
     69000   297.5711      -337.91076      27884.572      0.9675623     -11147.838     -9055.3981    
     70000   291.65885     -1343.8957      27913.244      0.96656844    -11166.526     -9115.659     
     71000   303.11148     -824.36815      28213.524      0.95628115    -11149.146     -9017.7472    
     72000   292.89361     -314.57396      28123.745      0.95933386    -11111.274     -9051.7249    
     73000   304.47276      767.24001      28242.936      0.95528529    -11011.362     -8870.3913    
     74000   297.08747      1293.0798      28007.916      0.96330126    -11156.056     -9067.0173    
     75000   306.68551     -226.33653      27926.324      0.96611573    -11088.437     -8931.9075    
     76000   301.39507     -1295.6577      27889.411      0.96739444    -11128.051     -9008.7215    
     77000   295.89411     -1073.7048      28024.567      0.96272892    -11162.88      -9082.2322    
     78000   302.31226      1184.5546      27803.763      0.97037445    -11130.872     -9005.0935    
     79000   291.79817      14.114178      27727.555      0.97304147    -11187.254     -9135.4073    
     80000   302.22962     -796.21587      27794.592      0.97069462    -11125.081     -8999.8832    
     81000   303.54554     -1283.3649      28103.59       0.96002187    -11125.448     -8990.9975    
     82000   292.49506     -512.22353      28048.416      0.96191032    -11148.822     -9092.0752    
     83000   304.61225      206.25702      27753.012      0.97214893    -11147.097     -9005.1457    
     84000   298.48638     -35.34434       27908.055      0.96674817    -11193.989     -9095.1131    
     85000   300.22218     -540.6477       27945.378      0.96545702    -11116.115     -9005.0333    
     86000   294.57194     -1798.4287      27613.376      0.97706493    -11172.923     -9101.5725    
     87000   305.59063      770.10074      27806.475      0.97027982    -11163.242     -9014.4113    
     88000   300.7021       856.98661      27669.548      0.97508138    -11138.386     -9023.9298    
     89000   303.0148       849.72079      27655.25       0.9755855     -11119.421     -8988.7023    
     90000   300.33586      711.95535      28163.045      0.95799518    -11127.713     -9015.8323    
     91000   298.17214      297.01311      27958.096      0.96501783    -11188.086     -9091.4193    
     92000   307.04283      1010.1187      28187.294      0.95717103    -11194.159     -9035.1163    
     93000   298.25776      184.59012      28255.977      0.95484439    -11112.161     -9014.8924    
     94000   306.92017      443.53827      27917.292      0.9664283     -11072.731     -8914.5512    
     95000   295.58293      643.44679      27825.614      0.96961244    -11123.323     -9044.8639    
     96000   310.88651      229.73997      27978.997      0.96429693    -11117.744     -8931.6738    
     97000   297.55235     -1160.3353      27867.667      0.96814925    -11128.424     -9036.1161    
     98000   299.12552      155.06305      28017.091      0.96298582    -11166.478     -9063.1076    
     99000   298.4996      -419.54637      27684.669      0.97454882    -11150.281     -9051.3125    
    100000   300.91082      1091.2613      27819.47       0.96982655    -11112.532     -8996.6086    
    101000   298.87506      113.84475      28199.722      0.9567492     -11050.15      -8948.541     
    102000   299.89891     -769.20874      28039.71       0.96220899    -11114.271     -9005.4626    
    103000   291.30712     -1223.4857      28224.254      0.95591759    -11062.367     -9013.974     
    104000   300.19686     -1946.4169      28162.728      0.95800597    -11150.347     -9039.4432    
    105000   304.69452      1218.1344      27687.946      0.97443346    -11197.439     -9054.9096    
    106000   295.68549      3.6337192      27806.826      0.97026757    -11121.737     -9042.5559    
    107000   296.67469      332.67674      27913.244      0.96656845    -11089.517     -9003.3806    
    108000   296.75747      120.54858      28227.421      0.95581036    -11119.626     -9032.9077    
    109000   307.97276     -577.7028       27939.649      0.96565498    -11184.185     -9018.6035    
    110000   307.26528      621.2364       27855.908      0.96855795    -11167.587     -9006.9801    
    111000   295.0517      -136.80288      28040.123      0.96219482    -11153.706     -9078.9817    
    112000   299.03516      767.05929      27788.948      0.97089177    -11182.648     -9079.9127    
    113000   302.5727       1546.4997      27699.351      0.97403223    -11114.357     -8986.7473    
    114000   304.96548     -509.56891      27674.049      0.9749228     -11170.945     -9026.5099    
    115000   293.00967     -32.835631      27724.879      0.9731354     -11119.978     -9059.613     
    116000   305.95683     -1493.4553      27877.349      0.96781302    -11130.581     -8979.1744    
    117000   304.04709     -563.7623       27964.219      0.96480654    -11189.971     -9051.9938    
    118000   289.65923     -1051.4009      27915.871      0.96647751    -11184.971     -9148.1649    
    119000   303.85957     -370.60489      27892.919      0.96727276    -11131.799     -8995.1404    
    120000   296.84473      171.36182      27924.121      0.96619196    -11195.354     -9108.0215    
    121000   308.23441      70.084229      28005.818      0.96337345    -11163.277     -8995.8554    
    122000   293.96487      924.12602      27883.314      0.96760596    -11216.553     -9149.4715    
    123000   293.64279     -678.1404       27996.073      0.96370879    -11135.479     -9070.6619    
    124000   292.4751      -654.01002      28111.62       0.95974765    -11145.129     -9088.5231    
    125000   293.26127     -807.73147      27859.452      0.96843473    -11070.237     -9008.1029    
    126000   295.73441     -536.0348       27934.28       0.96584059    -11092.959     -9013.4341    
    127000   295.58325      835.05048      27926.185      0.96612056    -11174.749     -9096.2869    
    128000   298.83102     -723.01472      28118.959      0.95949714    -11148.735     -9047.4356    
    129000   302.45956     -1681.4744      27862.283      0.96833635    -11182.816     -9056.0014    
    130000   306.19522      196.30798      28097.726      0.96022223    -11200.782     -9047.6994    
    131000   306.71644     -95.47834       28191.806      0.95701782    -11134.109     -8977.3613    
    132000   294.2936       1510.6892      27906.316      0.96680842    -11149.185     -9079.7914    
    133000   303.01685     -43.12969       27956.678      0.96506678    -11162.785     -9032.052     
    134000   297.27788     -1460.6454      27992.282      0.9638393     -11123.298     -9032.9199    
    135000   292.18958      158.04243      27849.97       0.96876446    -11171.241     -9116.6428    
    136000   299.14891     -1689.0481      28297.693      0.95343676    -11185.837     -9082.3029    
    137000   296.26907     -495.88266      28051.466      0.96180575    -11205.41      -9122.1259    
    138000   295.89792     -480.47445      27641.429      0.97607331    -11156.114     -9075.4392    
    139000   298.89117      83.237447      28103.803      0.96001459    -11233.108     -9131.3862    
    140000   295.44736     -1218.9372      28036.655      0.96231385    -11153.002     -9075.496     
    141000   300.27748      223.50079      28017.006      0.96298872    -11175.888     -9064.4178    
    142000   288.19467     -12.718107      27983.671      0.96413586    -11168.862     -9142.3545    
    143000   293.91229     -763.46758      28055.157      0.96167922    -11128.734     -9062.0222    
    144000   304.31124     -331.61517      27846.608      0.96888144    -11186.954     -9047.1194    
    145000   301.60581      329.8978       27686.539      0.974483      -11233.383     -9112.5721    
    146000   294.92419      179.92435      28018.179      0.96294842    -11130.933     -9057.105     
    147000   309.1947      -480.76183      27910.709      0.96665625    -11164.237     -8990.0634    
    148000   293.98643     -1099.6318      28027.044      0.96264382    -11180.797     -9113.5639    
    149000   303.09797     -1556.1372      27947.675      0.96537767    -11116.477     -8985.1733    
    150000   299.67376      338.66779      28065.794      0.96131474    -11144.049     -9036.8234    
    151000   295.69649      178.12122      27896.787      0.96713867    -11108.948     -9029.6899    
    152000   297.77791      766.81938      27836.64       0.96922836    -11114.752     -9020.8578    
    153000   294.92847      483.5476       27893.946      0.96723717    -11212.295     -9138.437     
    154000   294.91314     -298.07475      27937.612      0.96572539    -11136.4       -9062.6498    
    155000   303.3769       1126.9325      28098.086      0.96020992    -11143.791     -9010.5259    
    156000   297.46421     -471.23926      27971.206      0.96456555    -11195.911     -9104.2223    
    157000   306.81065      1018.4684      28326.799      0.9524571     -11130.699     -8973.2894    
    158000   301.70001      228.13917      28117.186      0.95955766    -11174.008     -9052.5348    
    159000   303.50181      277.7729       28412.187      0.94959465    -11111.642     -8977.4986    
    160000   291.7664      -477.96371      28179.453      0.95743736    -11121.977     -9070.3542    
    161000   302.15587      263.6044       28233.729      0.95559679    -11088.543     -8963.8641    
    162000   295.91008     -449.65385      28102.683      0.96005284    -11082.235     -9001.4752    
    163000   297.95561      387.11308      28269.003      0.95440441    -11122.815     -9027.671     
    164000   307.22018     -368.25355      28120.567      0.95944228    -11106.941     -8946.6519    
    165000   300.35656     -243.22181      27991.476      0.96386705    -11114.297     -9002.2708    
    166000   304.24973      1635.4317      27943.188      0.96553269    -11172.653     -9033.2505    
    167000   298.59862      726.2967       27681.759      0.97465126    -11181.382     -9081.7173    
    168000   288.83462      1923.8649      27664.651      0.975254      -11111.54      -9080.5329    
    169000   294.43627      975.29064      27774.525      0.97139594    -11195.298     -9124.9018    
    170000   300.52926     -29.293402      27799.635      0.97051855    -11092.237     -8978.9958    
    171000   299.52542     -185.4665       27748.516      0.97230646    -11131.996     -9025.8137    
    172000   309.25545      425.19409      28006.722      0.96334234    -11177.695     -9003.094     
    173000   304.86354      521.80997      27696.524      0.97413166    -11170.061     -9026.343     
    174000   301.12269      333.39581      27500.939      0.98105962    -11218.029     -9100.6156    
    175000   303.24704      185.41264      27686.094      0.97449863    -11172.679     -9040.3276    
    176000   294.22294     -13.373701      27777.75       0.97128316    -11196.187     -9127.2906    
    177000   294.22863     -64.412241      28012.3        0.9631505     -11154.789     -9085.852     
    178000   304.38843     -556.75379      27884.73       0.96755684    -11149.925     -9009.5476    
    179000   304.01591     -1364.0089      27794.966      0.97068156    -11113.444     -8975.6855    
    180000   293.37405      402.48995      27963.374      0.9648357     -11152.896     -9089.9681    
    181000   303.47487     -264.51689      27880.396      0.96770724    -11164.379     -9030.4259    
    182000   311.37387      536.9997       28020.876      0.96285575    -11162.012     -8972.5152    
    183000   303.70923      940.66628      27791.433      0.97080498    -11200.051     -9064.4496    
    184000   303.06506      43.242769      27602.784      0.97743984    -11168.675     -9037.6028    
    185000   293.23567     -909.67251      28042.692      0.96210667    -11166.288     -9104.3338    
    186000   302.21291     -578.28754      28123.948      0.95932695    -11116.427     -8991.3468    
    187000   298.54021     -1297.7996      28144.021      0.95864274    -11111.431     -9012.1762    
    188000   302.23418      1326.2359      27915.489      0.96649074    -11160.2       -9034.9706    
    189000   303.01805      211.86575      28328.954      0.95238464    -11093.535     -8962.7938    
    190000   292.97154      108.61498      28090.626      0.96046493    -11178.915     -9118.8183    
    191000   294.80722      1481.812       28208.478      0.95645221    -11160.17      -9087.1648    
    192000   299.09062     -31.990908      27929.596      0.96600255    -11143.002     -9039.8774    
    193000   297.71095      638.50607      27753.694      0.97212505    -11197.589     -9104.1657    
    194000   295.66589      457.6629       28004.612      0.96341491    -11104.882     -9025.8389    
    195000   293.3498       275.48844      28185.613      0.95722812    -11175.626     -9112.8692    
    196000   297.78399      636.63311      27807.722      0.97023629    -11176.39      -9082.4532    
    197000   287.85138     -150.29648      28182.35       0.95733893    -11159.784     -9135.6903    
    198000   299.33399      2019.2608      27734.404      0.97280118    -11155.55      -9050.7143    
    199000   298.07415      479.79163      27910.948      0.96664796    -11179.031     -9083.0542    
    200000   298.62829      1565.8874      28022.789      0.96279       -11157.57      -9057.6963    
Loop time of 16170.2 on 2 procs for 200000 steps with 3009 atoms

Performance: 1.069 ns/day, 22.459 hours/ns, 12.368 timesteps/s, 37.217 katom-step/s
98.0% CPU use with 2 MPI tasks x 1 OpenMP threads

MPI task timing breakdown:
Section |  min time  |  avg time  |  max time  |%varavg| %total
---------------------------------------------------------------
Pair    | 8922.8     | 8966.4     | 9010       |  46.1 | 55.45
Bond    | 524.14     | 529.15     | 534.15     |  21.8 |  3.27
Kspace  | 3998.4     | 4037       | 4075.6     |  60.7 | 24.97
Neigh   | 689.54     | 689.8      | 690.06     |   1.0 |  4.27
Comm    | 462.89     | 464.52     | 466.16     |   7.6 |  2.87
Output  | 39.024     | 39.318     | 39.611     |   4.7 |  0.24
Modify  | 1261.1     | 1262.1     | 1263.1     |   2.9 |  7.81
Other   |            | 181.9      |            |       |  1.12

Nlocal:         1504.5 ave        1521 max        1488 min
Histogram: 1 0 0 0 0 0 0 0 0 1
Nghost:        10864.5 ave       10954 max       10775 min
Histogram: 1 0 0 0 0 0 0 0 0 1
Neighs:         584122 ave      593600 max      574644 min
Histogram: 1 0 0 0 0 0 0 0 0 1

Total # of neighbors = 1168244
Ave neighs/atom = 388.24992
Ave special neighs/atom = 8.0392157
Neighbor list builds = 7820
Dangerous builds = 0

write_data data.final.lmp
System init for write_data ...
PPPM initialization ...
  using 12-bit tables for long-range coulomb
  G vector (1/distance) = 0.29786301
  grid = 24 24 24
  stencil order = 5
  estimated absolute RMS force accuracy = 0.0019032596
  estimated relative force accuracy = 5.7316097e-06
  using double precision FFTW3
  3d grid and FFT values/proc = 18259 6912
Generated 91 of 91 mixed pair_coeff terms from geometric mixing rule
print "RENEU >>> finished. trajectory = dump.lammpstrj, density log = density.dat"
RENEU >>> finished. trajectory = dump.lammpstrj, density log = density.dat
Total wall time: 6:40:41
