25
octanoate reneu.ff
C            0.000000        0.000000        0.000000
C            1.531000        0.000000        0.000000
O           -0.569047       -1.126423        0.000000
O           -0.513954        1.154793       -0.000101
C            2.152567       -1.391485        0.000437
H            1.869464        0.553485        0.884593
H            1.869664        0.553605       -0.884442
C            3.677289       -1.329046        0.000591
H            1.811201       -1.948468       -0.880839
H            1.810898       -1.948326        0.881686
C            4.268116       -2.737113        0.000754
H            4.027066       -0.780240        0.883697
H            4.027353       -0.780261       -0.882415
C            5.792444       -2.691819        0.000909
H            3.915064       -3.284958       -0.881646
H            3.914884       -3.284750        0.883210
C            6.383718       -4.098611        0.003035
H            6.144160       -2.142291        0.882795
H            6.144250       -2.144765       -0.882478
C            7.900893       -4.048576        0.001227
H            6.036893       -4.650849       -0.877852
H            6.038839       -4.647227        0.886944
H            8.314904       -5.061210        0.002824
H            8.272309       -3.529031       -0.887006
H            8.274270       -3.525474        0.886545
