LAMMPS (10 Dec 2025)
OMP_NUM_THREADS environment is not set. Defaulting to 1 thread.
  using 1 OpenMP thread(s) per MPI task
# created by fftool

units real
boundary p p p

atom_style full
bond_style harmonic
angle_style harmonic
dihedral_style opls

special_bonds lj/coul 0.0 0.0 0.5

# remove hybrid if not necessary
pair_style hybrid lj/cut/coul/long 10.0 10.0
pair_modify mix geometric tail yes
read_data data.lmp
Reading data file ...
  orthogonal box = (0 0 0) to (32.08 32.08 32.08)
  1 by 1 by 2 MPI processor grid
  reading atoms ...
  2220 atoms
  scanning bonds ...
  1 = max bonds/atom
  scanning angles ...
  6 = max angles/atom
  scanning dihedrals ...
  9 = max dihedrals/atom
  orthogonal box = (0 0 0) to (32.08 32.08 32.08)
  1 by 1 by 2 MPI processor grid
  reading bonds ...
  2072 bonds
  reading angles ...
  3774 angles
  reading dihedrals ...
  4514 dihedrals
Finding 1-2 1-3 1-4 neighbors ...
  special bond factors lj:    0        0        0.5     
  special bond factors coul:  0        0        0.5     
     4 = max # of 1-2 neighbors
     9 = max # of 1-3 neighbors
    18 = max # of 1-4 neighbors
    22 = max # of special neighbors
  special bonds CPU = 0.003 seconds
  read_data CPU = 0.192 seconds
# read_restart restart1.lmp

kspace_style pppm 1.0e-5

# remove pair style if not using hybrid
pair_coeff    1    1 lj/cut/coul/long     0.170000     3.250000  # N3 N3
pair_coeff    2    2 lj/cut/coul/long     0.065999     3.500000  # C1 C1
pair_coeff    3    3 lj/cut/coul/long     0.000000     1.000000  # H3 H3
pair_coeff    4    4 lj/cut/coul/long     0.065999     3.500000  # CE CE
pair_coeff    5    5 lj/cut/coul/long     0.030000     2.500000  # H1 H1
pair_coeff    6    6 lj/cut/coul/long     0.030000     2.500000  # HC HC
pair_coeff    7    7 lj/cut/coul/long     0.105000     3.750000  # CO2 CO2
pair_coeff    8    8 lj/cut/coul/long     0.065999     3.500000  # CTA CTA
pair_coeff    9    9 lj/cut/coul/long     0.210000     2.960000  # O2 O2

# minimize 1.0e-4 1.0e-6 100 1000
# reset_timestep 0

fix SHAKE all shake 0.0001 20 0 b 2 4
Finding SHAKE clusters ...
      74 = # of size 2 clusters
     222 = # of size 3 clusters
     296 = # of size 4 clusters
       0 = # of frozen angles
  find clusters CPU = 0.008 seconds

neighbor 2.0 bin
neigh_modify delay 0 every 1 check yes








#fix VAVG all ave/time 10 1000 50000 v_vinst

# ---------------------------------------------------------------------------
# RENEU 2026 simulation protocol (stage1 M6 triethylammonium acetate)
# 1 minimise  2 NVT relaxation  3 NPT equilibration  4 NPT production
# ---------------------------------------------------------------------------
timestep 1.0

variable TK      equal 300.0
variable PBAR    equal 1.0
variable NVTRUN  equal 20000
variable EQRUN   equal 100000
variable PRODRUN equal 200000

variable dens equal density
variable vol  equal vol

thermo 1000
thermo_style custom step temp press vol v_dens pe etotal

# --- 1. energy minimisation ------------------------------------------------
print "RENEU >>> stage 1 of 4: energy minimisation"
RENEU >>> stage 1 of 4: energy minimisation
minimize 1.0e-4 1.0e-6 10000 100000
PPPM initialization ...
  using 12-bit tables for long-range coulomb
  G vector (1/distance) = 0.27933629
  grid = 20 20 20
  stencil order = 5
  estimated absolute RMS force accuracy = 0.0022909412
  estimated relative force accuracy = 6.8991014e-06
  using double precision FFTW3
  3d grid and FFT values/proc = 12393 4000
Generated 36 of 36 mixed pair_coeff terms from geometric mixing rule
WARNING: Using fix shake with minimization.
  Substituting constraints with harmonic restraint forces using kbond=1987206.7 (src/RIGID/fix_shake.cpp:397)
Neighbor list info ...
  update: every = 1 steps, delay = 0 steps, check = yes
  max neighbors/atom: 2000, page size: 100000
  master list distance cutoff = 12
  ghost atom cutoff = 12
  binsize = 6, bins = 6 6 6
  1 neighbor lists, perpetual/occasional/extra = 1 0 0
  (1) pair lj/cut/coul/long, perpetual
      attributes: half, newton on
      pair build: half/bin/newton
      stencil: half/bin/3d
      bin: standard
Per MPI rank memory allocation (min/avg/max) = 16.46 | 16.46 | 16.46 Mbytes
   Step          Temp          Press          Volume         v_dens         PotEng         TotEng    
         0   0             -10783434       33014.375      0.60015573     107159.3       107159.3     
        15   0             -36737.121      33014.375      0.60015573     345.83238      345.83238    
Loop time of 2.12002 on 2 procs for 15 steps with 2220 atoms

97.6% CPU use with 2 MPI tasks x 1 OpenMP threads

Minimization stats:
  Stopping criterion = energy tolerance
  Energy initial, next-to-last, final = 
      107159.300498693   345.851027955667   345.832381412902
  Force two-norm initial, final = 1216189.2 4333.9802
  Force max component initial, final = 75373.281 214.66532
  Final line search alpha, max atom move = 2.8979858e-05 0.0062209705
  Iterations, force evaluations = 15 72

MPI task timing breakdown:
Section |  min time  |  avg time  |  max time  |%varavg| %total
---------------------------------------------------------------
Pair    | 1.4857     | 1.4871     | 1.4884     |   0.1 | 70.14
Bond    | 0.099248   | 0.106      | 0.11275    |   2.1 |  5.00
Kspace  | 0.44107    | 0.44969    | 0.45832    |   1.3 | 21.21
Neigh   | 0          | 0          | 0          |   0.0 |  0.00
Comm    | 0.040195   | 0.040608   | 0.041021   |   0.2 |  1.92
Output  | 0          | 0          | 0          |   0.0 |  0.00
Modify  | 0.022551   | 0.022632   | 0.022713   |   0.1 |  1.07
Other   |            | 0.01403    |            |       |  0.66

Nlocal:           1110 ave        1153 max        1067 min
Histogram: 1 0 0 0 0 0 0 0 0 1
Nghost:         7174.5 ave        7383 max        6966 min
Histogram: 1 0 0 0 0 0 0 0 0 1
Neighs:         289714 ave      293399 max      286030 min
Histogram: 1 0 0 0 0 0 0 0 0 1

Total # of neighbors = 579429
Ave neighs/atom = 261.00405
Ave special neighs/atom = 9.2666667
Neighbor list builds = 0
Dangerous builds = 0
reset_timestep 0

# --- 2. NVT relaxation (lets the packed box relax before the barostat) ------
print "RENEU >>> stage 2 of 4: NVT relaxation"
RENEU >>> stage 2 of 4: NVT relaxation
velocity all create ${TK} 12345 mom yes rot yes dist gaussian
velocity all create 300 12345 mom yes rot yes dist gaussian
fix NVTRELAX all nvt temp ${TK} ${TK} 100
fix NVTRELAX all nvt temp 300 ${TK} 100
fix NVTRELAX all nvt temp 300 300 100
run ${NVTRUN}
run 20000
PPPM initialization ...
  using 12-bit tables for long-range coulomb
  G vector (1/distance) = 0.27933629
  grid = 20 20 20
  stencil order = 5
  estimated absolute RMS force accuracy = 0.0022909412
  estimated relative force accuracy = 6.8991014e-06
  using double precision FFTW3
  3d grid and FFT values/proc = 12393 4000
Generated 36 of 36 mixed pair_coeff terms from geometric mixing rule
Per MPI rank memory allocation (min/avg/max) = 15.33 | 15.33 | 15.33 Mbytes
   Step          Temp          Press          Volume         v_dens         PotEng         TotEng    
         0   300            11135.25       33014.375      0.60015573     344.24556      1909.4689    
      1000   310.52796      323.14325      33014.375      0.60015573    -5464.9179     -3844.7658    
      2000   310.06499     -768.10892      33014.375      0.60015573    -5720.7248     -4102.9883    
      3000   310.49789     -1824.2277      33014.375      0.60015573    -5764.7333     -4144.7381    
      4000   295.26071     -1692.7452      33014.375      0.60015573    -5828.0271     -4287.5305    
      5000   299.88018     -1792.2889      33014.375      0.60015573    -5927.2745     -4362.6763    
      6000   302.65886     -1064.35        33014.375      0.60015573    -5912.756      -4333.6603    
      7000   294.80187     -980.0552       33014.375      0.60015573    -5885.103      -4347.0004    
      8000   298.48063     -1752.2804      33014.375      0.60015573    -5966.8333     -4409.5371    
      9000   296.03992     -933.73535      33014.375      0.60015573    -5950.7566     -4406.1946    
     10000   301.35312     -1470.6626      33014.375      0.60015573    -5980.408      -4408.1248    
     11000   308.1874      -705.79193      33014.375      0.60015573    -6001.4764     -4393.536     
     12000   297.69959     -1099.114       33014.375      0.60015573    -5978.1821     -4424.9609    
     13000   291.76605     -1235.6054      33014.375      0.60015573    -6049.9822     -4527.7187    
     14000   311.81087     -1434.7136      33014.375      0.60015573    -6082.2067     -4455.3612    
     15000   297.8236      -654.33892      33014.375      0.60015573    -6075.1456     -4521.2774    
     16000   300.43445      45.46621       33014.375      0.60015573    -6067.4628     -4499.9727    
     17000   303.03049     -1243.1725      33014.375      0.60015573    -6095.7494     -4514.7147    
     18000   297.80114     -1045.5077      33014.375      0.60015573    -6115.3938     -4561.6428    
     19000   311.23372     -1161.739       33014.375      0.60015573    -6057.3048     -4433.4706    
     20000   297.86428     -1010.2923      33014.375      0.60015573    -6103.7694     -4549.689     
Loop time of 1383.29 on 2 procs for 20000 steps with 2220 atoms

Performance: 1.249 ns/day, 19.212 hours/ns, 14.458 timesteps/s, 32.097 katom-step/s
97.9% CPU use with 2 MPI tasks x 1 OpenMP threads

MPI task timing breakdown:
Section |  min time  |  avg time  |  max time  |%varavg| %total
---------------------------------------------------------------
Pair    | 367.39     | 435.25     | 503.11     | 325.3 | 31.47
Bond    | 45.471     | 49.353     | 53.236     |  55.3 |  3.57
Kspace  | 521.19     | 589.61     | 658.03     | 281.8 | 42.62
Neigh   | 42.513     | 42.802     | 43.09      |   4.4 |  3.09
Comm    | 148.99     | 152.31     | 155.62     |  26.8 | 11.01
Output  | 0.035007   | 0.039452   | 0.043896   |   2.2 |  0.00
Modify  | 87.496     | 94.906     | 102.32     |  76.1 |  6.86
Other   |            | 19.02      |            |       |  1.37

Nlocal:           1110 ave        1215 max        1005 min
Histogram: 1 0 0 0 0 0 0 0 0 1
Nghost:         7470.5 ave        7853 max        7088 min
Histogram: 1 0 0 0 0 0 0 0 0 1
Neighs:         295477 ave      355961 max      234993 min
Histogram: 1 0 0 0 0 0 0 0 0 1

Total # of neighbors = 590954
Ave neighs/atom = 266.1955
Ave special neighs/atom = 9.2666667
Neighbor list builds = 723
Dangerous builds = 0
unfix NVTRELAX

# --- 3. NPT equilibration (this is where the density finds its own value) ---
# restart files are written every 25000 steps. If the run stops for any
# reason you can pick up from the last one instead of starting over:
#     read_restart rst_a.lmp      (or rst_b.lmp, whichever is newer)
print "RENEU >>> stage 3 of 4: NPT equilibration - watch the density column"
RENEU >>> stage 3 of 4: NPT equilibration - watch the density column
restart 25000 rst_a.lmp rst_b.lmp
fix NPTEQ all npt temp ${TK} ${TK} 100 iso ${PBAR} ${PBAR} 1000
fix NPTEQ all npt temp 300 ${TK} 100 iso ${PBAR} ${PBAR} 1000
fix NPTEQ all npt temp 300 300 100 iso ${PBAR} ${PBAR} 1000
fix NPTEQ all npt temp 300 300 100 iso 1 ${PBAR} 1000
fix NPTEQ all npt temp 300 300 100 iso 1 1 1000
run ${EQRUN}
run 100000
PPPM initialization ...
  using 12-bit tables for long-range coulomb
  G vector (1/distance) = 0.27933629
  grid = 20 20 20
  stencil order = 5
  estimated absolute RMS force accuracy = 0.0022909412
  estimated relative force accuracy = 6.8991014e-06
  using double precision FFTW3
  3d grid and FFT values/proc = 12393 4000
Generated 36 of 36 mixed pair_coeff terms from geometric mixing rule
Per MPI rank memory allocation (min/avg/max) = 15.34 | 15.53 | 15.72 Mbytes
   Step          Temp          Press          Volume         v_dens         PotEng         TotEng    
     20000   297.86428     -1010.2469      33014.375      0.60015573    -6103.7694     -4549.689     
     21000   294.99187      369.27087      30179.001      0.65654148    -6177.4269     -4638.333     
     22000   309.69096      206.64658      28039.035      0.70664937    -6193.6874     -4577.9023    
     23000   298.00953     -215.20162      26855.902      0.73778071    -6254.5916     -4699.7534    
     24000   303.8399       162.24737      25349.689      0.78161772    -6297.7792     -4712.5215    
     25000   309.87642     -396.71929      24730.948      0.80117293    -6276.0756     -4659.323     
     26000   299.19764      56.28479       24407.523      0.81178933    -6317.6113     -4756.5742    
     27000   307.05437      284.2689       24297.669      0.81545954    -6287.194      -4685.1651    
     28000   302.07204     -425.08099      24128.094      0.8211907     -6318.6778     -4742.6437    
     29000   294.91635      817.931        23664.759      0.83726889    -6349.3275     -4810.6276    
     30000   302.15434      355.38143      23592.37       0.83983788    -6345.0857     -4768.6223    
     31000   301.66401     -48.29454       23778.568      0.83326154    -6273.0943     -4699.1891    
     32000   305.92338      853.73256      23783.673      0.83308271    -6330.071      -4733.9429    
     33000   300.69133      703.72553      23827.048      0.83156615    -6390.8864     -4822.0561    
     34000   306.1905      -729.04225      23281.489      0.85105237    -6387.5594     -4790.0377    
     35000   301.97908     -598.15459      23432.595      0.84556433    -6311.0205     -4735.4715    
     36000   294.46111     -164.41453      23090.17       0.85810394    -6360.8076     -4824.4829    
     37000   304.18742      266.42666      22492.102      0.88092105    -6335.3484     -4748.2775    
     38000   300.34674     -1179.9018      22758.831      0.87059682    -6388.4249     -4821.3925    
     39000   297.87694     -1265.4265      22708.856      0.87251276    -6328.3147     -4774.1682    
     40000   308.04135     -543.12822      22770.627      0.87014583    -6362.4389     -4755.2605    
     41000   291.5034       416.26654      22588.946      0.87714434    -6376.8734     -4855.9803    
     42000   303.7867       832.8844       22209.51       0.89212983    -6363.5046     -4778.5245    
     43000   297.25883      196.7019       22454.352      0.88240207    -6352.8727     -4801.9511    
     44000   288.12977     -78.300803      22038.734      0.89904284    -6396.8419     -4893.5504    
     45000   296.12356     -1914.0983      22119.163      0.8957738     -6372.6657     -4827.6673    
     46000   293.97645      448.88161      22178.515      0.89337658    -6445.5801     -4911.7841    
     47000   306.50699      602.29842      21951.715      0.90260676    -6406.0847     -4806.9116    
     48000   291.33726      767.95451      21822.394      0.90795565    -6444.5951     -4924.5689    
     49000   301.12393      1153.6942      21952.736      0.90256479    -6393.7675     -4822.6802    
     50000   299.72567     -404.93507      22265.922      0.88986958    -6315.6252     -4751.8331    
     51000   293.7323       306.41676      22029.51       0.89941928    -6401.9751     -4869.4529    
     52000   300.19556     -94.255574      21983.149      0.90131611    -6386.8161     -4820.5724    
     53000   304.11665      1004.8729      22037.558      0.89909083    -6399.5341     -4812.8325    
     54000   294.61472     -998.67968      21952.163      0.90258835    -6386.3865     -4849.2603    
     55000   313.6621      -1864.1867      22029.592      0.89941594    -6397.1606     -4760.6564    
     56000   299.88106     -366.58345      22182.987      0.89319652    -6411.8214     -4847.2186    
     57000   300.771        321.59442      22043.977      0.89882904    -6413.1264     -4843.8805    
     58000   303.45383     -737.6668       21823.748      0.90789935    -6420.1574     -4836.914     
     59000   300.72396      922.39015      22104.938      0.89635025    -6403.8576     -4834.857     
     60000   303.40276      140.71134      22398.877      0.88458747    -6380.3171     -4797.3401    
     61000   299.36643      1864.2393      21718.523      0.91229804    -6374.6255     -4812.7078    
     62000   302.20289     -1155.2516      21936.034      0.903252      -6437.6129     -4860.8961    
     63000   293.77342      84.569252      21743.16       0.91126435    -6387.5025     -4854.7658    
     64000   306.05097     -41.193534      21372.515      0.9270676     -6445.4703     -4848.6766    
     65000   295.2073       249.21309      21561.462      0.91894352    -6419.2168     -4878.9989    
     66000   307.32236      349.81432      21602.91       0.91718041    -6396.5944     -4793.1673    
     67000   300.89513      81.487472      21293.782      0.93049542    -6447.1573     -4877.2637    
     68000   297.99369     -1309.2294      21396.784      0.92601609    -6428.6724     -4873.9168    
     69000   301.40215     -2024.7333      21625.061      0.91624094    -6445.5371     -4872.9981    
     70000   295.46158     -2165.3929      21314.978      0.92957011    -6379.3101     -4837.7655    
     71000   310.96826      866.02162      21435.271      0.92435345    -6503.2397     -4880.7904    
     72000   301.83668     -742.14143      21535.842      0.92003675    -6423.9723     -4849.1662    
     73000   294.9041      -1359.1691      21809.361      0.90849826    -6368.4236     -4829.7877    
     74000   305.85566      246.32398      21722.326      0.91213833    -6409.6691     -4813.8943    
     75000   301.08245     -1897.2455      21463.095      0.92315511    -6454.223      -4883.352     
     76000   295.62549      290.70703      21162.136      0.93628384    -6442.2159     -4899.8161    
     77000   298.80655     -877.06622      21039.93       0.94172205    -6489.7671     -4930.7705    
     78000   304.76556      872.24864      21247.961      0.932502      -6462.2171     -4872.1298    
     79000   305.81541     -2205.6769      21178.536      0.93555883    -6412.9037     -4817.339     
     80000   297.33523     -36.368775      21122.845      0.93802544    -6425.3076     -4873.9875    
     81000   285.20697      307.22434      21065.597      0.94057465    -6448.5545     -4960.5125    
     82000   296.41595     -1254.9925      21047.522      0.94138238    -6430.778      -4884.2541    
     83000   295.28277      380.50524      21185.493      0.93525162    -6419.846      -4879.2344    
     84000   305.44703      82.212003      21116.22       0.93831977    -6369.3872     -4775.7445    
     85000   295.76009     -1934.7225      21178.622      0.93555501    -6460.2206     -4917.1186    
     86000   298.96142     -737.59725      20919.612      0.94713831    -6460.4269     -4900.6222    
     87000   308.4851       484.41464      21232.83       0.93316655    -6484.478      -4874.9844    
     88000   289.91395     -290.23551      21324.9        0.9291376     -6420.1012     -4907.5009    
     89000   305.54314     -872.66285      21310.284      0.92977487    -6477.8456     -4883.7014    
     90000   299.48464     -758.84538      21275.194      0.93130838    -6437.0152     -4874.4807    
     91000   298.1488      -1263.9316      21238.997      0.93289555    -6476.6929     -4921.128     
     92000   297.8345       358.12928      21106.714      0.93874234    -6466.7108     -4912.7857    
     93000   301.06781      666.4943       21138.052      0.93735063    -6409.8644     -4839.0699    
     94000   304.16869      1248.5271      21062.962      0.94069231    -6460.5049     -4873.5318    
     95000   307.68436     -1225.5548      21102.617      0.93892461    -6447.1734     -4841.8576    
     96000   297.79874     -417.82835      21134.915      0.93748977    -6427.5497     -4873.8112    
     97000   302.18044      875.65658      20928.474      0.94673725    -6481.381      -4904.7814    
     98000   300.63713      75.82187       20916.498      0.94727934    -6460.7499     -4892.2024    
     99000   292.7579      -1097.5834      20737.826      0.95544088    -6475.4233     -4947.9849    
    100000   308.5899       423.99829      21064.281      0.9406334     -6412.3324     -4802.292     
    101000   291.90613      578.3271       21072.712      0.94025705    -6420.3893     -4897.395     
    102000   302.20143      2424.8964      21132.877      0.93758015    -6474.3767     -4897.6676    
    103000   305.0359       2676.7552      20752.287      0.95477507    -6444.5682     -4853.0705    
    104000   293.91053      345.08645      21173.732      0.93577108    -6457.3327     -4923.8806    
    105000   306.02968     -2100.3549      21414.917      0.92523197    -6425.8369     -4829.1542    
    106000   299.68836     -676.49604      21160.212      0.93636899    -6413.0422     -4849.4448    
    107000   293.87917      759.11582      21135.078      0.93748254    -6499.3228     -4966.0343    
    108000   300.79626     -739.2127       21127.629      0.93781306    -6458.3718     -4888.9941    
    109000   299.0487      -1122.0422      21200.318      0.9345976     -6428.1609     -4867.9009    
    110000   289.37697      314.15702      21139.434      0.93728935    -6448.9752     -4939.1765    
    111000   309.11893     -1469.9837      21091.516      0.93941877    -6483.634      -4870.8334    
    112000   295.70338     -629.50179      21174.765      0.93572543    -6444.5948     -4901.7887    
    113000   309.46466      2.4467831      21109.586      0.93861463    -6439.7129     -4825.1085    
    114000   305.66442      1533.2429      21203.183      0.93447131    -6444.7858     -4850.0088    
    115000   291.70871      558.77993      21027.082      0.94229749    -6449.1349     -4927.1707    
    116000   294.71735      47.848617      21043.818      0.94154809    -6422.3054     -4884.6439    
    117000   310.70223      1012.3077      21063.808      0.94065451    -6474.0842     -4853.0229    
    118000   295.77137     -1898.4381      20984.037      0.94423043    -6466.7535     -4923.5926    
    119000   301.50102      551.77971      21098.547      0.93910574    -6374.7804     -4801.7257    
    120000   304.64246     -448.83214      21135.814      0.93744986    -6523.8486     -4934.4036    
Loop time of 4481.27 on 2 procs for 100000 steps with 2220 atoms

Performance: 1.928 ns/day, 12.448 hours/ns, 22.315 timesteps/s, 49.540 katom-step/s
97.9% CPU use with 2 MPI tasks x 1 OpenMP threads

MPI task timing breakdown:
Section |  min time  |  avg time  |  max time  |%varavg| %total
---------------------------------------------------------------
Pair    | 2055.2     | 2188.2     | 2321.2     | 284.4 | 48.83
Bond    | 201.27     | 201.91     | 202.55     |   4.5 |  4.51
Kspace  | 1045.5     | 1179.7     | 1313.8     | 390.6 | 26.32
Neigh   | 216.03     | 216.45     | 216.87     |   2.9 |  4.83
Comm    | 214.32     | 216.31     | 218.3      |  13.5 |  4.83
Output  | 1.3963     | 1.4153     | 1.4343     |   1.6 |  0.03
Modify  | 395.41     | 398.87     | 402.32     |  17.3 |  8.90
Other   |            | 78.45      |            |       |  1.75

Nlocal:           1110 ave        1133 max        1087 min
Histogram: 1 0 0 0 0 0 0 0 0 1
Nghost:           9506 ave        9655 max        9357 min
Histogram: 1 0 0 0 0 0 0 0 0 1
Neighs:         422267 ave      441848 max      402686 min
Histogram: 1 0 0 0 0 0 0 0 0 1

Total # of neighbors = 844534
Ave neighs/atom = 380.42072
Ave special neighs/atom = 9.2666667
Neighbor list builds = 3262
Dangerous builds = 0
unfix NPTEQ
write_data data.after_equilibration.lmp
System init for write_data ...
PPPM initialization ...
  using 12-bit tables for long-range coulomb
  G vector (1/distance) = 0.2828148
  grid = 18 18 18
  stencil order = 5
  estimated absolute RMS force accuracy = 0.0023546844
  estimated relative force accuracy = 7.0910623e-06
  using double precision FFTW3
  3d grid and FFT values/proc = 10000 2916
Generated 36 of 36 mixed pair_coeff terms from geometric mixing rule

# --- 4. NPT production - this is the trajectory you analyse ----------------
print "RENEU >>> stage 4 of 4: NPT production"
RENEU >>> stage 4 of 4: NPT production
reset_timestep 0
fix NPTPROD all npt temp ${TK} ${TK} 100 iso ${PBAR} ${PBAR} 1000
fix NPTPROD all npt temp 300 ${TK} 100 iso ${PBAR} ${PBAR} 1000
fix NPTPROD all npt temp 300 300 100 iso ${PBAR} ${PBAR} 1000
fix NPTPROD all npt temp 300 300 100 iso 1 ${PBAR} 1000
fix NPTPROD all npt temp 300 300 100 iso 1 1 1000
fix DENSAVG all ave/time 10 100 1000 v_dens v_vol file density.dat

dump TRAJ all custom 500 dump.lammpstrj id mol type element q xu yu zu
dump_modify TRAJ element N C H C H H C C O

run ${PRODRUN}
run 200000
PPPM initialization ...
  using 12-bit tables for long-range coulomb
  G vector (1/distance) = 0.2828148
  grid = 18 18 18
  stencil order = 5
  estimated absolute RMS force accuracy = 0.0023546844
  estimated relative force accuracy = 7.0910623e-06
  using double precision FFTW3
  3d grid and FFT values/proc = 10000 2916
Generated 36 of 36 mixed pair_coeff terms from geometric mixing rule
Per MPI rank memory allocation (min/avg/max) = 16.04 | 16.04 | 16.05 Mbytes
   Step          Temp          Press          Volume         v_dens         PotEng         TotEng    
         0   304.64246     -350.8401       21135.814      0.93744986    -6523.8097     -4934.3647    
      1000   303.83095      413.37681      20870.916      0.94934818    -6463.5055     -4878.2945    
      2000   293.25983     -887.74319      20771.411      0.95389603    -6500.6649     -4970.6078    
      3000   298.31935     -1415.9615      21009.752      0.94307472    -6472.6604     -4916.2057    
      4000   305.25759     -1456.528       21086.852      0.93962655    -6437.9927     -4845.3383    
      5000   301.86761     -345.46549      20909.797      0.94758293    -6501.7387     -4926.7712    
      6000   315.49641      731.76911      21044.295      0.94152672    -6505.8178     -4859.7433    
      7000   298.14981      137.55703      20989.34       0.94399188    -6498.0196     -4942.4495    
      8000   302.20402     -81.486333      20842.164      0.95065782    -6457.65       -4880.9274    
      9000   299.09338      1758.4466      20829.16       0.95125133    -6447.8128     -4887.3196    
     10000   302.9733       1627.5642      20945.974      0.94594629    -6453.9013     -4873.1651    
     11000   294.66798     -1196.2024      21080.287      0.93991917    -6469.8428     -4932.4388    
     12000   286.86355     -679.61528      21220.042      0.93372889    -6410.6487     -4913.9636    
     13000   287.54865     -576.21314      21039.512      0.94174079    -6465.825      -4965.5654    
     14000   304.73858     -91.652147      20936.212      0.94638735    -6494.0208     -4904.0744    
     15000   294.75971     -1545.0268      20994.305      0.94376862    -6424.4986     -4886.616     
     16000   304.95932      1450.1861      20898.024      0.94811674    -6450.6756     -4859.5774    
     17000   303.91751      1017.2829      21071.966      0.94029037    -6409.8975     -4824.2349    
     18000   299.38249      2504.6657      20773.614      0.95379486    -6497.8539     -4935.8524    
     19000   295.01351      2377.1974      20894.52       0.94827575    -6483.89       -4944.6833    
     20000   298.79756      1159.4299      21116.996      0.93828525    -6393.1712     -4834.2214    
     21000   296.8206      -1233.7765      21178.802      0.9355471     -6460.4258     -4911.7907    
     22000   306.02238     -1364.88        21165.818      0.93612099    -6384.1258     -4787.4812    
     23000   309.37694      17.931749      21102.894      0.9389123     -6467.416      -4853.2693    
     24000   296.01003     -917.82104      21058.099      0.94090954    -6474.0144     -4929.6084    
     25000   300.92578     -1364.2833      20936.82       0.94635985    -6468.5471     -4898.4935    
     26000   291.65939      1170.4641      20942.994      0.94608088    -6404.0565     -4882.3495    
     27000   298.57473      1753.8879      20760.507      0.95439702    -6483.3167     -4925.5296    
     28000   290.75443      279.01879      20702.357      0.95707782    -6486.1383     -4969.1529    
     29000   303.65671      455.50586      20876.211      0.9491074     -6460.8067     -4876.5048    
     30000   305.93107      1279.3227      20669.756      0.95858733    -6530.5592     -4934.391     
     31000   293.09733     -384.19038      20918.593      0.94718446    -6467.1224     -4937.9131    
     32000   295.92173     -1826.231       21093.913      0.93931203    -6441.0007     -4897.0553    
     33000   302.57524      1064.4661      20715.604      0.95646576    -6416.7321     -4838.0727    
     34000   299.5237       354.93902      20987.324      0.94408257    -6469.9975     -4907.2592    
     35000   309.7807      -732.86227      20948.638      0.94582601    -6450.9244     -4834.6711    
     36000   304.02059      1108.1863      20712.329      0.95661703    -6458.8204     -4872.6199    
     37000   291.47587     -475.26822      20572.099      0.96313781    -6479.6543     -4958.9048    
     38000   303.67939      370.13552      20813.375      0.95197275    -6503.2455     -4918.8253    
     39000   306.71623     -1382.8838      20918.221      0.9472013     -6454.9407     -4854.6761    
     40000   298.66151      675.49894      20902.902      0.94789549    -6430.9728     -4872.7329    
     41000   296.98138      13.144715      21084.027      0.93975246    -6453.7291     -4904.2551    
     42000   296.11789     -971.25745      21009.245      0.94309751    -6513.154      -4968.1852    
     43000   295.25083      910.57466      21131.69       0.93763283    -6436.9658     -4896.5208    
     44000   303.05244      4.6741935      20968.963      0.94490922    -6508.9398     -4927.7906    
     45000   301.56644      423.7865       20772.046      0.95386684    -6487.9114     -4914.5153    
     46000   306.42536     -972.67553      20981.683      0.94433637    -6445.1717     -4846.4246    
     47000   293.0259      -114.53032      20950.178      0.94575647    -6501.3923     -4972.5557    
     48000   303.83029     -1316.6843      21048.445      0.94134111    -6437.3711     -4852.1635    
     49000   300.36897     -1377.3489      20966.682      0.945012      -6496.5173     -4929.3688    
     50000   296.05275      950.33615      20872.968      0.94925484    -6440.9767     -4896.3478    
     51000   293.57369      963.47073      20786.753      0.953192      -6461.4651     -4929.7704    
     52000   302.36193     -1134.1915      20975.181      0.94462909    -6460.203      -4882.6565    
     53000   294.67395     -864.28716      20644.196      0.95977419    -6499.7705     -4962.3353    
     54000   297.25098      635.21329      21029.47       0.94219047    -6459.5613     -4908.6807    
     55000   309.21213     -9.3882307      20864.472      0.94964141    -6440.5815     -4827.2946    
     56000   302.45207     -887.7815       20933.71       0.94650048    -6470.5699     -4892.5531    
     57000   300.74944      511.66878      20787.377      0.95316337    -6504.4205     -4935.287     
     58000   306.55191      306.71378      20751.417      0.95481511    -6479.9485     -4880.5411    
     59000   308.59406     -29.578537      20880.304      0.94892136    -6467.5668     -4857.5047    
     60000   300.13331      2076.3487      20823.23       0.95152222    -6455.64       -4889.7212    
     61000   295.03484     -278.84202      20916.579      0.94727565    -6430.6898     -4891.3718    
     62000   295.15273     -360.69933      20924.261      0.94692789    -6490.605      -4950.6718    
     63000   301.64431      574.95332      20458.666      0.96847791    -6473.2434     -4899.4411    
     64000   300.2496       1197.9924      20469.269      0.96797624    -6495.5329     -4929.0072    
     65000   298.08684     -1017.4303      20535.545      0.96485221    -6504.5762     -4949.3346    
     66000   298.36396     -569.12791      20544.87       0.96441428    -6523.28       -4966.5926    
     67000   309.09889      750.96873      20599.974      0.96183453    -6476.432      -4863.736     
     68000   304.47147     -1766.6996      20668.619      0.95864007    -6477.7805     -4889.2276    
     69000   296.12126      1462.8064      20577.257      0.9628964     -6487.2388     -4942.2524    
     70000   297.16728      369.64196      20446.538      0.96905238    -6489.9118     -4939.4679    
     71000   302.73924      2341.6838      20434.942      0.96960228    -6398.3237     -4818.8086    
     72000   297.66958     -1528.0026      20501.795      0.96644058    -6488.0555     -4934.9909    
     73000   298.59513      854.90395      20467.258      0.96807136    -6450.2434     -4892.3499    
     74000   303.18829      580.52571      20521.702      0.96550309    -6465.4827     -4883.6248    
     75000   298.16074     -47.768027      20796.766      0.95273307    -6484.1135     -4928.4864    
     76000   298.45105      617.6292       20581.771      0.9626852     -6443.5862     -4886.4443    
     77000   292.39426      127.14853      20841.825      0.95067326    -6432.3        -4906.7589    
     78000   302.7536      -2736.7572      20666.661      0.95873087    -6475.8083     -4896.2183    
     79000   296.19729      1875.4061      20634.348      0.96023226    -6483.1652     -4937.7822    
     80000   299.70392      2209.0743      20766.468      0.95412306    -6491.3894     -4927.7109    
     81000   305.11022      731.66222      20465.063      0.96817518    -6466.4803     -4874.5948    
     82000   298.21824     -966.6578       20493.947      0.96681064    -6494.5985     -4938.6713    
     83000   302.19815      852.1025       20458.443      0.96848849    -6518.7101     -4942.0181    
     84000   293.58377     -70.600257      20349.636      0.97366685    -6497.4514     -4965.7042    
     85000   313.95284      1501.6814      20542.141      0.96454241    -6479.0361     -4841.015     
     86000   300.69401      1842.0839      20519.296      0.96561629    -6505.5411     -4936.6968    
     87000   301.44493     -2207.7084      20554.979      0.96394       -6506.3237     -4933.5615    
     88000   305.01788     -442.31161      20854.908      0.95007688    -6448.9811     -4857.5774    
     89000   293.30676     -518.8114       20685.454      0.95785987    -6515.9681     -4985.6661    
     90000   302.90158      1171.3395      20575.8        0.96296457    -6524.0211     -4943.659     
     91000   299.55897     -869.23841      20827.445      0.95132967    -6438.7945     -4875.8722    
     92000   306.07526     -444.71383      20889.912      0.94848493    -6432.2127     -4835.2922    
     93000   300.88423      813.95345      20660.952      0.95899578    -6517.6611     -4947.8244    
     94000   297.06654      1186.1865      20519.521      0.9656057     -6522.8991     -4972.9808    
     95000   313.98873     -1108.364       20549.127      0.9642145     -6468.3271     -4830.1188    
     96000   291.09667     -2.5850416      20713.097      0.95658152    -6451.5221     -4932.7511    
     97000   300.30318      1631.0881      20576.078      0.96295156    -6483.3597     -4916.5546    
     98000   302.42005     -483.38942      20542.28       0.96453588    -6544.9244     -4967.0747    
     99000   299.81054     -788.01424      20568.142      0.96332311    -6454.2084     -4889.9735    
    100000   304.42498     -414.53462      20956.121      0.94548824    -6437.0575     -4848.7472    
    101000   301.40303     -694.5264       20925.694      0.94686305    -6460.8284     -4888.2849    
    102000   299.28805     -802.59859      20620.299      0.96088645    -6442.9515     -4881.4427    
    103000   294.97287      83.406984      20784.64       0.95328889    -6488.1328     -4949.138     
    104000   299.76284      42.471483      20789.487      0.95306663    -6483.7289     -4919.7429    
    105000   303.13758      1766.9225      20598.485      0.96190408    -6499.3135     -4917.7201    
    106000   302.44906      98.186116      20701.408      0.95712168    -6456.521      -4878.5199    
    107000   295.09157      1276.6033      20686.4        0.95781605    -6465.794      -4926.18      
    108000   310.09573     -1136.1243      20530.737      0.96507819    -6482.0684     -4864.1715    
    109000   287.6916      -1060.9282      20913.35       0.9474219     -6497.3749     -4996.3695    
    110000   302.40723     -837.03626      20585.119      0.96252864    -6493.685      -4915.9021    
    111000   298.28468     -82.896882      20703.915      0.95700576    -6519.9684     -4963.6945    
    112000   291.67894      862.16161      20412.554      0.97066569    -6554.1888     -5032.3798    
    113000   302.50707     -70.998251      20693.412      0.9574915     -6479.4674     -4901.1637    
    114000   298.24241     -1072.9857      20731.767      0.9557201     -6465.897      -4909.8437    
    115000   297.43419     -698.33005      20847.886      0.95039692    -6533.1265     -4981.29      
    116000   308.13611     -1036.1162      20646.868      0.95964995    -6502.9464     -4895.2736    
    117000   299.31113      903.87808      20711.101      0.95667374    -6475.706      -4914.0768    
    118000   277.46151     -384.39482      20896.796      0.94817247    -6459.3042     -5011.6734    
    119000   311.40712     -1055.1515      20929.376      0.94669645    -6496.4527     -4871.7137    
    120000   290.26964      941.75991      20515.047      0.96581627    -6468.3568     -4953.9007    
    121000   307.60739     -1368.1808      20735.124      0.95556535    -6500.4468     -4895.5325    
    122000   301.05992     -547.38625      20239.358      0.97897207    -6503.3098     -4932.5564    
    123000   286.3272       600.80714      20236.652      0.97910299    -6520.0636     -5026.1769    
    124000   298.57162      692.46369      20429.318      0.96986921    -6450.4685     -4892.6976    
    125000   297.50548      102.30192      20547.359      0.96429747    -6418.1315     -4865.9231    
    126000   300.89083      278.78963      20474.718      0.96771863    -6520.3278     -4950.4566    
    127000   297.46152      2241.6791      20372.192      0.97258883    -6529.3541     -4977.3751    
    128000   302.38185     -274.12903      20458.476      0.96848689    -6507.1735     -4929.523     
    129000   295.22747     -1734.2487      20534.279      0.96491169    -6524.8429     -4984.5198    
    130000   303.9704       1296.6522      20451.648      0.96881024    -6504.3423     -4918.4037    
    131000   288.27043     -597.2115       20614.08       0.96117635    -6483.3044     -4979.279     
    132000   293.32822     -2652.1789      20640.932      0.95992593    -6511.4001     -4980.9862    
    133000   298.77803      552.09852      20621.259      0.96084173    -6579.6273     -5020.7795    
    134000   302.56078      1616.7894      20458.592      0.96848143    -6493.7036     -4915.1195    
    135000   296.14296     -699.74715      20653.829      0.95932652    -6479.7825     -4934.6829    
    136000   310.1707      -1819.8169      20773.017      0.95382228    -6522.6439     -4904.3558    
    137000   301.86282     -375.42185      20551.082      0.96412279    -6534.8612     -4959.9187    
    138000   301.084       -36.698177      20548.331      0.96425184    -6525.9202     -4955.0412    
    139000   302.33861      11.151385      20491.979      0.96690348    -6471.2316     -4893.8067    
    140000   305.56448     -919.10766      20535.821      0.96483925    -6527.8944     -4933.6389    
    141000   306.15227      303.72756      20426.879      0.969985      -6529.7179     -4932.3956    
    142000   297.99675     -712.0041       20449.017      0.96893489    -6495.9561     -4941.1845    
    143000   306.59269      844.72153      20508.617      0.96611907    -6498.2523     -4898.6321    
    144000   308.73848     -264.30054      20584.896      0.96253904    -6521.0693     -4910.2537    
    145000   287.85785      312.25132      20613.805      0.96118918    -6459.5788     -4957.7061    
    146000   294.89718      903.84234      20309.056      0.97561239    -6494.4006     -4955.8008    
    147000   298.83816      1100.8236      20525.276      0.96533495    -6472.7606     -4913.5991    
    148000   291.45471     -543.51535      20555.973      0.96389339    -6512.6518     -4992.0128    
    149000   301.49619     -1446.625       20347.928      0.9737486     -6540.8276     -4967.798     
    150000   293.89828     -504.7616       20265.141      0.97772655    -6565.4168     -5032.0286    
    151000   299.76839      994.75671      20287.729      0.97663797    -6489.8807     -4925.8657    
    152000   310.27004     -33.634206      20361.759      0.97308717    -6546.7488     -4927.9424    
    153000   300.47139     -742.7926       20523.87       0.96540108    -6546.1318     -4978.449     
    154000   302.0766      -649.04876      20481.676      0.96738987    -6502.6293     -4926.5715    
    155000   312.94446      77.772718      20627.108      0.9605693     -6486.4589     -4853.699     
    156000   296.98784     -191.16208      20746.815      0.95502691    -6453.4701     -4903.9625    
    157000   295.35282      803.8236       20303.763      0.97586668    -6547.889      -5006.9119    
    158000   302.5872       749.32092      20565.263      0.96345794    -6492.5866     -4913.8648    
    159000   300.69876     -1380.13        20451.105      0.96883596    -6525.2731     -4956.4041    
    160000   305.88559     -1374.778       20873.022      0.94925242    -6491.3034     -4895.3725    
    161000   309.67316     -687.61364      20773.601      0.95379547    -6497.2106     -4881.5184    
    162000   290.212       -4283.6864      20679.865      0.95811874    -6475.6861     -4961.5308    
    163000   294.49681      1037.606       20607.61       0.96147811    -6483.0825     -4946.5715    
    164000   300.75014      1737.5328      20687.731      0.95775442    -6489.9108     -4920.7736    
    165000   306.44221     -917.73954      20589.007      0.96234688    -6468.363      -4869.528     
    166000   294.52251      103.46376      20783.581      0.95333746    -6491.897      -4955.2519    
    167000   302.88112     -2469.4335      20625.159      0.96066005    -6508.3811     -4928.1258    
    168000   302.73246      667.25882      20537.226      0.96477325    -6506.9316     -4927.4519    
    169000   306.08326      595.00825      20750.55       0.95485498    -6484.791      -4887.8288    
    170000   297.09101      575.13667      20889.086      0.94852243    -6454.7215     -4904.6756    
    171000   299.59313     -1140.8524      20596.454      0.96199891    -6485.188      -4922.0875    
    172000   304.84878     -267.51091      20414.702      0.9705636     -6545.4079     -4954.8864    
    173000   300.49353      480.83367      20318.094      0.97517841    -6504.7675     -4936.9692    
    174000   309.60739     -468.35463      20155.905      0.98302536    -6568.7627     -4953.4136    
    175000   312.38126      391.86189      20505.846      0.96624965    -6455.6322     -4825.8107    
    176000   298.15556     -73.094232      20359.082      0.97321513    -6537.2531     -4981.6529    
    177000   289.75352     -136.13303      20221.01       0.97986038    -6509.158      -4997.3948    
    178000   302.13632      2236.751       20357.988      0.97326742    -6478.4698     -4902.1003    
    179000   300.41154      14.72356       20444.162      0.96916499    -6466.9251     -4899.5546    
    180000   296.72433     -1020.9498      20599.305      0.96186578    -6505.6208     -4957.488     
    181000   300.66265      395.77833      20387.704      0.97184882    -6487.6961     -4919.0154    
    182000   307.74467     -1105.2156      20698.805      0.95724205    -6485.8773     -4880.2468    
    183000   295.11028      610.19032      20621.439      0.96083336    -6458.1228     -4918.4111    
    184000   304.83429     -189.90394      20726.913      0.95594391    -6526.1567     -4935.7109    
    185000   302.957        247.80477      20521.1        0.96553139    -6523.7541     -4943.1028    
    186000   315.61166      333.11561      20392.489      0.97162077    -6590.6386     -4943.9628    
    187000   298.74634     -1194.7209      20541.352      0.96457946    -6537.3325     -4978.65      
    188000   296.38471     -667.32731      20382.066      0.97211765    -6499.2524     -4952.8915    
    189000   305.41379     -206.8735       20506.657      0.96621145    -6538.9713     -4945.502     
    190000   296.59656      1415.243       20358.298      0.97325258    -6484.2922     -4936.826     
    191000   298.35147      994.85563      20440.791      0.96932482    -6595.2955     -5038.6733    
    192000   301.11448     -1542.4885      20190.423      0.98134476    -6554.0479     -4983.0098    
    193000   302.39296      314.8611       20347.102      0.97378812    -6522.8277     -4945.1193    
    194000   304.02239     -281.44575      20443.841      0.96918022    -6519.3559     -4933.1461    
    195000   292.31384     -811.06586      20500.218      0.96651489    -6544.0094     -5018.8878    
    196000   305.29459     -17.512844      20386.69       0.97189719    -6533.8074     -4940.9599    
    197000   302.35816     -1606.391       20686.336      0.95781905    -6519.5135     -4941.9866    
    198000   297.17302     -1173.9078      20654.277      0.95930571    -6424.2151     -4873.7413    
    199000   306.27062     -613.18108      20385.895      0.97193507    -6565.0018     -4967.062     
    200000   296.41381     -2534.6846      20510.128      0.96604792    -6518.8721     -4972.3594    
Loop time of 9882.39 on 2 procs for 200000 steps with 2220 atoms

Performance: 1.749 ns/day, 13.726 hours/ns, 20.238 timesteps/s, 44.928 katom-step/s
97.1% CPU use with 2 MPI tasks x 1 OpenMP threads

MPI task timing breakdown:
Section |  min time  |  avg time  |  max time  |%varavg| %total
---------------------------------------------------------------
Pair    | 4914.3     | 5006.9     | 5099.4     | 130.8 | 50.66
Bond    | 418.73     | 421.56     | 424.38     |  13.8 |  4.27
Kspace  | 2489       | 2587.9     | 2686.8     | 194.4 | 26.19
Neigh   | 459.28     | 459.74     | 460.19     |   2.1 |  4.65
Comm    | 461.69     | 464.18     | 466.67     |  11.5 |  4.70
Output  | 35.42      | 40.296     | 45.171     |  76.8 |  0.41
Modify  | 744.54     | 753.87     | 763.19     |  34.0 |  7.63
Other   |            | 148        |            |       |  1.50

Nlocal:           1110 ave        1122 max        1098 min
Histogram: 1 0 0 0 0 0 0 0 0 1
Nghost:           9677 ave        9701 max        9653 min
Histogram: 1 0 0 0 0 0 0 0 0 1
Neighs:         434346 ave      440928 max      427763 min
Histogram: 1 0 0 0 0 0 0 0 0 1

Total # of neighbors = 868691
Ave neighs/atom = 391.30225
Ave special neighs/atom = 9.2666667
Neighbor list builds = 6484
Dangerous builds = 0

write_data data.final.lmp
System init for write_data ...
PPPM initialization ...
  using 12-bit tables for long-range coulomb
  G vector (1/distance) = 0.28361345
  grid = 18 18 18
  stencil order = 5
  estimated absolute RMS force accuracy = 0.0022846015
  estimated relative force accuracy = 6.8800096e-06
  using double precision FFTW3
  3d grid and FFT values/proc = 10000 2916
Generated 36 of 36 mixed pair_coeff terms from geometric mixing rule
print "RENEU >>> finished. trajectory = dump.lammpstrj, density log = density.dat"
RENEU >>> finished. trajectory = dump.lammpstrj, density log = density.dat
Total wall time: 4:22:50
