        2220
  Built with Packmol                                             
  N           19.967004       17.322392       21.038873
  C           19.181081       18.212102       21.992954
  C           20.881335       16.310202       21.709598
  C           20.627179       18.180909       19.970904
  H           19.260976       16.759418       20.545492
  C           18.390139       17.409364       23.008489
  H           18.489177       18.793242       21.372664
  H           19.882248       18.898167       22.477222
  C           22.055346       16.953954       22.418475
  H           20.270865       15.726641       22.401873
  H           21.220040       15.615658       20.935180
  C           21.306785       17.347991       18.900543
  H           19.828141       18.775243       19.513168
  H           21.331615       18.856898       20.466720
  H           17.678105       18.062299       23.523958
  H           17.825726       16.599593       22.534429
  H           19.042518       16.981162       23.775223
  H           21.746634       17.753525       23.098342
  H           22.580502       16.200721       23.015027
  H           22.776990       17.364116       21.705850
  H           20.627105       16.600146       18.481496
  H           21.640351       17.997864       18.084808
  H           22.194635       16.837958       19.285802
  N            3.760022       14.555170       27.705046
  C            4.120386       13.979410       29.068192
  C            3.635130       16.069339       27.659256
  C            2.578030       13.791879       27.127361
  H            4.558514       14.334028       27.094842
  C            5.373903       14.609116       29.645648
  H            4.291430       12.907814       28.914432
  H            3.260514       14.107860       29.732237
  C            2.439934       16.586761       28.433211
  H            4.568195       16.486062       28.044218
  H            3.578826       16.358608       26.605696
  C            2.257213       14.215483       25.706472
  H            2.859884       12.732759       27.133729
  H            1.722635       13.934660       27.795896
  H            5.719858       14.025544       30.505173
  H            6.185231       14.644325       28.911119
  H            5.181762       15.623989       30.006134
  H            2.400357       16.194604       29.453742
  H            2.493743       17.678202       28.503112
  H            1.500280       16.339958       27.930245
  H            3.142374       14.172965       25.064975
  H            1.500351       13.545955       25.284669
  H            1.844781       15.228034       25.668044
  N           23.183135        9.544501        9.270565
  C           23.599392       10.719888        8.396080
  C           22.595885        9.923580       10.620320
  C           24.309784        8.523888        9.320086
  H           22.414321        9.085200        8.763803
  C           22.472931       11.716249        8.196984
  H           23.883845       10.296465        7.426020
  H           24.478568       11.188430        8.848133
  C           23.616631       10.536685       11.557019
  H           21.765507       10.608087       10.434884
  H           22.159318        9.017319       11.050360
  C           23.909185        7.258305       10.054326
  H           24.550601        8.277181        8.279721
  H           25.180364        9.001829        9.781270
  H           22.735296       12.417843        7.398263
  H           21.537316       11.220112        7.918602
  H           22.300785       12.310514        9.099232
  H           24.167517       11.360875       11.094339
  H           23.108630       10.936921       12.440631
  H           24.337002        9.791376       11.906901
  H           22.978283        6.841704        9.658473
  H           24.693801        6.502934        9.941099
  H           23.786670        7.432987       11.127318
  N            6.977388       15.250589       23.072894
  C            5.654942       15.832918       23.554099
  C            6.911583       14.519420       21.741931
  C            7.632475       14.473917       24.204742
  H            7.587660       16.061437       22.902794
  C            5.008803       16.729296       22.514724
  H            5.885598       16.423294       24.448230
  H            4.999085       15.004494       23.837650
  C            6.123103       13.227909       21.816240
  H            6.479268       15.207199       21.012186
  H            7.941290       14.335690       21.421336
  C            9.023193       13.988857       23.841551
  H            7.700503       15.162621       25.054610
  H            6.970982       13.643810       24.473768
  H            4.189320       17.294697       22.970569
  H            5.723531       17.445781       22.096589
  H            4.576690       16.145599       21.696547
  H            5.135822       13.365507       22.266996
  H            5.970419       12.833646       20.806157
  H            6.660422       12.463302       22.385011
  H            9.649648       14.805700       23.471203
  H            9.507984       13.564416       24.726906
  H            8.993034       13.199419       23.084773
  N           24.271542       24.265121       11.595602
  C           23.280030       23.296478       12.226605
  C           23.653360       25.515886       10.992412
  C           25.212546       23.501913       10.676110
  H           24.855729       24.603297       12.372263
  C           22.392904       23.970534       13.256142
  H           23.877886       22.519702       12.716914
  H           22.693153       22.837216       11.425675
  C           22.821318       25.227529        9.759618
  H           23.056101       25.993760       11.771759
  H           24.471981       26.204806       10.764195
  C           26.319931       24.380954       10.126314
  H           25.653499       22.700425       11.279760
  H           24.614996       23.054125        9.875206
  H           21.856267       23.212625       13.836332
  H           22.974162       24.582673       13.953602
  H           21.636783       24.601903       12.780231
  H           22.084744       24.436228        9.927367
  H           22.273050       26.129676        9.468829
  H           23.449582       24.942112        8.910702
  H           26.846841       24.910454       10.925582
  H           27.048684       23.763439        9.590944
  H           25.937868       25.115812        9.411579
  N           24.181135        6.769000       21.058602
  C           25.149495        7.568103       20.196487
  C           22.709624        7.053002       20.804828
  C           24.612521        6.848916       22.514953
  H           24.315521        5.786865       20.782573
  C           24.853749        7.425310       18.715462
  H           26.148918        7.170067       20.406095
  H           25.111333        8.613219       20.517597
  C           22.292050        8.441466       21.244173
  H           22.526666        6.901955       19.738913
  H           22.135454        6.283412       21.329132
  C           23.777891        5.955676       23.413175
  H           25.657203        6.519064       22.547423
  H           24.562450        7.897474       22.826476
  H           25.688447        7.825314       18.130397
  H           24.710662        6.377973       18.429743
  H           23.963233        7.992624       18.429155
  H           22.944125        9.221926       20.841040
  H           21.276495        8.647411       20.890254
  H           22.279483        8.529178       22.334579
  H           23.743251        4.928553       23.038136
  H           24.212191        5.935171       24.418158
  H           22.753646        6.326191       23.515524
  N           10.933032       12.053021       19.906755
  C            9.623866       11.316279       20.157405
  C           11.922231       11.320868       19.014656
  C           11.499115       12.547474       21.229065
  H           10.674556       12.899243       19.381456
  C            8.937405       10.907879       18.867726
  H            8.979011       12.012216       20.706084
  H            9.833843       10.452384       20.794925
  C           12.496395       10.078784       19.664877
  H           11.405669       11.078983       18.083464
  H           12.712166       12.031561       18.754360
  C           12.727769       13.417122       21.040891
  H           10.707424       13.138405       21.703662
  H           11.712392       11.674275       21.854415
  H            7.912597       10.585272       19.079193
  H            8.891400       11.736198       18.153027
  H            9.446135       10.062940       18.394325
  H           11.720582        9.416641       20.060501
  H           13.067758        9.508971       18.924687
  H           13.182473       10.333630       20.478011
  H           12.540938       14.228365       20.331092
  H           13.012843       13.863947       21.999070
  H           13.586511       12.836396       20.691383
  N           12.024030       27.165034        5.625796
  C           12.271490       28.632408        5.949997
  C           10.563432       26.782976        5.449480
  C           12.807788       26.291634        6.593439
  H           12.453712       27.012384        4.703347
  C           11.622575       29.561793        4.941810
  H           13.358026       28.774111        5.925993
  H           11.912954       28.823767        6.965709
  C            9.774851       26.853014        6.741169
  H           10.141728       27.445066        4.690358
  H           10.540606       25.774125        5.026947
  C           12.724744       24.819264        6.237744
  H           13.851630       26.619954        6.531664
  H           12.434670       26.486158        7.604364
  H           12.001175       30.580077        5.078867
  H           11.836624       29.256229        3.912326
  H           10.537864       29.604200        5.077611
  H            9.897379       27.811011        7.255042
  H            8.708241       26.730335        6.525953
  H           10.061213       26.051659        7.428674
  H           12.996795       24.642347        5.192984
  H           13.413981       24.248583        6.868856
  H           11.723171       24.415301        6.412386
  N           27.702145        6.115950       28.222193
  C           26.355149        6.797827       28.021757
  C           27.695437        4.608765       28.025344
  C           28.325102        6.594395       29.524673
  H           28.307468        6.480731       27.474290
  C           25.736113        6.464957       26.677405
  H           26.544642        7.875956       28.076053
  H           25.700305        6.512400       28.850338
  C           26.921983        3.876175       29.102519
  H           27.281357        4.410371       27.034566
  H           28.738669        4.280703       27.995747
  C           29.734651        6.067671       29.717088
  H           28.352426        7.688773       29.471672
  H           27.665188        6.296052       30.345970
  H           24.892857        7.135384       26.481267
  H           26.456258        6.578012       25.860316
  H           25.342417        5.444394       26.660328
  H           25.916934        4.283519       29.246687
  H           26.812093        2.823338       28.822371
  H           27.447972        3.903400       30.061389
  H           30.363485        6.275183       28.846260
  H           30.191897        6.549004       30.587875
  H           29.743056        4.990274       29.906772
  N            9.737716       17.897768       21.027052
  C            8.736410       19.038967       21.147796
  C           11.152387       18.319313       20.664551
  C            9.149849       16.795596       20.159257
  H            9.811712       17.497535       21.972133
  C            9.205480       20.116995       22.106503
  H            7.808630       18.595759       21.527278
  H            8.552268       19.440166       20.146813
  C           11.265287       18.853892       19.251503
  H           11.469430       19.064173       21.397442
  H           11.797949       17.448158       20.810066
  C           10.033528       15.563329       20.115454
  H            8.183960       16.531900       20.605058
  H            8.977734       17.206807       19.159103
  H            8.377906       20.797236       22.333257
  H            9.563630       19.692447       23.050173
  H           10.004251       20.722174       21.667688
  H           10.528959       19.634652       19.039204
  H           12.258426       19.290758       19.103695
  H           11.148348       18.056585       18.511596
  H           10.291255       15.217782       21.120944
  H            9.507842       14.751335       19.602282
  H           10.958083       15.746328       19.559987
  N           28.809534       12.978240       10.576473
  C           29.559248       14.090266       11.298177
  C           27.317967       12.917485       10.862722
  C           29.555219       11.664479       10.753749
  H           28.880781       13.205193        9.575345
  C           28.940386       15.453686       11.054489
  H           30.581018       14.080416       10.901810
  H           29.591742       13.845516       12.363952
  C           27.006380       12.498145       12.284795
  H           26.901796       13.901917       10.638759
  H           26.876951       12.223882       10.140742
  C           28.944106       10.540331        9.938813
  H           30.581395       11.841873       10.412119
  H           29.573956       11.426645       11.822444
  H           29.622494       16.237595       11.399800
  H           28.739136       15.623459        9.991616
  H           28.007305       15.574673       11.612662
  H           27.550381       13.092114       13.025133
  H           25.937023       12.630732       12.479529
  H           27.237564       11.441711       12.450135
  H           28.828568       10.822581        8.888184
  H           29.591989        9.658710        9.983737
  H           27.967890       10.239388       10.330311
  N           19.138039       13.795328        4.202259
  C           20.036833       14.065376        5.401747
  C           19.543159       12.603205        3.350719
  C           18.911215       15.089291        3.435675
  H           18.222346       13.542660        4.597867
  C           20.199681       12.843160        6.285465
  H           19.553497       14.864766        5.974966
  H           21.000401       14.428804        5.032569
  C           20.840189       12.827152        2.600530
  H           19.611492       11.737107        4.012284
  H           18.717945       12.401351        2.661435
  C           17.906141       14.924583        2.311404
  H           18.526624       15.815791        4.160591
  H           19.880642       15.438269        3.064929
  H           20.660865       13.131516        7.235825
  H           19.236648       12.370760        6.505534
  H           20.857959       12.101123        5.824068
  H           21.648447       13.168000        3.254272
  H           21.164179       11.887527        2.141010
  H           20.715391       13.556222        1.794478
  H           16.974498       14.475406        2.667940
  H           17.668293       15.904149        1.883730
  H           18.303352       14.309335        1.498675
  N           17.064802       23.768751       15.465165
  C           18.501128       24.258845       15.337480
  C           16.010657       24.863734       15.479048
  C           16.969438       22.765973       16.604806
  H           16.881547       23.231858       14.606676
  C           18.695359       25.164711       14.136243
  H           19.122654       23.363770       15.220163
  H           18.776147       24.759709       16.270398
  C           16.059162       25.714006       16.732009
  H           16.156670       25.469404       14.582216
  H           15.036652       24.377942       15.368798
  C           15.597244       22.125584       16.695775
  H           17.716872       21.991144       16.399378
  H           17.238940       23.280705       17.532947
  H           19.764619       25.314029       13.953453
  H           18.253029       24.737229       13.230358
  H           18.260141       26.153792       14.306948
  H           17.062706       26.097045       16.939415
  H           15.396344       26.577611       16.614188
  H           15.713018       25.156597       17.607404
  H           15.285699       21.704907       15.735147
  H           15.617660       21.314047       17.430633
  H           14.837633       22.838907       17.028937
  N           28.392566        7.580693        4.487902
  C           29.503122        8.574507        4.801795
  C           28.452792        6.280253        5.272523
  C           28.265155        7.420335        2.980756
  H           27.522428        8.037293        4.793218
  C           29.598868        8.881004        6.284422
  H           29.257101        9.493337        4.257331
  H           30.442490        8.173051        4.410316
  C           29.632777        5.412006        4.886511
  H           28.480467        6.539319        6.332987
  H           27.506423        5.757064        5.106710
  C           27.080686        6.556329        2.591124
  H           28.127245        8.427987        2.572300
  H           29.207570        7.010822        2.602367
  H           30.246962        9.749348        6.442467
  H           28.618142        9.106957        6.715868
  H           30.042477        8.047556        6.837063
  H           30.580122        5.958662        4.909782
  H           29.718498        4.577140        5.589842
  H           29.504343        4.983189        3.888283
  H           26.156099        6.907546        3.058694
  H           26.944180        6.586776        1.505092
  H           27.235411        5.508312        2.864172
  N           28.742807        7.290096       22.320514
  C           29.695763        8.343031       21.770304
  C           28.177145        7.592179       23.698619
  C           29.365294        5.910939       22.165999
  H           27.929991        7.300268       21.689589
  C           29.083741        9.731089       21.773916
  H           29.918043        8.048083       20.738406
  H           30.619987        8.307019       22.354553
  C           29.222760        7.527727       24.793042
  H           27.711619        8.578868       23.651769
  H           27.369251        6.877572       23.881592
  C           28.409969        4.800032       22.559100
  H           29.625965        5.805333       21.106699
  H           30.284142        5.884941       22.761036
  H           29.701767       10.410397       21.177586
  H           28.074394        9.730238       21.349366
  H           29.039358       10.145747       22.785314
  H           30.107164        8.129188       24.563018
  H           28.799112        7.911318       25.727069
  H           29.542616        6.498487       24.980643
  H           27.451426        4.891944       22.039885
  H           28.845595        3.830073       22.297499
  H           28.224737        4.786465       23.637219
  N           20.170457       19.264255       14.350966
  C           19.015050       20.070951       13.773209
  C           19.771987       18.210436       15.371304
  C           21.276900       20.208289       14.795966
  H           20.558551       18.735617       13.558018
  C           17.929984       19.185547       13.190129
  H           19.441145       20.692902       12.977699
  H           18.625359       20.722974       14.560511
  C           19.258392       18.806635       16.665905
  H           19.021203       17.570062       14.903640
  H           20.649203       17.580793       15.547023
  C           22.520802       19.466380       15.247150
  H           21.522116       20.829925       13.927257
  H           20.877340       20.849396       15.588657
  H           17.236205       19.790807       12.597376
  H           18.346024       18.410500       12.538029
  H           17.341121       18.704393       13.976620
  H           18.471319       19.548559       16.501890
  H           18.836281       18.013622       17.291985
  H           20.064258       19.276605       17.237347
  H           22.855726       18.747880       14.493214
  H           23.333027       20.180225       15.419614
  H           22.357253       18.935122       16.189408
  N            8.446164        3.683735        6.587312
  C            7.820344        5.031478        6.921178
  C            7.583192        2.475686        6.913344
  C            9.863760        3.631794        7.136095
  H            8.544270        3.673822        5.563047
  C            6.450933        5.201887        6.291127
  H            8.499617        5.793650        6.522559
  H            7.779629        5.129691        8.010000
  C            7.401521        2.264603        8.402526
  H            6.623144        2.614917        6.411959
  H            8.052968        1.605499        6.445453
  C           10.599595        2.374212        6.713812
  H           10.384609        4.507791        6.732905
  H            9.809114        3.722903        8.225929
  H            6.135319        6.247656        6.367144
  H            6.454806        4.925102        5.231694
  H            5.695649        4.602744        6.808245
  H            7.064339        3.170069        8.915632
  H            6.646132        1.490429        8.573007
  H            8.327777        1.923348        8.874153
  H           10.560147        2.230385        5.630025
  H           11.651805        2.446934        7.008080
  H           10.192798        1.482990        7.200715
  N           13.168098       15.898576        3.535276
  C           14.248354       15.922305        2.461957
  C           13.676916       16.020261        4.962405
  C           12.226349       14.731203        3.282708
  H           12.607366       16.746906        3.377933
  C           15.147661       17.138522        2.577507
  H           13.725340       15.948968        1.499168
  H           14.817709       14.990520        2.528640
  C           14.457161       14.803683        5.416696
  H           14.285575       16.925295        5.016362
  H           12.807419       16.193821        5.603254
  C           11.040333       14.732350        4.228569
  H           11.867309       14.839684        2.252883
  H           12.805657       13.805217        3.360017
  H           15.759165       17.234688        1.674269
  H           14.569183       18.060788        2.695039
  H           15.837906       17.046552        3.421272
  H           15.247751       14.526656        4.713091
  H           14.933980       15.013348        6.379872
  H           13.802328       13.939170        5.560393
  H           10.526454       15.698147        4.227442
  H           10.322100       13.965808        3.919408
  H           11.338683       14.495242        5.254045
  N           28.440167        4.099402        8.307560
  C           27.091136        3.392692        8.293331
  C           29.648875        3.177760        8.305669
  C           28.443396        5.166552        9.391360
  H           28.491280        4.609467        7.415337
  C           26.972103        2.402939        7.149866
  H           26.334207        4.176313        8.174115
  H           26.948069        2.908510        9.263865
  C           29.800528        2.400414        9.597164
  H           29.548186        2.508399        7.448767
  H           30.529294        3.797586        8.111989
  C           29.704083        6.009949        9.366073
  H           27.575817        5.807686        9.197785
  H           28.307635        4.669246       10.357425
  H           25.929942        2.084733        7.041842
  H           27.292988        2.841326        6.199143
  H           27.562573        1.501472        7.338381
  H           28.880571        1.882943        9.884812
  H           30.580396        1.641068        9.477907
  H           30.104889        3.051032       10.422328
  H           29.893954        6.418936        8.369321
  H           29.600065        6.848554       10.062455
  H           30.581295        5.438417        9.683381
  N           26.548769       26.596299       16.216920
  C           26.572996       25.110075       15.885135
  C           25.162063       27.193019       16.394044
  C           27.456669       27.346676       15.254583
  H           26.995038       26.677780       17.140525
  C           25.789907       24.283840       16.887830
  H           27.625769       24.806263       15.909292
  H           26.191386       24.980092       14.868123
  C           24.374026       27.249141       15.101344
  H           24.644244       26.598093       17.149286
  H           25.290711       28.191626       16.821910
  C           27.595684       28.812921       15.618025
  H           28.439075       26.864612       15.315485
  H           27.060158       27.215736       14.242328
  H           26.011092       23.220875       16.745681
  H           26.045850       24.548409       17.919101
  H           24.711399       24.405942       16.750901
  H           24.351750       26.286263       14.582492
  H           23.337699       27.529919       15.316318
  H           24.778898       28.001754       14.418344
  H           27.889574       28.941499       16.663937
  H           28.364013       29.276542       14.990528
  H           26.666637       29.363978       15.444696
  N            4.583119       21.315716       27.571966
  C            3.159282       21.718614       27.932366
  C            5.101078       21.887308       26.262232
  C            4.740010       19.810768       27.726749
  H            5.178287       21.733396       28.300087
  C            2.967805       23.223464       27.925111
  H            2.977221       21.335385       28.942913
  H            2.476382       21.220677       27.237713
  C            4.401400       21.310356       25.048641
  H            4.983868       22.971952       26.309902
  H            6.177269       21.693934       26.226815
  C            6.173507       19.356982       27.525618
  H            4.424633       19.569598       28.748312
  H            4.058054       19.324350       27.021512
  H            2.012635       23.478004       28.396157
  H            3.764110       23.736132       28.474743
  H            2.934938       23.617318       26.904996
  H            3.311700       21.366626       25.127529
  H            4.695008       21.871768       24.155537
  H            4.683584       20.266466       24.882802
  H            6.865989       19.921508       28.156977
  H            6.264242       18.297305       27.786155
  H            6.488603       19.457454       26.482807
  N           12.522441        8.753045       28.340530
  C           11.007611        8.686691       28.197639
  C           13.218121        7.405564       28.444088
  C           12.887073        9.753307       29.426790
  H           12.862642        9.162790       27.460068
  C           10.576826        7.803659       27.041798
  H           10.670326        9.713244       28.014216
  H           10.588907        8.342069       29.147775
  C           12.912225        6.681253       29.739088
  H           12.915795        6.814155       27.577313
  H           14.291815        7.585531       28.336252
  C           14.384018        9.979527       29.523068
  H           12.395800       10.695509       29.158230
  H           12.469736        9.393559       30.373065
  H            9.512016        7.955154       26.836243
  H           11.134427        8.031944       26.127472
  H           10.708021        6.743582       27.278146
  H           11.838482        6.613827       29.937502
  H           13.301025        5.658913       29.687323
  H           13.392694        7.168076       30.592896
  H           14.815068       10.235359       28.550658
  H           14.587964       10.805652       30.212234
  H           14.902995        9.100338       29.916163
  N            5.224121       25.826236       22.937976
  C            5.878047       24.501501       22.567856
  C            4.407169       25.804081       24.219577
  C            4.505799       26.395070       21.723940
  H            6.002461       26.471926       23.128005
  C            6.721708       23.940937       23.697144
  H            6.520035       24.705878       21.703392
  H            5.091239       23.803862       22.266078
  C            3.148513       24.968971       24.102952
  H            5.057118       25.433812       25.015146
  H            4.170598       26.842035       24.471610
  C            3.954737       27.785199       21.979203
  H            5.247866       26.442786       20.918784
  H            3.716507       25.692497       21.436827
  H            7.341553       23.118928       23.324158
  H            7.385990       24.700431       24.122494
  H            6.097711       23.531804       24.497190
  H            3.346558       23.965070       23.715915
  H            2.691871       24.855123       25.091658
  H            2.407851       25.449705       23.457081
  H            4.725043       28.457569       22.368281
  H            3.576286       28.208857       21.043085
  H            3.117329       27.767024       22.682945
  N           26.173781       28.827469       21.186862
  C           27.096839       29.521453       20.193947
  C           26.064593       27.320774       21.018484
  C           24.846791       29.568083       21.250341
  H           26.611701       28.962657       22.108160
  C           28.485665       28.911425       20.176121
  H           27.164793       30.567008       20.515527
  H           26.626691       29.485661       19.206772
  C           25.349601       26.919416       19.744544
  H           27.077524       26.914057       21.050378
  H           25.547545       26.932247       21.900835
  C           23.930973       29.018576       22.327656
  H           25.085635       30.613293       21.477729
  H           24.382873       29.518330       20.259720
  H           29.170532       29.564609       19.625363
  H           28.883367       28.779100       21.187727
  H           28.490417       27.943091       19.667060
  H           25.764569       27.410121       18.859193
  H           25.445546       25.838808       19.595861
  H           24.280593       27.145827       19.797421
  H           24.435124       28.970279       23.297365
  H           23.055318       29.667581       22.432756
  H           23.560306       28.020720       22.075219
  N           10.004630       11.187487        9.557345
  C            8.922154       10.126337        9.704769
  C            9.493982       12.594301        9.291799
  C           11.071287       10.694566        8.591575
  H           10.464440       11.238837       10.476464
  C            7.891283       10.497852       10.753850
  H            9.432887        9.205639       10.009206
  H            8.462700        9.967544        8.724706
  C            8.859703       12.743728        7.924104
  H            8.786834       12.840795       10.086560
  H           10.342032       13.275159        9.410449
  C           12.255237       11.639427        8.509185
  H           11.409411        9.723956        8.972108
  H           10.601351       10.547239        7.613576
  H            7.267328        9.628187       10.984905
  H            8.362002       10.833991       11.683613
  H            7.221094       11.284445       10.394750
  H            8.101414       11.979789        7.728576
  H            8.368032       13.719570        7.853292
  H            9.609328       12.699808        7.128510
  H           12.656111       11.868673        9.500942
  H           13.053969       11.178243        7.918962
  H           11.991987       12.577717        8.012048
  N           11.901069       29.518079       22.333164
  C           10.696454       29.397374       21.409118
  C           13.100886       28.672097       21.939265
  C           11.450439       29.366655       23.777962
  H           12.219247       30.492403       22.242083
  C           11.053617       29.667979       19.959809
  H            9.971358       30.145634       21.749059
  H           10.263278       28.401311       21.539710
  C           12.854303       27.186139       22.101598
  H           13.352424       28.922412       20.906533
  H           13.945397       29.001591       22.551694
  C           12.575911       29.621974       24.762549
  H           10.658098       30.107460       23.934877
  H           11.026615       28.364135       23.897764
  H           10.139632       29.788891       19.369016
  H           11.649695       30.580250       19.852680
  H           11.607802       28.832497       19.521990
  H           11.932743       26.858688       21.611355
  H           13.681441       26.626629       21.652361
  H           12.805655       26.901608       23.156829
  H           13.067512       30.580370       24.571131
  H           12.175761       29.643765       25.781584
  H           13.329350       28.829350       24.732318
  N           14.402993       14.918533       26.099698
  C           13.486534       13.927857       26.805526
  C           13.771942       16.264337       25.781915
  C           15.085822       14.232268       24.926572
  H           15.151901       15.126762       26.773952
  C           12.871480       14.509243       28.064489
  H           14.110380       13.066926       27.071665
  H           12.721308       13.602856       26.094443
  C           12.694597       16.175270       24.720491
  H           13.376597       16.668709       26.716072
  H           14.578067       16.935490       25.471187
  C           16.124956       15.118215       24.265825
  H           15.576759       13.340248       25.332154
  H           14.311011       13.919158       24.219001
  H           12.405246       13.711416       28.651961
  H           13.622097       14.999055       28.693521
  H           12.085036       15.232069       27.828134
  H           11.949251       15.406288       24.944011
  H           12.167734       17.132773       24.652477
  H           13.120728       15.968844       23.734267
  H           16.836398       15.515963       24.995539
  H           16.686606       14.538208       23.526117
  H           15.664825       15.955359       23.732623
  N           15.586014       10.812320        4.388802
  C           15.494929       12.068839        3.533002
  C           14.535847        9.754407        4.091525
  C           15.712658       11.203011        5.853303
  H           16.483723       10.375707        4.139147
  C           15.497080       11.755486        2.048720
  H           16.376822       12.672157        3.776904
  H           14.597408       12.620085        3.828672
  C           13.137741       10.182739        4.487826
  H           14.594102        9.526607        3.025140
  H           14.834348        8.843609        4.618952
  C           15.955328       10.004262        6.750744
  H           16.569323       11.883400        5.919724
  H           14.805943       11.746394        6.139010
  H           15.652449       12.675570        1.475718
  H           16.293833       11.052575        1.783909
  H           14.538512       11.337800        1.726973
  H           12.869792       11.163210        4.083208
  H           12.410704        9.459598        4.103757
  H           13.021702       10.212903        5.575237
  H           16.799008        9.403209        6.398926
  H           16.181817       10.344661        7.766548
  H           15.071929        9.362520        6.818631
  N            3.453570       11.453608       14.436339
  C            3.112303       12.252977       13.185709
  C            3.633026        9.960416       14.215946
  C            2.497031       11.830648       15.557193
  H            4.378155       11.793080       14.734235
  C            4.108848       12.022088       12.065495
  H            3.135642       13.308717       13.479111
  H            2.094071       11.993767       12.880996
  C            2.339868        9.256886       13.858155
  H            4.383888        9.833445       13.433291
  H            4.067414        9.547204       15.131040
  C            2.870001       11.180820       16.876247
  H            2.555897       12.920065       15.661705
  H            1.483534       11.559265       15.243821
  H            3.960134       12.767602       11.277386
  H            5.142065       12.103748       12.418790
  H            3.971548       11.039472       11.604570
  H            1.814838        9.741699       13.029821
  H            2.555525        8.227815       13.552331
  H            1.662135        9.205161       14.715382
  H            3.917030       11.366153       17.133579
  H            2.246309       11.590259       17.677743
  H            2.699209       10.100370       16.859138
  N           22.750618       17.580726       27.981923
  C           21.860691       17.850514       29.188063
  C           23.960725       16.703673       28.259089
  C           23.051767       18.890387       27.269507
  H           22.169788       17.036794       27.329531
  C           21.414123       16.571743       29.871153
  H           20.981780       18.384419       28.809015
  H           22.403787       18.507131       29.874165
  C           24.991577       17.380913       29.138812
  H           23.597355       15.779190       28.712694
  H           24.388618       16.425802       27.291344
  C           23.813002       18.680186       25.974275
  H           22.083069       19.352893       27.048306
  H           23.601805       19.535043       27.962979
  H           20.612431       16.792405       30.583629
  H           21.035643       15.838471       29.151369
  H           22.230020       16.116740       30.440468
  H           24.555453       17.792944       30.053614
  H           25.752945       16.652813       29.437502
  H           25.504882       18.186757       28.605925
  H           23.313285       17.952463       25.328102
  H           23.880709       19.627417       25.429119
  H           24.837585       18.342380       26.155800
  N           22.057420        4.408824       27.609822
  C           23.396710        3.936276       28.159850
  C           21.011787        3.318900       27.439178
  C           22.289889        5.278440       26.383786
  H           21.673360        5.037941       28.327841
  C           23.246504        3.169848       29.460355
  H           23.992116        4.838969       28.338326
  H           23.889697        3.334693       27.390501
  C           21.359027        2.334400       26.341266
  H           20.902652        2.816894       28.402788
  H           20.056963        3.813758       27.238522
  C           21.007326        5.904449       25.869555
  H           22.980516        6.071470       26.692580
  H           22.775912        4.663606       25.619072
  H           24.226994        3.042021       29.930806
  H           22.596895        3.695462       30.168001
  H           22.842083        2.167825       29.289390
  H           22.370531        1.930842       26.445374
  H           20.663683        1.489158       26.374207
  H           21.268012        2.790794       25.351187
  H           20.469575        6.429421       26.664579
  H           21.241058        6.629111       25.082624
  H           20.339848        5.158315       25.428427
  N           26.307127       28.446731        3.036922
  C           24.786511       28.518071        3.083451
  C           26.968211       27.973909        4.321371
  C           26.859468       29.743719        2.465800
  H           26.525838       27.721259        2.340720
  C           24.162125       27.206931        3.522020
  H           24.457892       28.752587        2.064515
  H           24.502538       29.342310        3.744378
  C           26.834983       28.969898        5.455162
  H           26.522667       27.011985        4.583392
  H           28.019190       27.775412        4.091419
  C           28.360480       29.686992        2.253586
  H           26.363408       29.893291        1.500000
  H           26.575805       30.558960        3.139554
  H           23.083853       27.228005        3.332524
  H           24.585077       26.354974        2.979521
  H           24.293815       27.040729        4.595273
  H           25.800865       29.291148        5.610835
  H           27.179843       28.511190        6.387729
  H           27.451448       29.857087        5.282817
  H           28.650596       28.809646        1.667983
  H           28.689789       30.580000        1.712181
  H           28.904319       29.670407        3.202690
  N            4.844887        4.670554       19.703038
  C            3.812239        4.684421       20.822402
  C            4.612579        3.622519       18.626907
  C            6.243175        4.682853       20.301435
  H            4.740211        5.574673       19.222984
  C            2.394561        4.804069       20.295940
  H            4.042760        5.557701       21.443254
  H            3.945762        3.779537       21.422562
  C            4.819258        2.207345       19.126699
  H            3.599388        3.764899       18.245285
  H            5.289845        3.851893       17.798938
  C            7.321789        4.817937       19.243309
  H            6.285441        5.547990       20.972976
  H            6.367208        3.769452       20.892485
  H            1.710705        5.030881       21.120514
  H            2.304511        5.602082       19.551567
  H            2.053847        3.865757       19.848369
  H            4.255670        1.999803       20.041101
  H            4.481385        1.497099       18.364849
  H            5.876614        2.000562       19.316636
  H            7.135396        5.672663       18.586395
  H            8.293780        4.966351       19.725216
  H            7.404002        3.915801       18.629936
  N           28.285998       17.438238       20.982518
  C           27.022129       18.245968       21.246597
  C           29.581068       18.231389       21.046601
  C           28.101762       16.602986       19.724802
  H           28.346662       16.763902       21.757394
  C           27.087645       19.004399       22.558763
  H           26.198154       17.524369       21.286297
  H           26.862021       18.918199       20.398477
  C           29.721163       19.225608       19.912085
  H           29.611248       18.730055       22.017624
  H           30.403747       17.510261       21.043721
  C           29.266566       15.661917       19.482089
  H           27.188075       16.016199       19.873373
  H           27.950581       17.286538       18.882824
  H           26.094448       19.387171       22.815806
  H           27.427524       18.364946       23.380107
  H           27.753840       19.869255       22.487739
  H           28.841988       19.868243       19.807648
  H           30.582206       19.875667       20.099305
  H           29.897230       18.721090       18.957465
  H           29.482775       15.053991       20.365557
  H           29.027039       14.985190       18.655231
  H           30.173841       16.203573       19.198724
  N           17.832477       10.858811       21.137666
  C           17.268597        9.473192       20.851959
  C           16.826554       11.994398       21.042995
  C           19.111827       11.061142       20.340317
  H           18.120907       10.838557       22.125208
  C           16.061533        9.154284       21.713693
  H           18.071567        8.761708       21.076118
  H           17.031452        9.413295       19.785652
  C           16.350350       12.244657       19.626724
  H           15.993217       11.748878       21.704609
  H           17.302534       12.885420       21.462944
  C           19.807502       12.363735       20.687557
  H           19.770050       10.221724       20.591987
  H           18.860270       11.007077       19.275976
  H           15.824870        8.087691       21.640245
  H           16.242308        9.389624       22.767713
  H           15.175315        9.701109       21.378379
  H           15.998507       11.332386       19.136004
  H           15.514947       12.952413       19.641142
  H           17.139520       12.686978       19.011581
  H           19.961480       12.461878       21.766211
  H           20.787637       12.398871       20.200600
  H           19.243829       13.231931       20.333519
  N           17.615280       23.589377       21.820845
  C           18.354067       22.336940       21.367939
  C           17.210599       24.536696       20.703159
  C           18.368868       24.235019       22.973533
  H           16.728754       23.254246       22.221595
  C           17.589216       21.570220       20.305661
  H           18.467175       21.707344       22.257900
  H           19.346881       22.633294       21.016756
  C           18.395512       25.213163       20.044676
  H           16.630215       23.959971       19.979967
  H           16.524798       25.272352       21.133650
  C           17.613216       25.406385       23.572016
  H           18.493743       23.457939       23.736272
  H           19.356681       24.534113       22.607754
  H           18.036214       20.579999       20.168990
  H           16.538708       21.432698       20.582327
  H           17.634240       22.076570       19.336941
  H           19.163492       24.500035       19.730842
  H           18.060587       25.749141       19.150485
  H           18.856733       25.948946       20.710058
  H           16.588906       25.129722       23.838627
  H           18.120296       25.745772       24.481253
  H           17.579129       26.259572       22.888097
  N            8.386746        4.543498       12.619419
  C            9.791398        4.454776       12.037516
  C            7.262094        4.321687       11.621241
  C            8.264024        5.804542       13.460935
  H            8.314984        3.759390       13.281887
  C           10.024346        3.154206       11.292170
  H           10.481055        4.513553       12.887301
  H            9.950507        5.324354       11.393036
  C            7.144591        5.440173       10.606152
  H            7.441890        3.360876       11.134435
  H            6.336975        4.209554       12.194317
  C            6.936640        5.883330       14.191095
  H            9.078034        5.768573       14.193949
  H            8.417099        6.667008       12.803861
  H           11.092414        3.032412       11.083792
  H            9.691556        2.288294       11.873954
  H            9.508813        3.148599       10.327271
  H            8.097882        5.665100       10.118831
  H            6.436133        5.150759        9.822984
  H            6.764367        6.357956       11.064345
  H            6.738046        4.972200       14.763142
  H            6.950321        6.726195       14.889963
  H            6.103876        6.053246       13.502278
  N           11.976052       20.171299       29.304108
  C           13.198531       19.289731       29.522990
  C           11.004921       19.672779       28.246382
  C           12.415128       21.619018       29.146751
  H           11.450635       20.134892       30.188106
  C           12.824039       17.849428       29.817222
  H           13.730131       19.708880       30.384925
  H           13.839939       19.368598       28.640260
  C           11.573109       19.742172       26.843680
  H           10.728127       18.650537       28.512598
  H           10.094054       20.272386       28.333716
  C           11.238304       22.573342       29.071646
  H           13.018210       21.857880       30.030184
  H           13.049116       21.686314       28.256494
  H           13.701559       17.305133       30.181539
  H           12.042040       17.781712       30.580712
  H           12.480753       17.333499       28.915664
  H           12.555740       19.267565       26.766078
  H           10.902498       19.223001       26.151028
  H           11.659301       20.776427       26.497667
  H           10.549796       22.428929       29.909462
  H           11.599500       23.606553       29.103878
  H           10.681730       22.458745       28.136805
  N           10.075819        6.960516        3.364842
  C           11.217575        6.038858        2.956836
  C            8.754008        6.262960        3.641669
  C            9.997821        8.131789        2.397642
  H           10.359462        7.364313        4.267802
  C           11.435698        4.916768        3.954145
  H           12.116919        6.663703        2.912508
  H           11.005495        5.653956        1.954983
  C            8.122482        5.678470        2.394764
  H            8.942412        5.490937        4.390634
  H            8.092669        6.996016        4.112938
  C            8.976513        9.167652        2.827999
  H           10.993451        8.589787        2.384403
  H            9.777445        7.734759        1.401235
  H           12.387368        4.416332        3.746991
  H           11.465559        5.289267        4.983405
  H           10.652741        4.156493        3.878010
  H            8.816622        5.049847        1.829220
  H            7.268366        5.053461        2.675607
  H            7.746122        6.462930        1.731582
  H            9.136538        9.483832        3.863015
  H            9.056480       10.051934        2.187158
  H            7.953051        8.793826        2.729939
  N            3.199482       16.804310       16.163453
  C            2.377978       15.615247       16.643860
  C            3.853461       17.621374       17.265778
  C            2.389930       17.608051       15.157438
  H            3.981300       16.399440       15.630835
  C            3.172581       14.696389       17.552483
  H            2.078210       15.064682       15.744842
  H            1.480564       15.997055       17.139548
  C            2.851610       18.380666       18.111351
  H            4.446571       16.934818       17.873500
  H            4.563211       18.302618       16.787240
  C            3.199869       18.724787       14.526417
  H            2.076827       16.903931       14.378081
  H            1.499615       17.991014       15.667050
  H            2.630121       13.755921       17.694899
  H            4.155392       14.460427       17.131259
  H            3.311708       15.137249       18.544008
  H            2.048938       17.738992       18.486595
  H            3.359011       18.813114       18.980003
  H            2.402339       19.207498       17.553371
  H            4.141350       18.353169       14.111267
  H            2.626783       19.180511       13.712222
  H            3.422821       19.519976       15.243915
  N           14.981730       17.593016        9.215319
  C           15.463352       18.998656        8.881037
  C           16.072630       16.623713        9.640511
  C           14.068438       17.091796        8.107115
  H           14.380704       17.699491       10.043734
  C           16.275508       19.611417       10.006300
  H           14.563101       19.601212        8.714631
  H           16.034289       18.952289        7.948988
  C           17.015902       16.264071        8.510855
  H           16.608544       17.080427       10.475180
  H           15.578045       15.733698       10.040630
  C           13.434282       15.755293        8.443113
  H           13.281611       17.845580        7.989088
  H           14.652829       17.042201        7.182424
  H           16.412466       20.682435        9.824129
  H           15.779486       19.493071       10.975310
  H           17.273903       19.168152       10.065972
  H           17.415484       17.146353        8.002180
  H           17.866798       15.701843        8.909475
  H           16.526105       15.627653        7.767951
  H           12.941121       15.778676        9.419373
  H           12.681078       15.505116        7.688712
  H           14.169482       14.945162        8.441111
  N           11.728004       24.712266       18.317853
  C           11.947041       25.918072       17.413650
  C           10.552639       23.827336       17.935993
  C           11.756587       25.155965       19.772416
  H           12.560417       24.120692       18.191478
  C           12.059914       25.528226       15.951949
  H           12.886235       26.380142       17.738646
  H           11.129219       26.625015       17.581683
  C            9.212611       24.501236       18.149087
  H           10.688809       23.535271       16.892624
  H           10.631783       22.909910       18.526672
  C           11.691206       23.984332       20.733817
  H           12.703796       25.688422       19.915596
  H           10.929526       25.856137       19.929753
  H           12.431825       26.377493       15.369324
  H           12.749865       24.690215       15.807970
  H           11.085805       25.257365       15.534120
  H            9.161658       25.488934       17.681441
  H            8.420174       23.887996       17.707494
  H            8.983930       24.609338       19.213444
  H           12.454043       23.234155       20.505455
  H           11.858598       24.337589       21.756663
  H           10.709545       23.501663       20.719406
  N           25.189385       14.760350       16.726936
  C           23.803683       14.131107       16.785342
  C           25.465655       15.807176       17.793815
  C           25.489771       15.196463       15.301097
  H           25.846455       13.994237       16.927360
  C           23.490335       13.555488       18.153467
  H           23.800374       13.324177       16.043675
  H           23.071466       14.887355       16.487379
  C           24.649009       17.069578       17.607661
  H           25.267899       15.345669       18.763541
  H           26.537863       16.022780       17.766970
  C           26.911998       15.698916       15.139541
  H           25.344899       14.312559       14.669478
  H           24.756023       15.958257       15.017711
  H           22.594894       12.927914       18.095498
  H           24.312410       12.939069       18.531941
  H           23.279424       14.345165       18.880629
  H           23.580955       16.863774       17.490435
  H           24.764546       17.713106       18.486039
  H           24.989197       17.641737       16.739477
  H           27.639133       14.977100       15.523065
  H           27.125759       15.864273       14.078415
  H           27.065091       16.654979       15.648798
  N           19.944941        3.427024       22.296096
  C           19.004277        2.378341       22.874839
  C           19.345730        4.815939       22.146896
  C           20.614650        2.874981       21.047026
  H           20.696809        3.533229       22.990543
  C           18.399708        2.814191       24.196135
  H           19.607544        1.477003       23.032557
  H           18.233502        2.161202       22.129459
  C           18.269181        4.883252       21.083065
  H           18.957528        5.111127       23.123946
  H           20.167801        5.501477       21.920905
  C           21.675444        3.811373       20.500057
  H           21.083995        1.928683       21.339350
  H           19.834558        2.669426       20.306601
  H           17.913863        1.961026       24.680995
  H           19.159861        3.205290       24.880411
  H           17.630642        3.578597       24.051024
  H           17.505835        4.110000       21.210428
  H           17.764610        5.853745       21.133822
  H           18.692830        4.790153       20.078729
  H           22.394074        4.099632       21.272918
  H           22.225404        3.314134       19.694251
  H           21.235943        4.718243       20.074309
  N           14.635027        5.014690       25.137260
  C           15.764589        5.023492       26.158800
  C           13.842216        3.719760       25.066489
  C           15.152807        5.528715       23.802673
  H           13.963555        5.721861       25.465705
  C           15.286984        4.644978       27.548011
  H           16.155532        6.047238       26.176828
  H           16.551701        4.351297       25.804621
  C           14.646853        2.564816       24.506233
  H           13.482484        3.501262       26.074117
  H           12.954944        3.915360       24.457125
  C           14.046239        5.685753       22.776938
  H           15.603095        6.508023       24.001199
  H           15.933453        4.843942       23.455247
  H           16.065531        4.874279       28.283069
  H           14.382597        5.194404       27.829504
  H           15.084305        3.572507       27.622614
  H           15.608111        2.439403       25.013274
  H           14.085783        1.632900       24.631762
  H           14.833306        2.689358       23.435456
  H           13.217898        6.283936       23.167918
  H           14.437836        6.189604       21.887099
  H           13.655631        4.717665       22.449727
  N           13.484444       12.198499       13.684401
  C           14.045384       10.892890       14.232360
  C           12.090679       12.555473       14.174699
  C           13.667487       12.236407       12.174931
  H           14.096442       12.937024       14.057066
  C           14.013345       10.844138       15.748238
  H           15.085109       10.836777       13.890250
  H           13.482868       10.065865       13.789142
  C           11.021227       11.623073       13.643541
  H           12.116608       12.549090       15.266372
  H           11.896673       13.589907       13.876131
  C           13.264153       13.571768       11.578759
  H           14.733519       12.064229       11.987457
  H           13.093959       11.409724       11.742858
  H           14.616595       10.002815       16.105015
  H           14.414644       11.761260       16.191939
  H           12.996946       10.688433       16.121770
  H           11.265198       10.569371       13.807936
  H           10.073809       11.823951       14.154492
  H           10.851697       11.776902       12.573759
  H           13.760289       14.404497       12.085955
  H           13.545719       13.602855       10.521035
  H           12.182272       13.727184       11.625822
  N           12.561759       20.687267        3.882626
  C           12.267268       19.199907        4.026033
  C           11.341278       21.566022        3.662135
  C           13.690919       20.887712        2.883496
  H           12.941273       20.980093        4.793155
  C           11.238437       18.918439        5.104724
  H           13.215987       18.722881        4.297316
  H           11.946525       18.818963        3.051949
  C           10.690994       21.345127        2.311742
  H           10.642525       21.365371        4.476964
  H           11.663691       22.604754        3.780121
  C           14.136617       22.335364        2.800167
  H           14.527289       20.271712        3.233133
  H           13.355133       20.510339        1.911969
  H           11.218073       17.846443        5.327062
  H           11.467347       19.452828        6.032653
  H           10.231522       19.195409        4.778771
  H           10.487102       20.288820        2.113047
  H            9.734226       21.876413        2.274929
  H           11.311066       21.737194        1.500181
  H           14.369714       22.741544        3.788863
  H           15.037943       22.408141        2.182638
  H           13.376731       22.967752        2.331665
  N           22.332981       13.313535       26.033105
  C           23.756370       13.020293       26.488631
  C           21.621628       12.151962       25.358474
  C           22.306314       14.623571       25.260749
  H           21.800224       13.488806       26.895827
  C           23.834937       11.793011       27.376828
  H           24.085568       13.898854       27.055178
  H           24.385870       12.917268       25.599840
  C           22.211447       11.802995       24.007341
  H           21.663990       11.301348       26.041940
  H           20.565990       12.425160       25.270004
  C           20.896139       15.052703       24.902221
  H           22.758430       15.378180       25.914487
  H           22.932771       14.505244       24.370482
  H           24.818384       11.744312       27.855873
  H           23.074726       11.813381       28.164666
  H           23.716620       10.872342       26.797857
  H           23.295697       11.662880       24.047434
  H           21.772811       10.866509       23.647320
  H           21.988623       12.572820       23.262657
  H           20.244705       15.066560       25.781014
  H           20.915032       16.062123       24.478263
  H           20.452057       14.397515       24.147002
  N           23.234019       15.470290       10.758137
  C           24.198456       14.311934       10.539965
  C           23.859841       16.852829       10.672503
  C           22.404913       15.212898       12.007045
  H           22.572080       15.427082        9.971491
  C           24.967246       14.440619        9.238546
  H           23.586577       13.403111       10.510623
  H           24.869382       14.258014       11.402396
  C           24.807192       17.143994       11.818353
  H           24.368969       16.922043        9.708935
  H           23.041457       17.578215       10.642527
  C           21.321015       16.255737       12.204377
  H           21.940040       14.229417       11.873344
  H           23.086067       15.169106       12.863280
  H           25.476124       13.497488        9.013663
  H           24.305824       14.677596        8.398673
  H           25.740396       15.211711        9.305576
  H           25.552771       16.355297       11.955852
  H           25.347732       18.075130       11.618790
  H           24.266746       17.278202       12.760023
  H           20.707518       16.372525       11.306146
  H           20.664181       15.953054       13.026556
  H           21.739389       17.230431       12.472272
  N           14.647583       21.358018       24.976553
  C           14.799357       22.872089       24.912667
  C           15.892257       20.605100       25.417352
  C           14.011253       20.856325       23.689375
  H           13.953508       21.183556       25.715920
  C           15.308863       23.454847       26.217307
  H           13.801235       23.273048       24.702429
  H           15.460716       23.114825       24.075697
  C           17.010903       20.665505       24.397447
  H           16.205601       21.024328       26.375750
  H           15.593312       19.571466       25.615005
  C           13.695306       19.373539       23.742401
  H           13.079722       21.419978       23.563822
  H           14.685575       21.097788       22.861117
  H           15.195235       24.543881       26.206400
  H           14.756438       23.064972       27.078613
  H           16.373531       23.247000       26.359150
  H           17.231943       21.688404       24.078611
  H           17.926577       20.252816       24.833627
  H           16.776585       20.068960       23.510844
  H           13.109779       19.119012       24.630776
  H           13.112989       19.089372       22.859688
  H           14.603963       18.764339       23.735102
  N           17.819840       24.188032        6.666383
  C           16.369669       23.765358        6.861006
  C           18.835593       23.060769        6.755409
  C           18.118413       25.396901        7.539841
  H           17.878705       24.525157        5.695959
  C           15.966183       22.644142        5.922196
  H           15.759746       24.651215        6.650135
  H           16.232839       23.484023        7.909321
  C           18.964181       22.491041        8.153300
  H           18.535111       22.292745        6.039648
  H           19.791755       23.456747        6.400739
  C           19.503203       25.962509        7.287385
  H           17.367334       26.154366        7.288159
  H           17.985933       25.100718        8.585667
  H           14.878116       22.521957        5.936573
  H           16.270627       22.849764        4.890665
  H           16.398275       21.688137        6.232335
  H           17.996713       22.217146        8.584375
  H           19.578582       21.585121        8.124250
  H           19.457657       23.196024        8.828812
  H           19.669741       26.157708        6.223901
  H           19.618947       26.907821        7.827770
  H           20.287959       25.290742        7.647553
  N           21.574770       17.000545        6.427319
  C           20.362380       17.431242        7.242267
  C           22.916094       17.449038        6.984189
  C           21.342863       17.327156        4.960014
  H           21.591603       15.973241        6.483938
  C           20.470906       17.017469        8.697706
  H           19.495377       16.937105        6.789110
  H           20.246364       18.513987        7.137199
  C           23.120352       18.947646        6.896564
  H           22.974279       17.100054        8.017285
  H           23.692753       16.911572        6.432132
  C           22.448097       16.792713        4.068882
  H           20.394329       16.853062        4.683001
  H           21.236438       18.412991        4.866948
  H           19.502492       17.144902        9.192639
  H           20.768445       15.968637        8.799913
  H           21.189349       17.640955        9.238021
  H           22.282761       19.509783        7.319979
  H           24.019315       19.227825        7.455482
  H           23.267615       19.271524        5.862033
  H           22.623973       15.726946        4.242218
  H           22.169587       16.923848        3.018043
  H           23.387820       17.332140        4.219794
  N           17.279097        3.414890       17.957849
  C           16.041604        2.541154       18.115098
  C           17.019707        4.911797       18.006722
  C           18.088902        2.938464       16.761741
  H           17.860464        3.217028       18.783502
  C           15.254328        2.878571       19.367150
  H           16.400607        1.507700       18.180722
  H           15.431485        2.646240       17.213129
  C           16.246917        5.416542       16.805367
  H           16.488227        5.121218       18.937385
  H           17.991781        5.407130       18.087669
  C           19.411259        3.670549       16.632465
  H           18.280840        1.871433       16.922433
  H           17.471102        3.056022       15.865343
  H           14.510806        2.098000       19.559267
  H           15.902957        2.952658       20.246250
  H           14.706983        3.819004       19.253859
  H           15.335519        4.840020       16.621480
  H           15.948814        6.456824       16.972615
  H           16.858832        5.396313       15.898732
  H           19.979709        3.641311       17.566727
  H           20.017838        3.199952       15.851678
  H           19.269988        4.715409       16.340668
  N           15.614739       15.693240       16.660868
  C           15.744373       14.221537       16.290986
  C           16.912153       16.369205       17.073410
  C           14.456099       15.873593       17.629611
  H           15.328970       16.169004       15.794366
  C           16.799178       13.986579       15.226340
  H           14.765805       13.913593       15.905250
  H           15.957769       13.656778       17.203315
  C           17.447224       15.861926       18.396887
  H           17.632580       16.213142       16.267747
  H           16.719476       17.445425       17.111644
  C           14.175733       17.334436       17.927303
  H           13.577795       15.427772       17.148942
  H           14.684978       15.310873       18.540648
  H           16.709792       12.968127       14.834180
  H           16.691616       14.683173       14.388359
  H           17.808997       14.082751       15.636037
  H           17.515346       14.770558       18.430253
  H           18.454635       16.258583       18.560625
  H           16.827045       16.196362       19.233766
  H           14.053045       17.915368       17.008444
  H           13.252052       17.420964       18.508984
  H           14.972689       17.787252       18.524509
  N            4.056001        5.084529       26.770932
  C            2.759624        4.357386       27.102895
  C            4.150677        6.505259       27.302874
  C            4.361351        4.928019       25.289140
  H            4.795087        4.564726       27.263271
  C            2.461582        4.362649       28.590320
  H            2.890860        3.323510       26.763639
  H            1.951602        4.817983       26.526886
  C            3.190155        7.456773       26.619322
  H            3.970307        6.464029       28.379086
  H            5.187214        6.831110       27.175412
  C            5.714471        5.503177       24.915580
  H            4.357173        3.851447       25.083733
  H            3.550470        5.399433       24.724104
  H            1.655974        3.654170       28.809586
  H            3.337458        4.073249       29.180331
  H            2.120867        5.346470       28.926242
  H            2.162835        7.080753       26.611625
  H            3.184756        8.414903       27.149399
  H            3.493238        7.658608       25.587702
  H            6.509345        5.108285       25.555167
  H            5.952117        5.241987       23.879080
  H            5.723069        6.595267       24.979612
  N           20.879325       26.406845       29.377694
  C           21.870995       25.338838       28.935560
  C           19.420349       26.084605       29.098491
  C           21.345680       27.768321       28.885419
  H           20.954031       26.441785       30.403383
  C           21.536091       23.972424       29.503047
  H           22.851530       25.655525       29.309025
  H           21.896749       25.327328       27.841924
  C           19.088594       26.082907       27.620262
  H           19.206527       25.115729       29.554585
  H           18.816527       26.820247       29.637995
  C           20.483160       28.898803       29.413963
  H           22.371297       27.895348       29.250372
  H           21.359527       27.746678       27.790720
  H           22.378551       23.290171       29.348721
  H           21.330039       24.019046       30.577474
  H           20.671846       23.530797       28.998189
  H           19.773388       25.459093       27.038240
  H           18.078383       25.687171       27.472309
  H           19.104304       27.095137       27.205557
  H           20.384548       28.853757       30.502578
  H           20.937235       29.860763       29.154201
  H           19.483062       28.887781       28.970659
  N            6.425692        9.719803       24.626315
  C            5.539172       10.956143       24.697552
  C            6.696374        9.044951       25.961122
  C            7.662217       10.028296       23.796087
  H            5.890314        9.030230       24.081613
  C            4.224324       10.681507       25.402562
  H            5.339426       11.251986       23.661312
  H            6.103145       11.753874       25.189889
  C            7.565931        9.879584       26.878990
  H            5.729379        8.827500       26.419487
  H            7.161628        8.078128       25.747517
  C            8.519429        8.799154       23.560111
  H            7.302256       10.408079       22.833065
  H            8.221704       10.821568       24.302761
  H            3.535288       11.517037       25.240874
  H            3.746105        9.770394       25.028123
  H            4.362539       10.587152       26.483687
  H            7.192163       10.901175       26.995124
  H            7.590123        9.424047       27.874442
  H            8.597856        9.926778       26.518797
  H            7.931617        7.971693       23.151917
  H            9.313751        9.036076       22.844606
  H            9.007782        8.462242       24.479261
  N            2.885955        4.468574        4.019700
  C            3.692698        5.285048        3.018667
  C            2.167544        5.282984        5.083196
  C            3.739093        3.325641        4.548187
  H            2.136912        4.025315        3.470796
  C            2.860675        6.365336        2.353833
  H            4.044228        4.579057        2.257602
  H            4.559323        5.704356        3.538261
  C            3.116578        5.944440        6.061477
  H            1.550186        6.021621        4.567687
  H            1.477190        4.607970        5.597591
  C            2.952451        2.383779        5.440026
  H            4.099179        2.776161        3.670903
  H            4.597893        3.757715        5.072402
  H            3.403999        6.777177        1.496972
  H            1.903485        5.975097        1.992549
  H            2.665791        7.197118        3.037204
  H            3.904730        6.513933        5.560147
  H            2.560428        6.642511        6.695840
  H            3.586355        5.209743        6.722056
  H            2.037522        2.037245        4.950479
  H            3.562803        1.506368        5.678031
  H            2.684739        2.853892        6.390899
  N           18.708355        3.168053        4.257817
  C           19.475968        4.387790        3.765331
  C           17.893169        2.449212        3.195207
  C           17.946369        3.524696        5.524949
  H           19.427097        2.490912        4.547179
  C           20.362315        4.068373        2.576360
  H           20.099943        4.718112        4.603638
  H           18.753593        5.175331        3.531258
  C           16.712223        3.262669        2.706455
  H           18.570835        2.201024        2.375673
  H           17.566573        1.497749        3.625194
  C           17.275833        2.317705        6.153314
  H           18.683519        3.933872        6.225236
  H           17.221911        4.307194        5.276185
  H           21.052255        4.898982        2.394436
  H           20.956933        3.164518        2.745177
  H           19.774236        3.936847        1.663289
  H           16.997820        4.273747        2.401508
  H           16.264700        2.771671        1.836014
  H           15.934198        3.338121        3.471845
  H           17.983745        1.497050        6.302379
  H           16.864349        2.592147        7.130243
  H           16.441393        1.954854        5.545956
  N           13.272735        4.091864       14.577303
  C           13.055279        5.232209       13.591476
  C           14.478664        3.212989       14.287969
  C           11.964507        3.344810       14.786800
  H           13.481400        4.544479       15.477548
  C           14.289329        6.100436       13.434661
  H           12.236008        5.837275       13.996329
  H           12.738559        4.803209       12.636236
  C           14.315755        2.382082       13.031673
  H           15.350991        3.866512       14.221505
  H           14.634723        2.577287       15.164532
  C           12.071862        2.286601       15.868446
  H           11.223890        4.094760       15.087262
  H           11.662504        2.913833       13.826551
  H           14.030126        7.020166       12.899930
  H           14.714028        6.380306       14.404365
  H           15.060772        5.595942       12.845426
  H           14.019818        2.983770       12.167248
  H           15.267746        1.900285       12.785485
  H           13.576590        1.587608       13.170537
  H           12.475752        2.700715       16.797003
  H           11.079075        1.877624       16.083240
  H           12.701486        1.448510       15.555376
  N           27.870683        4.496906       15.550018
  C           26.893932        5.372985       14.776731
  C           28.916613        5.253570       16.352446
  C           28.418903        3.414796       14.632450
  H           27.300617        4.004274       16.250860
  C           26.209816        6.394725       15.665168
  H           26.140728        4.697125       14.355882
  H           27.437801        5.850179       13.956166
  C           29.921869        5.976036       15.479103
  H           28.386637        5.949025       17.006611
  H           29.410418        4.529056       17.006717
  C           29.286706        2.415565       15.373897
  H           27.550172        2.896189       14.211059
  H           28.967215        3.904149       13.820715
  H           25.369006        6.847892       15.129721
  H           25.821836        5.939395       16.582322
  H           26.889909        7.207499       15.936660
  H           29.443476        6.602154       14.720187
  H           30.542884        6.630098       16.100042
  H           30.592897        5.273405       14.976244
  H           28.771766        2.007408       16.248585
  H           29.538721        1.582460       14.709480
  H           30.231276        2.861204       15.699520
  N           28.197586       22.572988       21.572153
  C           26.908946       22.415469       22.368471
  C           29.141158       23.649884       22.082416
  C           27.871908       22.649802       20.088417
  H           28.707595       21.688342       21.699169
  C           27.169082       22.202111       23.847693
  H           26.400012       21.535055       21.959726
  H           26.286506       23.297333       22.190371
  C           28.597513       25.050784       21.889657
  H           29.336037       23.441077       23.136402
  H           30.093829       23.520573       21.560371
  C           29.118761       22.659948       19.224389
  H           27.277722       21.758948       19.854881
  H           27.256079       23.539789       19.921973
  H           26.248208       21.877070       24.343035
  H           27.934038       21.437495       24.018660
  H           27.483398       23.129216       24.336075
  H           27.582678       25.163723       22.282329
  H           29.235315       25.766868       22.418292
  H           28.594582       25.337007       20.833767
  H           29.783739       21.826334       19.468781
  H           28.836827       22.570868       18.170062
  H           29.676674       23.595303       19.327727
  N           10.572160       22.712043       12.671803
  C           10.883956       22.094656       11.314914
  C           11.726221       22.706893       13.661003
  C            9.265187       22.141986       13.201234
  H           10.385537       23.706329       12.483635
  C           12.108439       22.714379       10.668481
  H           10.007824       22.280734       10.683263
  H           10.999849       21.015049       11.448531
  C           12.089431       21.315266       14.137109
  H           12.574430       23.194740       13.176224
  H           11.438203       23.348454       14.499025
  C            8.817291       22.820459       14.481997
  H            8.514393       22.311404       12.420963
  H            9.396342       21.063533       13.338213
  H           12.169273       22.407340        9.619172
  H           12.073738       23.808371       10.700122
  H           13.029770       22.377723       11.152886
  H           12.245000       20.616960       13.309459
  H           13.021021       21.356314       14.711111
  H           11.319659       20.904648       14.797171
  H            8.790283       23.908582       14.372025
  H            7.810070       22.481241       14.745553
  H            9.469225       22.569310       15.323865
  N           18.335204        9.555285       27.366571
  C           18.057330        8.127001       26.916772
  C           19.733910       10.065278       27.060091
  C           17.885579        9.730374       28.809007
  H           17.706257       10.145980       26.805906
  C           18.362228        7.917449       25.445577
  H           16.990286        7.950377       27.094074
  H           18.637282        7.449572       27.550477
  C           20.806772        9.371601       27.874343
  H           19.901888        9.935081       25.988972
  H           19.733698       11.143686       27.244132
  C           17.997287       11.169057       29.276983
  H           16.835483        9.418745       28.846445
  H           18.478191        9.053742       29.433511
  H           17.947976        6.959671       25.113793
  H           17.927698        8.707981       24.824877
  H           19.440075        7.879026       25.262257
  H           20.737147        8.281367       27.816210
  H           21.794392        9.657719       27.497823
  H           20.763221        9.666174       28.927038
  H           17.492607       11.855216       28.590457
  H           17.532091       11.272730       30.262819
  H           19.040310       11.482079       29.381655
  N            8.749088        3.686852       23.838676
  C            7.943336        2.409628       24.036138
  C            9.251315        3.917793       22.422754
  C            9.808457        3.792437       24.924968
  H            8.090033        4.456566       24.017636
  C            6.783849        2.304634       23.063587
  H            7.554669        2.445935       25.060265
  H            8.624306        1.558053       23.947049
  C           10.317091        2.925328       22.005192
  H            8.386098        3.874576       21.757927
  H            9.626897        4.944191       22.375002
  C           10.553253        5.113156       24.877314
  H            9.280611        3.709619       25.881909
  H           10.487691        2.939959       24.820331
  H            6.109803        1.500084       23.375655
  H            6.205706        3.233553       23.020187
  H            7.129021        2.057950       22.055202
  H           10.014024        1.888352       22.177440
  H           10.519474        3.034361       20.934595
  H           11.258609        3.103626       22.533007
  H            9.864381        5.963027       24.874387
  H           11.199320        5.203452       25.756785
  H           11.199883        5.183050       23.997643
  N           19.769342        4.127781       13.051393
  C           21.123847        3.504621       13.362067
  C           19.074097        3.573391       11.818637
  C           19.883874        5.643637       13.101422
  H           19.161628        3.868931       13.840393
  C           21.053243        1.992243       13.457017
  H           21.436505        3.913883       14.329520
  H           21.833816        3.829021       12.595552
  C           19.779234        3.939155       10.528589
  H           19.006322        2.490375       11.940888
  H           18.047163        3.950421       11.828105
  C           18.539318        6.328705       12.946048
  H           20.303919        5.890604       14.083148
  H           20.590227        5.956209       12.325284
  H           21.980017        1.604377       13.892534
  H           20.219535        1.664021       14.086482
  H           20.949362        1.534116       12.469007
  H           20.845903        3.697216       10.551393
  H           19.334250        3.382026        9.697553
  H           19.669924        5.003582       10.300809
  H           17.804246        5.936519       13.655058
  H           18.649550        7.402315       13.131083
  H           18.142272        6.218533       11.932613
  N           25.707135       20.405383        3.486657
  C           24.954399       19.083861        3.567254
  C           27.222206       20.283138        3.482618
  C           25.140271       21.376386        4.510990
  H           25.468194       20.800743        2.567179
  C           25.381592       18.111365        2.484181
  H           23.893151       19.325592        3.438670
  H           25.102533       18.665960        4.567380
  C           27.778977       19.799733        4.806080
  H           27.493557       19.608906        2.667607
  H           27.626308       21.265015        3.219077
  C           25.744512       22.762357        4.387434
  H           24.062481       21.433810        4.320495
  H           25.301615       20.951103        5.507047
  H           24.676271       17.275082        2.437512
  H           25.407932       18.588024        1.498723
  H           26.367018       17.685655        2.695232
  H           27.286917       18.888833        5.159598
  H           28.844756       19.574605        4.694480
  H           27.688867       20.565883        5.581794
  H           25.676227       23.140588        3.363171
  H           25.208350       23.457448        5.041961
  H           26.793621       22.776935        4.697263
  N           13.834171       28.680103       11.141175
  C           14.080013       29.409158        9.826804
  C           13.077341       27.367807       11.016725
  C           13.273274       29.654497       12.165573
  H           14.767148       28.419015       11.487913
  C           14.761292       28.526687        8.798022
  H           14.730948       30.258710       10.062943
  H           13.121432       29.789720        9.461933
  C           11.632255       27.556705       10.602882
  H           13.617556       26.745616       10.300129
  H           13.148338       26.859358       11.982786
  C           13.141508       29.031055       13.542252
  H           13.977774       30.492656       12.214425
  H           12.311303       30.021783       11.793096
  H           15.115518       29.137992        7.961449
  H           15.622887       28.000530        9.222094
  H           14.068458       27.788954        8.382609
  H           11.530361       28.184228        9.712562
  H           11.187782       26.583286       10.370669
  H           11.039901       27.999677       11.408940
  H           14.079424       28.570342       13.866125
  H           12.873125       29.802444       14.271606
  H           12.351204       28.275150       13.571626
  N           27.855868       20.015300       15.370605
  C           28.585206       19.115918       16.359901
  C           28.743918       20.983836       14.606598
  C           26.648912       20.644133       16.049770
  H           27.473502       19.381913       14.655442
  C           29.726174       18.354360       15.712203
  H           27.841353       18.403677       16.734881
  H           28.932969       19.734276       17.192685
  C           29.331413       22.066931       15.488063
  H           29.527548       20.396848       14.123035
  H           28.139032       21.413640       13.802722
  C           25.791525       21.437760       15.082127
  H           26.058716       19.817197       16.460942
  H           27.010140       21.266120       16.875405
  H           30.077563       17.567550       16.387837
  H           29.417364       17.882321       14.773673
  H           30.580510       19.007880       15.512561
  H           29.822735       21.661982       16.377702
  H           30.083827       22.628991       14.925048
  H           28.566570       22.780347       15.808826
  H           25.520891       20.843321       14.204496
  H           24.866772       21.748679       15.579306
  H           26.295453       22.348941       14.746506
  N           28.639325       11.372812       26.660557
  C           29.168130       12.507589       25.793277
  C           27.315403       11.655180       27.351860
  C           29.748918       10.869590       27.571057
  H           28.442025       10.600337       26.010022
  C           28.150021       12.971183       24.768668
  H           30.049896       12.113852       25.274939
  H           29.480631       13.324061       26.450965
  C           27.426139       12.714580       28.429188
  H           26.599489       11.946553       26.580477
  H           26.956407       10.707862       27.764831
  C           29.334950        9.641623       28.359737
  H           30.592225       10.613275       26.919633
  H           30.047130       11.692488       28.229035
  H           28.634260       13.621545       24.032755
  H           27.701316       12.128213       24.232862
  H           27.351853       13.556439       25.234756
  H           27.913792       13.626167       28.071359
  H           26.424570       12.992095       28.773962
  H           27.977539       12.344820       29.298712
  H           28.936902        8.859740       27.706246
  H           30.203077        9.233015       28.887394
  H           28.583696        9.880550       29.118266
  N           24.279216       11.413678        3.255705
  C           23.865580       10.120753        3.946197
  C           25.377059       11.264106        2.215142
  C           24.521945       12.492411        4.300146
  H           23.450367       11.719371        2.728068
  C           23.481590        9.037200        2.956372
  H           22.997185       10.367673        4.567597
  H           24.685762        9.802354        4.596397
  C           26.718925       10.905449        2.820108
  H           25.048698       10.506916        1.500085
  H           25.431902       12.207188        1.663395
  C           24.795134       13.847855        3.676102
  H           23.609257       12.550088        4.904208
  H           25.349272       12.166021        4.938914
  H           22.987166        8.213410        3.481672
  H           22.794182        9.412347        2.191023
  H           24.362452        8.616881        2.462155
  H           26.658654       10.043574        3.491210
  H           27.424005       10.650940        2.021916
  H           27.145863       11.746853        3.373823
  H           24.018177       14.122924        2.956720
  H           24.820465       14.614560        4.457477
  H           25.765377       13.874264        3.171359
  N            6.085752       27.872096        4.935638
  C            4.688260       28.463537        5.065029
  C            7.217908       28.885986        4.961142
  C            6.118662       26.896460        3.769238
  H            6.219986       27.299898        5.780275
  C            4.548968       29.348205        6.289468
  H            4.001199       27.614077        5.152102
  H            4.460629       29.008644        4.144226
  C            7.245260       29.771365        3.732085
  H            7.107702       29.476124        5.873313
  H            8.152217       28.326580        5.065862
  C            7.440730       26.158940        3.671813
  H            5.314004       26.173791        3.946700
  H            5.897506       27.454852        2.853643
  H            3.491805       29.571250        6.467463
  H            4.949140       28.864600        7.186693
  H            5.057729       30.306630        6.150108
  H            6.274919       30.233175        3.527132
  H            7.968740       30.579983        3.879513
  H            7.558379       29.213933        2.844356
  H            7.710416       25.690311        4.622861
  H            7.368100       25.371484        2.914407
  H            8.254316       26.822876        3.365054
  N           14.575185        7.457944        8.927862
  C           13.306938        7.922317        8.223990
  C           14.769433        5.951143        8.974961
  C           14.701998        8.167652       10.267143
  H           15.352113        7.809973        8.352276
  C           13.183941        7.351361        6.823929
  H           13.369843        9.014926        8.165138
  H           12.450245        7.651213        8.848021
  C           13.762126        5.253642        9.866056
  H           14.714245        5.582224        7.948649
  H           15.792587        5.766312        9.315298
  C           16.017638        7.863417       10.958390
  H           14.644848        9.241526       10.055612
  H           13.844033        7.882291       10.884793
  H           12.390374        7.873246        6.279034
  H           14.114265        7.463127        6.257334
  H           12.911310        6.292121        6.846733
  H           12.731066        5.535237        9.632697
  H           13.844275        4.169878        9.732903
  H           13.948680        5.465570       10.922996
  H           16.870441        8.049339       10.298848
  H           16.126120        8.502244       11.841090
  H           16.063175        6.827318       11.306617
  N            7.166046       15.616566       13.567027
  C            6.848337       14.129640       13.654436
  C            7.806872       16.211291       14.810428
  C            5.949647       16.366331       13.045811
  H            7.880589       15.700906       12.831394
  C            8.059981       13.304324       14.044388
  H            6.510616       13.827701       12.656441
  H            6.023956       13.996699       14.361231
  C            6.862541       16.263128       15.993972
  H            8.694770       15.617181       15.036559
  H            8.163184       17.211083       14.545302
  C            6.241168       17.833632       12.794150
  H            5.670838       15.886103       12.100896
  H            5.134845       16.232418       13.764970
  H            7.852254       12.241424       13.882782
  H            8.940627       13.571666       13.451081
  H            8.300862       13.424254       15.104779
  H            6.384238       15.299042       16.190446
  H            7.419302       16.542603       16.894491
  H            6.080984       17.014892       15.849558
  H            7.122769       17.965083       12.159851
  H            5.387604       18.297159       12.288582
  H            6.395964       18.382691       13.727642
  C           26.152473        5.530889       11.891670
  C           27.011320        6.767830       11.692374
  O           26.781610        4.437396       11.924889
  O           24.914579        5.757372       11.998880
  H           28.070471        6.507688       11.606573
  H           26.707517        7.286828       10.778491
  H           26.889257        7.444930       12.542946
  C           14.828800       15.992463       13.170539
  C           13.723511       17.012053       12.955754
  O           15.869312       16.171669       12.479261
  O           14.562730       15.093349       14.016689
  H           14.012557       17.762493       12.214047
  H           12.818115       16.508792       12.603870
  H           13.502757       17.523457       13.897333
  C           17.928830       12.727804        9.407471
  C           19.343155       12.204873        9.590746
  O           17.231376       12.109258        8.556822
  O           17.632230       13.718131       10.133039
  H           19.539406       11.349738        8.937244
  H           20.063579       12.993459        9.354190
  H           19.490063       11.888653       10.627693
  C            5.245946        2.991805       14.380025
  C            4.221136        4.112971       14.390612
  O            6.037339        2.975525       15.362917
  O            5.173410        2.217447       13.384898
  H            4.334388        4.747733       15.274404
  H            4.343661        4.735699       13.499526
  H            3.211294        3.692204       14.394061
  C           22.243169        9.130392       17.617941
  C           21.142209        8.086258       17.688865
  O           22.556738        9.658892       18.720214
  O           22.704544        9.335655       16.460283
  H           20.784611        7.953568       18.714220
  H           20.297908        8.394775       17.065318
  H           21.518907        7.125086       17.326809
  C           23.455175        5.616925        5.736223
  C           23.431424        6.168115        7.151492
  O           22.786757        4.561510        5.557449
  O           24.143569        6.288782        4.917753
  H           22.820839        5.544833        7.811447
  H           24.448586        6.203551        7.552695
  H           23.015123        7.179807        7.148426
  C           12.824542       25.415712       26.873914
  C           11.544073       26.153760       27.224692
  O           12.665207       24.277117       26.353473
  O           13.887693       26.039369       27.149472
  H           10.660273       25.564417       26.963140
  H           11.517104       26.359527       28.298828
  H           11.501368       27.101592       26.680057
  C           24.648810       23.299190       27.505730
  C           24.321269       21.832889       27.729421
  O           23.735598       24.110139       27.823613
  O           25.797483       23.518389       27.028579
  H           23.316105       21.707898       28.142770
  H           24.374499       21.292066       26.779940
  H           25.039719       21.394987       28.428641
  C            5.689145       14.050411        8.458808
  C            6.161128       14.535329        9.818752
  O            4.835552       13.121230        8.484238
  O            6.214005       14.642163        7.474165
  H            5.672265       13.986384       10.629004
  H            7.242240       14.393760        9.908141
  H            5.931237       15.598731        9.933480
  C           10.016364       15.360146        8.306181
  C           10.160902       16.807555        7.868600
  O            9.227608       15.165093        9.271822
  O           10.706998       14.535372        7.644409
  H            9.540314       17.471581        8.477514
  H           11.204015       17.122271        7.967120
  H            9.855651       16.911077        6.823161
  C           15.911607       11.127790       25.280694
  C           17.230047       11.658173       24.744250
  O           15.727132       11.293917       26.518036
  O           15.167147       10.586840       24.415638
  H           17.828848       12.113617       25.538507
  H           17.806512       10.840088       24.302365
  H           17.040699       12.414541       23.976858
  C           24.575509       20.128823       11.332221
  C           23.357307       20.054818       12.236581
  O           25.625588       20.568130       11.877187
  O           24.379451       19.739529       10.146817
  H           23.589515       20.404296       13.246917
  H           22.555642       20.678738       11.830510
  H           23.005302       19.020973       12.300559
  C           14.554141        5.517716        5.123083
  C           14.336504        4.150423        5.747987
  O           15.746017        5.932364        5.135034
  O           13.509951        6.065302        4.670330
  H           15.274764        3.728912        6.120588
  H           13.637529        4.232585        6.585555
  H           13.920601        3.464670        5.003940
  C            4.780515       21.644882       17.167065
  C            3.362024       22.085838       16.849571
  O            5.049336       20.445772       16.879812
  O            5.510775       22.538866       17.679593
  H            2.780608       21.270419       16.409251
  H            2.861306       22.412069       17.765918
  H            3.382588       22.918346       16.140102
  C           10.089377       15.321043       26.890097
  C            9.888394       15.595688       28.370481
  O           10.576210       14.190218       26.612836
  O            9.741875       16.263670       26.124679
  H           10.206779       14.744970       28.980191
  H           10.472182       16.471897       28.667612
  H            8.830468       15.788624       28.571489
  C           16.349044       27.982667       19.957767
  C           16.263934       29.383854       20.538106
  O           17.259758       27.808117       19.101744
  O           15.493940       27.169884       20.408710
  H           17.027848       30.039428       20.109744
  H           15.280623       29.813909       20.325999
  H           16.408942       29.345760       21.621784
  C           22.775588        5.936219       15.661170
  C           23.222602        6.069147       14.215532
  O           21.595473        5.519899       15.824423
  O           23.646212        6.260785       16.516647
  H           22.427651        5.774416       13.524141
  H           23.495880        7.107524       14.005940
  H           24.091886        5.429667       14.035954
  C           10.926017       14.819054       16.176049
  C           11.091178       15.825889       15.050720
  O           10.361480       13.737518       15.853215
  O           11.376861       15.195782       17.294077
  H           10.682664       15.443196       14.110774
  H           10.568213       16.753073       15.303060
  H           12.152611       16.045536       14.902561
  C            8.545325       19.496503       17.875650
  C            7.105080       19.041067       18.035754
  O            8.775861       20.687618       18.223131
  O            9.329393       18.620765       17.413600
  H            6.476884       19.840962       18.438710
  H            6.701248       18.740132       17.064571
  H            7.059763       18.188079       18.719271
  C           22.021039       21.663166       23.888338
  C           22.867681       22.820192       24.390182
  O           22.591999       20.537710       23.888159
  O           20.850198       21.978115       23.534633
  H           23.867835       22.485245       24.680591
  H           22.970062       23.573318       23.603317
  H           22.390026       23.278732       25.261057
  C            5.108898       26.124085       27.394657
  C            5.279558       27.121133       28.527852
  O            6.090496       25.354941       27.200940
  O            4.002144       26.193790       26.790168
  H            6.254941       27.011741       29.011069
  H            5.198175       28.140805       28.139930
  H            4.501177       26.963962       29.280352
  C           18.193867        9.713765        9.628868
  C           19.493710        9.190791       10.215612
  O           17.681293       10.691554       10.240294
  O           17.792256        9.100060        8.600644
  H           19.788712        9.761033       11.101407
  H           19.375192        8.141927       10.503145
  H           20.293169        9.267527        9.472771
  C           17.607343        7.396101        3.224407
  C           18.701380        7.669026        4.242226
  O           17.969201        6.745519        2.205365
  O           16.472152        7.857341        3.530625
  H           19.658076        7.246175        3.921652
  H           18.826286        8.748104        4.371938
  H           18.431739        7.224214        5.204657
  C           19.457259        4.545356       29.618972
  C           19.762026        6.019839       29.819910
  O           20.144141        3.752421       30.320465
  O           18.552068        4.302288       28.772381
  H           20.551914        6.165649       30.562643
  H           20.089867        6.462818       28.874856
  H           18.863497        6.540653       30.163765
  C           10.836946        8.846240       12.055942
  C           11.375766        7.654248       12.828076
  O            9.602635        9.067375       12.198132
  O           11.697282        9.464693       11.368550
  H           10.585591        7.161400       13.402148
  H           11.804477        6.925715       12.133610
  H           12.153989        7.983617       13.522859
  C           15.107779       28.469199       29.737792
  C           16.406225       27.735393       29.449821
  O           15.236156       29.674725       30.088319
  O           14.063056       27.775320       29.588607
  H           17.272795       28.386922       29.596116
  H           16.502755       26.875846       30.119670
  H           16.410383       27.381506       28.414647
  C           10.399406       21.317820       24.274248
  C           10.844783       22.595760       23.584415
  O            9.207335       21.316111       24.688505
  O           11.283174       20.418266       24.344437
  H           10.038242       23.334309       23.554895
  H           11.692707       23.030894       24.121557
  H           11.149945       22.375593       22.557166
  C           29.583930       23.800175       26.158018
  C           29.717267       22.309925       25.895839
  O           28.498394       24.158471       26.692695
  O           30.580738       24.491114       25.805671
  H           28.825116       21.766873       26.221411
  H           29.858518       22.132950       24.825528
  H           30.580607       21.913777       26.438562
  C           25.564789       14.251155       21.236605
  C           26.989274       13.824059       21.546108
  O           25.402456       15.487844       21.044528
  O           24.723313       13.309641       21.211306
  H           27.669228       14.681053       21.553874
  H           27.027185       13.343567       22.528211
  H           27.336175       13.114129       20.789473
  C           25.318340       11.208505       30.142174
  C           24.152795       10.263075       29.907592
  O           25.001481       12.376449       30.500158
  O           26.458734       10.701615       29.947921
  H           23.194883       10.758523       30.091362
  H           24.165728        9.908188       28.872834
  H           24.231927        9.403173       30.579265
  C            8.816285       29.368460       17.662107
  C            7.322011       29.187577       17.866527
  O            9.178237       30.531197       17.330931
  O            9.506398       28.327632       17.850769
  H            6.779881       30.121097       17.689128
  H            6.942138       28.430152       17.174544
  H            7.124789       28.862633       18.892369
  C           21.397980        8.231274       14.083247
  C           20.615741        9.533112       14.057125
  O           21.663683        7.784993       15.233411
  O           21.682616        7.761600       12.945899
  H           20.400055        9.888520       15.069054
  H           21.193397       10.302362       13.536160
  H           19.666974        9.385111       13.532937
  C            8.255053       28.182124       22.475419
  C            8.794082       26.791185       22.188894
  O            8.962680       28.885973       23.247755
  O            7.163851       28.455807       21.901357
  H            9.738093       26.614185       22.712678
  H            8.070642       26.038550       22.516023
  H            8.967229       26.674608       21.114992
  C           19.397709       27.779292       23.034245
  C           18.946794       28.356431       21.703475
  O           20.537605       27.237767       23.028490
  O           18.570281       27.916469       23.978551
  H           19.703532       28.207043       20.927675
  H           18.021459       27.869058       21.382446
  H           18.765337       29.430254       21.807463
  C            4.568368        9.491060       20.030618
  C            4.722093       10.159595       21.385900
  O            4.495085        8.231446       20.056066
  O            4.533554       10.285334       19.049249
  H            4.745730        9.421951       22.193464
  H            5.653789       10.732336       21.413245
  H            3.882350       10.838343       21.561883
  C           26.476461       25.752613       24.594691
  C           25.068854       25.480669       24.092645
  O           26.825384       25.086578       25.608245
  O           27.118554       26.613652       23.930237
  H           24.565266       24.728478       24.707009
  H           24.480076       26.402236       24.122463
  H           25.106812       25.116355       23.061785
  C            4.484057       17.943814        8.411283
  C            3.494846       17.615061        9.516156
  O            3.986691       18.486915        7.386435
  O            5.681484       17.629954        8.661938
  H            2.477856       17.909602        9.240814
  H            3.502123       16.538786        9.712154
  H            3.772430       18.145008       10.432093
  C           26.862187       12.349171        7.028926
  C           27.830760       11.584959        6.142806
  O           26.585158       13.518061        6.642150
  O           26.457458       11.713525        8.042493
  H           28.144324       12.186199        5.284305
  H           28.720907       11.310799        6.716662
  H           27.353036       10.673737        5.770931
  C            7.714319        8.198931        7.450488
  C            8.906793        8.735689        6.677663
  O            7.992816        7.613832        8.533420
  O            6.593480        8.408372        6.907325
  H            9.846047        8.524007        7.197114
  H            8.946664        8.271306        5.687918
  H            8.814068        9.819209        6.558401
  C           28.231872       28.726421       25.119879
  C           29.385760       27.848181       24.667555
  O           27.498434       29.171796       24.194485
  O           28.155090       28.898215       26.368783
  H           29.399074       27.737338       23.579266
  H           30.334958       28.292283       24.981613
  H           29.292948       26.854348       25.115348
  C           17.804726        7.818688       15.300193
  C           17.689413        8.945718       16.312056
  O           16.906723        7.796063       14.413783
  O           18.788451        7.046619       15.477291
  H           16.820721        9.578148       16.106525
  H           17.584677        8.530771       17.318876
  H           18.587518        9.569391       16.276328
  C           23.357018       26.831178       26.169117
  C           24.681016       26.590231       26.873627
  O           22.866526       25.825895       25.584765
  O           22.916142       28.011275       26.259500
  H           25.009778       25.553031       26.759760
  H           25.449656       27.244913       26.452412
  H           24.577335       26.804985       27.941320
  C           13.181012       21.389322       17.190621
  C           13.329917       21.520779       18.696578
  O           13.765944       20.396683       16.675677
  O           12.488182       22.294066       16.646015
  H           13.938516       20.710545       19.108845
  H           13.810828       22.472808       18.939893
  H           12.344537       21.488929       19.170760
  C           23.784427        3.513766       10.078173
  C           23.294039        2.076108       10.082607
  O           22.878498        4.392365       10.077252
  O           25.040612        3.644782       10.076011
  H           22.201094        2.028117       10.084299
  H           23.661686        1.556223        9.193004
  H           23.664270        1.560834       10.973818
  C           21.680389       28.886850       13.072171
  C           20.805347       27.668405       13.311033
  O           21.170188       29.782610       12.344192
  O           22.810177       28.846040       13.635273
  H           19.843039       27.762662       12.799256
  H           21.308882       26.771514       12.938371
  H           20.617337       27.551235       14.382369
  C            5.470307       15.701159        2.452068
  C            6.986186       15.610358        2.487075
  O            4.997584       16.866844        2.553826
  O            4.876273       14.593833        2.325086
  H            7.441907       16.598685        2.598267
  H            7.300946       14.987586        3.329641
  H            7.352370       15.163134        1.558239
  C           11.968759        8.342255       22.029573
  C           10.928665        7.250134       22.210788
  O           13.115165        7.943021       21.684595
  O           11.550274        9.513646       22.248392
  H           11.350060        6.261181       22.007728
  H           10.553801        7.261988       23.238491
  H           10.092420        7.417152       21.525488
  C           28.121357       16.667430       24.656856
  C           26.666163       16.403784       24.310068
  O           28.336451       17.724350       25.312065
  O           28.931474       15.791273       24.243058
  H           26.015536       17.194926       24.694276
  H           26.546879       16.355012       23.223685
  H           26.347764       15.452093       24.745662
  C            7.762613       11.113066        4.862548
  C            6.799033       12.286889        4.894392
  O            7.222494        9.973028        4.827474
  O            8.984919       11.430830        4.875296
  H            5.758718       11.948637        4.881566
  H            6.960469       12.874548        5.802926
  H            6.965422       12.926904        4.022880
  C            5.118851       13.880671       19.029105
  C            6.064435       12.998082       18.232694
  O            4.130468       13.286768       19.541962
  O            5.445207       15.099897       19.075444
  H            5.729404       11.956651       18.229411
  H            6.115112       13.348364       17.197527
  H            7.066098       13.037815       18.670792
  C            7.798829       29.495811       26.617848
  C            8.608984       28.235633       26.366926
  O            6.580343       29.308520       26.887772
  O            8.451906       30.572741       26.523610
  H            7.990069       27.338623       26.462596
  H            9.029091       28.259883       25.357094
  H            9.426807       28.170394       27.090629
  C           28.359575       19.731240        8.658279
  C           27.568760       21.005160        8.415172
  O           28.075213       18.766460        7.896057
  O           29.203066       19.802313        9.595638
  H           26.856837       20.881357        7.593787
  H           27.012098       21.273936        9.317793
  H           28.250690       21.822193        8.161665
  C           25.325445       10.215680       24.111182
  C           25.496761       10.185256       22.602180
  O           25.725740       11.269761       24.678034
  O           24.802343        9.177935       24.605774
  H           25.953467       11.108872       22.234501
  H           26.138185        9.345577       22.318714
  H           24.521688       10.066024       22.120669
  C            5.661772       26.675712        9.667703
  C            4.842525       25.999260        8.582066
  O            5.568450       27.933591        9.708630
  O            6.333284       25.888762       10.392238
  H            4.284807       26.730772        7.989886
  H            5.503639       25.442882        7.911090
  H            4.129004       25.304396        9.034712
  C            8.228737       11.414978       29.153952
  C            8.942269       12.753975       29.081015
  O            6.968880       11.472271       29.107885
  O            8.991522       10.413087       29.251642
  H            8.230467       13.580553       28.997694
  H            9.542367       12.903944       29.983361
  H            9.601394       12.775790       28.208137
  C            3.907044        9.291169        4.798318
  C            5.066327        8.693509        4.019712
  O            2.771553        8.811650        4.527460
  O            4.230500       10.194492        5.619631
  H            4.723708        7.919247        3.326915
  H            5.568275        9.476050        3.443071
  H            5.785512        8.245045        4.711441
  C           15.986471       29.116261       24.968182
  C           15.785180       27.616795       24.832377
  O           16.098589       29.745857       23.880210
  O           16.015727       29.541089       26.157230
  H           15.768781       27.310652       23.782213
  H           16.599612       27.086391       25.334582
  H           14.835639       27.327046       25.292001
  C           27.139895       16.115556       26.988176
  C           28.635802       16.140948       27.250812
  O           26.585033       17.247055       26.921229
  O           26.642492       14.960637       26.870187
  H           29.006602       17.166040       27.343176
  H           28.858239       15.607673       28.179777
  H           29.165308       15.654566       26.426256
  C            6.192565        8.492831       13.493491
  C            6.693652        9.840281       13.984055
  O            5.278188        7.971628       14.189842
  O            6.757984        8.066316       12.447758
  H            6.167362       10.155148       14.889987
  H            7.762583        9.778948       14.208692
  H            6.535811       10.598314       13.211198
  C           16.383911       26.425637       12.512035
  C           15.854113       25.128866       11.924618
  O           17.586053       26.691514       12.234890
  O           15.549536       27.073022       13.204769
  H           16.620792       24.615297       11.337007
  H           15.530784       24.462100       12.729428
  H           15.001123       25.338477       11.272462
  C           22.242246       22.108168       19.007058
  C           21.641026       21.042384       18.107057
  O           21.540846       23.146734       19.155593
  O           23.371050       21.816158       19.492550
  H           20.666559       21.352614       17.718461
  H           22.307037       20.853620       17.259925
  H           21.509285       20.113328       18.669495
  C           22.630425       29.591424        6.424141
  C           22.229266       28.126596        6.450809
  O           23.868750       29.813142        6.524321
  O           21.668984       30.401681        6.304626
  H           23.102729       27.476302        6.555762
  H           21.557031       27.941573        7.293841
  H           21.713937       27.866336        5.521542
  C            4.213043        7.226029       17.147620
  C            5.539460        7.959717       17.246006
  O            4.295040        5.967422       17.104830
  O            3.195201        7.973338       17.121273
  H            6.380812        7.260709       17.264719
  H            5.660595        8.623773       16.385081
  H            5.565655        8.557116       18.162121
  C            9.904052        9.891808       16.249647
  C           11.080333        8.930814       16.264332
  O            8.764617        9.349347       16.257887
  O           10.219477       11.114645       16.231050
  H           10.744043        7.889904       16.280141
  H           11.694145        9.082451       15.371540
  H           11.694058        9.109554       17.152156
  C           22.132884       24.413712       21.034062
  C           22.559308       25.778526       21.546707
  O           23.072514       23.665790       20.646309
  O           20.887947       24.202739       21.062201
  H           23.645301       25.901043       21.497283
  H           22.094855       26.563294       20.942340
  H           22.244705       25.898486       22.587607
  C           22.284429       28.677516       17.446506
  C           21.628929       27.314110       17.583636
  O           22.097674       29.256715       16.340931
  O           22.934346       29.057043       18.460773
  H           21.082607       27.041742       16.675790
  H           22.392229       26.552753       17.769500
  H           20.925116       27.323653       18.421128
  C           19.381377       19.940436       27.077233
  C           20.318264       21.095847       27.384851
  O           18.156638       20.239671       27.021410
  O           19.951357       18.824905       26.916343
  H           19.767162       22.032143       27.513197
  H           20.870242       20.890251       28.306744
  H           21.031036       21.223642       26.564813
  C           19.626417        5.711261        8.165510
  C           18.119573        5.674960        8.353828
  O           20.182057        6.801733        8.473371
  O           20.130763        4.641064        7.723376
  H           17.743119        6.627707        8.737743
  H           17.631105        5.470572        7.396508
  H           17.853578        4.886499        9.064049
  C           29.358741       10.652376       14.289283
  C           28.141322        9.851078       14.717271
  O           30.457431       10.033807       14.343103
  O           29.113266       11.839055       13.933328
  H           28.417413        8.834702       15.013229
  H           27.656380       10.339277       15.567759
  H           27.428723        9.788785       13.889529
  C            5.707109       21.319453        9.174589
  C            6.961419       20.502608        9.433109
  O            4.958052       20.881670        8.258126
  O            5.575205       22.335420        9.913225
  H            7.018936       19.638678        8.764414
  H            7.847787       21.123533        9.272975
  H            6.962349       20.141391       10.465755
  C            6.433680       23.057050        6.511408
  C            7.408235       24.050958        7.119479
  O            5.664442       23.527577        5.628503
  O            6.519396       21.883276        6.969751
  H            7.285663       25.046706        6.683248
  H            7.239905       24.122769        8.198064
  H            8.435442       23.719353        6.941372
  C           11.606451       18.126259       11.316241
  C           10.646687       18.191001       12.491836
  O           12.188369       19.210214       11.035068
  O           11.698592       16.991356       10.769731
  H           10.610480       19.196438       12.921513
  H            9.639282       17.918737       12.163439
  H           10.967243       17.493193       13.271031
  C            8.927867        4.113654       16.714211
  C           10.118129        4.898593       17.238146
  O            9.166135        2.912324       16.409776
  O            7.849007        4.767254       16.650666
  H           11.020187        4.280422       17.269658
  H           10.310281        5.757985       16.589024
  H            9.909151        5.257376       18.250292
  C            9.048533       21.299929        6.586845
  C           10.177585       21.722411        7.511027
  O            8.866411       22.043341        5.583444
  O            8.435314       20.254921        6.943344
  H           10.668756       22.630939        7.150248
  H            9.783556       21.916816        8.512918
  H           10.925008       20.925828        7.571453
