23
triethylammonium reneu.ff
N            0.000000        0.000000        0.000000
C            1.523000        0.000000        0.000000
C           -0.642957       -1.377319        0.000000
C           -0.508171        0.949968       -1.073668
H           -0.273621        0.422964        0.897259
C            2.098390       -0.828011        1.133408
H            1.830960        1.044706        0.122337
H            1.865329       -0.356913       -0.975838
C           -0.428645       -2.128844       -1.297885
H           -0.235163       -1.928406        0.849983
H           -1.708614       -1.237995        0.204448
C           -2.015974        1.111814       -1.033363
H           -0.035387        1.919387       -0.878940
H           -0.166181        0.578014       -2.045120
H            3.170173       -0.626837        1.232578
H            1.619619       -0.594070        2.090003
H            1.991910       -1.899453        0.939732
H            0.623659       -2.158617       -1.595554
H           -0.765961       -3.164061       -1.181406
H           -1.007853       -1.689062       -2.115165
H           -2.364624        1.380251       -0.031754
H           -2.319478        1.906894       -1.722391
H           -2.530744        0.200285       -1.351108
