12
ethanolammonium reneu.ff
N            0.000000        0.000000        0.000000
C            1.490000        0.000000        0.000000
H           -0.296476       -0.992672        0.000000
H           -0.400264        0.465955        0.821798
H           -0.387187        0.420233       -0.850950
C            1.960044       -0.928076       -1.117794
H            1.785038       -0.389865        0.979787
H            1.837960        1.028142       -0.119633
O            1.207879       -2.137565       -1.014991
H            3.028173       -1.141244       -1.026639
H            1.760365       -0.486131       -2.099546
H            1.639306       -2.793821       -1.601166
