LAMMPS (10 Dec 2025)
OMP_NUM_THREADS environment is not set. Defaulting to 1 thread.
  using 1 OpenMP thread(s) per MPI task
# created by fftool

units real
boundary p p p

atom_style full
bond_style harmonic
angle_style harmonic
dihedral_style opls

special_bonds lj/coul 0.0 0.0 0.5

# remove hybrid if not necessary
pair_style hybrid lj/cut/coul/long 10.0 10.0
pair_modify mix geometric tail yes
read_data data.lmp
Reading data file ...
  orthogonal box = (0 0 0) to (37.42 37.42 37.42)
  1 by 1 by 2 MPI processor grid
  reading atoms ...
  3038 atoms
  scanning bonds ...
  1 = max bonds/atom
  scanning angles ...
  6 = max angles/atom
  scanning dihedrals ...
  9 = max dihedrals/atom
  orthogonal box = (0 0 0) to (37.42 37.42 37.42)
  1 by 1 by 2 MPI processor grid
  reading bonds ...
  2450 bonds
  reading angles ...
  3136 angles
  reading dihedrals ...
  2744 dihedrals
Finding 1-2 1-3 1-4 neighbors ...
  special bond factors lj:    0        0        0.5     
  special bond factors coul:  0        0        0.5     
     4 = max # of 1-2 neighbors
     6 = max # of 1-3 neighbors
     9 = max # of 1-4 neighbors
    11 = max # of special neighbors
  special bonds CPU = 0.005 seconds
  read_data CPU = 0.283 seconds
# read_restart restart1.lmp

kspace_style pppm 1.0e-5

# remove pair style if not using hybrid
pair_coeff    1    1 lj/cut/coul/long     0.170000     3.250000  # N1 N1
pair_coeff    2    2 lj/cut/coul/long     0.065999     3.500000  # C1NE C1NE
pair_coeff    3    3 lj/cut/coul/long     0.000000     0.000000  # HN HN
pair_coeff    4    4 lj/cut/coul/long     0.065999     3.500000  # CTOE CTOE
pair_coeff    5    5 lj/cut/coul/long     0.030000     2.500000  # H1N H1N
pair_coeff    6    6 lj/cut/coul/long     0.170000     3.120000  # OH OH
pair_coeff    7    7 lj/cut/coul/long     0.030000     2.500000  # H1O H1O
pair_coeff    8    8 lj/cut/coul/long     0.000000     1.000000  # HO HO
pair_coeff    9    9 lj/cut/coul/long     0.105000     3.750000  # CO2 CO2
pair_coeff   10   10 lj/cut/coul/long     0.065999     3.500000  # CTA CTA
pair_coeff   11   11 lj/cut/coul/long     0.210000     2.960000  # O2 O2
pair_coeff   12   12 lj/cut/coul/long     0.030000     2.500000  # HC HC
pair_coeff   13   13 lj/cut/coul/long     0.000000     1.000000  # Hw Hw
pair_coeff   14   14 lj/cut/coul/long     0.155425     3.165500  # Ow Ow

# minimize 1.0e-4 1.0e-6 100 1000
# reset_timestep 0

fix SHAKE all shake 0.0001 20 0 b 2 4 6 9
Finding SHAKE clusters ...
      98 = # of size 2 clusters
     588 = # of size 3 clusters
     196 = # of size 4 clusters
       0 = # of frozen angles
  find clusters CPU = 0.011 seconds

neighbor 2.0 bin
neigh_modify delay 0 every 1 check yes








#fix VAVG all ave/time 10 1000 50000 v_vinst

# ---------------------------------------------------------------------------
# RENEU 2026 simulation protocol (stage2 M4 ethanolammonium acetate)
# 1 minimise  2 NVT relaxation  3 NPT equilibration  4 NPT production
# ---------------------------------------------------------------------------
timestep 1.0

variable TK      equal 300.0
variable PBAR    equal 1.0
variable NVTRUN  equal 20000
variable EQRUN   equal 100000
variable PRODRUN equal 200000

variable dens equal density
variable vol  equal vol

thermo 1000
thermo_style custom step temp press vol v_dens pe etotal

# --- 1. energy minimisation ------------------------------------------------
print "RENEU >>> stage 1 of 4: energy minimisation"
RENEU >>> stage 1 of 4: energy minimisation
minimize 1.0e-4 1.0e-6 10000 100000
PPPM initialization ...
  using 12-bit tables for long-range coulomb
  G vector (1/distance) = 0.29090679
  grid = 27 27 27
  stencil order = 5
  estimated absolute RMS force accuracy = 0.0036686988
  estimated relative force accuracy = 1.1048177e-05
  using double precision FFTW3
  3d grid and FFT values/proc = 23120 10206
Generated 91 of 91 mixed pair_coeff terms from geometric mixing rule
WARNING: Using fix shake with minimization.
  Substituting constraints with harmonic restraint forces using kbond=1987206.7 (src/RIGID/fix_shake.cpp:397)
Neighbor list info ...
  update: every = 1 steps, delay = 0 steps, check = yes
  max neighbors/atom: 2000, page size: 100000
  master list distance cutoff = 12
  ghost atom cutoff = 12
  binsize = 6, bins = 7 7 7
  1 neighbor lists, perpetual/occasional/extra = 1 0 0
  (1) pair lj/cut/coul/long, perpetual
      attributes: half, newton on
      pair build: half/bin/newton
      stencil: half/bin/3d
      bin: standard
Per MPI rank memory allocation (min/avg/max) = 17.04 | 17.07 | 17.11 Mbytes
   Step          Temp          Press          Volume         v_dens         PotEng         TotEng    
         0   0             -10389942       52397.594      0.60001474     482644.24      482644.24    
        18   0             -4765.4376      52397.594      0.60001474    -5203.2149     -5203.2149    
Loop time of 3.15238 on 2 procs for 18 steps with 3038 atoms

100.0% CPU use with 2 MPI tasks x 1 OpenMP threads

Minimization stats:
  Stopping criterion = energy tolerance
  Energy initial, next-to-last, final = 
        482644.2360602  -5203.20601893248  -5203.21491412208
  Force two-norm initial, final = 2576281.4 7007.5546
  Force max component initial, final = 137392.19 1497.5678
  Final line search alpha, max atom move = 5.200842e-05 0.077886137
  Iterations, force evaluations = 18 60

MPI task timing breakdown:
Section |  min time  |  avg time  |  max time  |%varavg| %total
---------------------------------------------------------------
Pair    | 1.7777     | 1.9004     | 2.0231     |   8.9 | 60.28
Bond    | 0.054872   | 0.061711   | 0.068549   |   2.8 |  1.96
Kspace  | 0.89256    | 1.032      | 1.1715     |  13.7 | 32.74
Neigh   | 0          | 0          | 0          |   0.0 |  0.00
Comm    | 0.075691   | 0.088124   | 0.10056    |   4.2 |  2.80
Output  | 0          | 0          | 0          |   0.0 |  0.00
Modify  | 0.028802   | 0.033355   | 0.037907   |   2.5 |  1.06
Other   |            | 0.03675    |            |       |  1.17

Nlocal:           1519 ave        1521 max        1517 min
Histogram: 1 0 0 0 0 0 0 0 0 1
Nghost:           7433 ave        7473 max        7393 min
Histogram: 1 0 0 0 0 0 0 0 0 1
Neighs:         347265 ave      388786 max      305744 min
Histogram: 1 0 0 0 0 0 0 0 0 1

Total # of neighbors = 694530
Ave neighs/atom = 228.61422
Ave special neighs/atom = 5.4193548
Neighbor list builds = 0
Dangerous builds = 0
reset_timestep 0

# --- 2. NVT relaxation (lets the packed box relax before the barostat) ------
print "RENEU >>> stage 2 of 4: NVT relaxation"
RENEU >>> stage 2 of 4: NVT relaxation
velocity all create ${TK} 12345 mom yes rot yes dist gaussian
velocity all create 300 12345 mom yes rot yes dist gaussian
fix NVTRELAX all nvt temp ${TK} ${TK} 100
fix NVTRELAX all nvt temp 300 ${TK} 100
fix NVTRELAX all nvt temp 300 300 100
run ${NVTRUN}
run 20000
PPPM initialization ...
  using 12-bit tables for long-range coulomb
  G vector (1/distance) = 0.29090679
  grid = 27 27 27
  stencil order = 5
  estimated absolute RMS force accuracy = 0.0036686988
  estimated relative force accuracy = 1.1048177e-05
  using double precision FFTW3
  3d grid and FFT values/proc = 23120 10206
Generated 91 of 91 mixed pair_coeff terms from geometric mixing rule
Per MPI rank memory allocation (min/avg/max) = 15.92 | 15.95 | 15.98 Mbytes
   Step          Temp          Press          Volume         v_dens         PotEng         TotEng    
         0   300            18426.367      52397.594      0.60001474    -5207.1641     -3046.3749    
      1000   292.72609     -1425.682       52397.594      0.60001474    -21311.559     -19203.161    
      2000   296.57313     -813.36276      52397.594      0.60001474    -22009.684     -19873.578    
      3000   303.05921     -141.8881       52397.594      0.60001474    -22473.059     -20290.236    
      4000   302.93235     -1041.7284      52397.594      0.60001474    -22499.72      -20317.81     
      5000   294.59864     -352.51863      52397.594      0.60001474    -22610.072     -20488.187    
      6000   306.19336     -267.38562      52397.594      0.60001474    -22777.976     -20572.578    
      7000   299.20454     -416.73443      52397.594      0.60001474    -22773.51      -20618.451    
      8000   295.37342     -1475.0493      52397.594      0.60001474    -22859.251     -20731.786    
      9000   299.65769     -1093.9629      52397.594      0.60001474    -22836.776     -20678.452    
     10000   295.95337     -363.24816      52397.594      0.60001474    -22933.834     -20802.192    
     11000   300.09181     -1086.1683      52397.594      0.60001474    -22885.348     -20723.897    
     12000   301.0882      -218.55942      52397.594      0.60001474    -22937.786     -20769.158    
     13000   303.64078     -1004.0556      52397.594      0.60001474    -22942.708     -20755.696    
     14000   299.50775     -862.25766      52397.594      0.60001474    -22943.169     -20785.926    
     15000   299.72362     -693.16667      52397.594      0.60001474    -23047.574     -20888.775    
     16000   301.4716      -515.51772      52397.594      0.60001474    -23073.43      -20902.041    
     17000   304.55725     -620.7774       52397.594      0.60001474    -22926.775     -20733.161    
     18000   301.00096     -558.91675      52397.594      0.60001474    -23007.376     -20839.377    
     19000   297.21694     -480.00759      52397.594      0.60001474    -23100.035     -20959.291    
     20000   314.05936     -537.12058      52397.594      0.60001474    -23106.728     -20844.674    
Loop time of 941.488 on 2 procs for 20000 steps with 3038 atoms

Performance: 1.835 ns/day, 13.076 hours/ns, 21.243 timesteps/s, 64.536 katom-step/s
97.8% CPU use with 2 MPI tasks x 1 OpenMP threads

MPI task timing breakdown:
Section |  min time  |  avg time  |  max time  |%varavg| %total
---------------------------------------------------------------
Pair    | 400.57     | 466.91     | 533.24     | 307.0 | 49.59
Bond    | 20.268     | 22.174     | 24.08      |  40.5 |  2.36
Kspace  | 290.43     | 356.75     | 423.06     | 351.1 | 37.89
Neigh   | 44.231     | 44.395     | 44.559     |   2.5 |  4.72
Comm    | 25.685     | 27.341     | 28.997     |  31.7 |  2.90
Output  | 0.0020264  | 0.0058805  | 0.0097345  |   5.0 |  0.00
Modify  | 20.207     | 20.398     | 20.589     |   4.2 |  2.17
Other   |            | 3.518      |            |       |  0.37

Nlocal:           1519 ave        1643 max        1395 min
Histogram: 1 0 0 0 0 0 0 0 0 1
Nghost:         6119.5 ave        6484 max        5755 min
Histogram: 1 0 0 0 0 0 0 0 0 1
Neighs:         422757 ave      505622 max      339892 min
Histogram: 1 0 0 0 0 0 0 0 0 1

Total # of neighbors = 845514
Ave neighs/atom = 278.31271
Ave special neighs/atom = 5.4193548
Neighbor list builds = 925
Dangerous builds = 0
unfix NVTRELAX

# --- 3. NPT equilibration (this is where the density finds its own value) ---
# restart files are written every 25000 steps. If the run stops for any
# reason you can pick up from the last one instead of starting over:
#     read_restart rst_a.lmp      (or rst_b.lmp, whichever is newer)
print "RENEU >>> stage 3 of 4: NPT equilibration - watch the density column"
RENEU >>> stage 3 of 4: NPT equilibration - watch the density column
restart 25000 rst_a.lmp rst_b.lmp
fix NPTEQ all npt temp ${TK} ${TK} 100 iso ${PBAR} ${PBAR} 1000
fix NPTEQ all npt temp 300 ${TK} 100 iso ${PBAR} ${PBAR} 1000
fix NPTEQ all npt temp 300 300 100 iso ${PBAR} ${PBAR} 1000
fix NPTEQ all npt temp 300 300 100 iso 1 ${PBAR} 1000
fix NPTEQ all npt temp 300 300 100 iso 1 1 1000
run ${EQRUN}
run 100000
PPPM initialization ...
  using 12-bit tables for long-range coulomb
  G vector (1/distance) = 0.29090679
  grid = 27 27 27
  stencil order = 5
  estimated absolute RMS force accuracy = 0.0036686988
  estimated relative force accuracy = 1.1048177e-05
  using double precision FFTW3
  3d grid and FFT values/proc = 23120 10206
Generated 91 of 91 mixed pair_coeff terms from geometric mixing rule
Per MPI rank memory allocation (min/avg/max) = 15.99 | 16.34 | 16.68 Mbytes
   Step          Temp          Press          Volume         v_dens         PotEng         TotEng    
     20000   314.05936     -536.99816      52397.594      0.60001474    -23106.728     -20844.674    
     21000   303.40748     -511.16107      48889.066      0.64307485    -23135.513     -20950.181    
     22000   305.93926     -595.49896      46366.36       0.67806334    -23189.221     -20985.653    
     23000   299.17976     -57.736511      45211.802      0.6953788     -23227.703     -21072.822    
     24000   309.98832     -44.710855      45005.291      0.69856961    -23180.806     -20948.075    
     25000   301.30815      54.579274      43627.173      0.72063639    -23178.705     -21008.493    
     26000   310.39331     -238.60567      43099.208      0.72946419    -23229.068     -20993.42     
     27000   293.70393     -652.83781      41943.579      0.74956238    -23247.285     -21131.844    
     28000   299.71976     -457.65936      41762.719      0.75280847    -23272.903     -21114.132    
     29000   303.73223     -14.264894      41708.981      0.7537784     -23310.77      -21123.099    
     30000   296.2865      -68.754911      40937.717      0.76797953    -23253.456     -21119.414    
     31000   295.41412     -482.77506      40632.776      0.77374306    -23262.575     -21134.816    
     32000   307.28708      90.503959      39325.55       0.79946317    -23355.312     -21142.036    
     33000   299.89253     -81.104135      38770.727      0.81090377    -23349.038     -21189.023    
     34000   301.89649     -497.62138      38247.689      0.82199289    -23306.548     -21132.099    
     35000   304.5141       59.597063      37866.73       0.83026257    -23356.762     -21163.459    
     36000   297.3952       509.39951      36811.499      0.85406272    -23354.585     -21212.557    
     37000   289.66708     -311.76787      36545.874      0.86027027    -23453.328     -21366.963    
     38000   305.98728     -578.66093      37151.483      0.84624694    -23315.905     -21111.991    
     39000   307.50252     -4.1122584      36889.135      0.85226527    -23384.93      -21170.102    
     40000   308.81877     -83.999116      36652.514      0.85776733    -23396.43      -21172.122    
     41000   292.37838      1860.1624      35349.995      0.88937294    -23391.797     -21285.904    
     42000   297.53001     -1665.7893      35985.294      0.87367159    -23400.682     -21257.683    
     43000   296.39286      1174.7147      35253.949      0.89179593    -23433.062     -21298.254    
     44000   298.79182      835.87262      35207.22       0.89297958    -23472.164     -21320.077    
     45000   304.3119       365.0626       35172.393      0.8938638     -23389.67      -21197.823    
     46000   299.15283      790.44368      35063.272      0.8966456     -23463.856     -21309.169    
     47000   293.48617      238.58674      33700.133      0.93291409    -23541.253     -21427.38     
     48000   299.99265      64.201943      33610.19       0.93541062    -23520.588     -21359.852    
     49000   301.09755      531.90472      33761.806      0.93120992    -23526.791     -21358.096    
     50000   301.20535      1774.4712      33327.699      0.9433393     -23508.048     -21338.577    
     51000   297.60159      16.225956      32773.83       0.95928149    -23478.448     -21334.933    
     52000   300.38163      437.4635       32887.611      0.95596269    -23514.483     -21350.946    
     53000   306.4566       530.20742      32645.414      0.96305498    -23573.111     -21365.817    
     54000   296.80271      553.02624      32600.292      0.96438796    -23395.746     -21257.985    
     55000   301.46179     -623.48522      32351.95       0.97179086    -23597.06      -21425.742    
     56000   297.86442      1068.606       32349.118      0.97187593    -23453.915     -21308.507    
     57000   296.03633     -714.19547      32133.324      0.97840262    -23540.676     -21408.435    
     58000   304.39238     -1324.1504      31867.691      0.98655811    -23519.011     -21326.585    
     59000   307.67487      255.96574      31583.296      0.99544168    -23471.29      -21255.221    
     60000   299.56193      605.89901      31135.473      1.0097592     -23571.547     -21413.914    
     61000   308.69984      461.06369      31380.247      1.0018828     -23545.66      -21322.209    
     62000   304.60599      544.92816      31082.145      1.0114916     -23599.994     -21406.03     
     63000   297.74432      0.53560302     31081.564      1.0115105     -23613.484     -21468.941    
     64000   292.87967     -50.263046      31184.767      1.008163      -23526.308     -21416.804    
     65000   302.29722     -526.95765      30840.443      1.0194188     -23583.163     -21405.828    
     66000   293.29393      1254.5771      30470.442      1.0317976     -23608.492     -21496.004    
     67000   303.70999      419.53043      30925.795      1.0166053     -23575.823     -21388.312    
     68000   294.40587     -229.11139      31332.473      1.0034104     -23531.961     -21411.464    
     69000   293.75836     -185.07263      30813.831      1.0202992     -23560.409     -21444.576    
     70000   307.50783     -702.17577      30853.002      1.0190039     -23501.522     -21286.657    
     71000   301.79222     -249.39373      30660.209      1.0254114     -23591.855     -21418.157    
     72000   302.65949     -720.69044      30532.322      1.0297064     -23608.535     -21428.591    
     73000   305.43776      498.51755      29987.921      1.0483998     -23636.083     -21436.127    
     74000   306.03845      452.81206      30358.618      1.0355981     -23677.853     -21473.571    
     75000   294.15886      469.59477      29778.694      1.0557659     -23617.444     -21498.727    
     76000   305.78696     -421.76001      29722.985      1.0577447     -23658.429     -21455.958    
     77000   299.41945      817.11878      29663.648      1.0598605     -23682.558     -21525.95     
     78000   299.26265      311.84576      29517.108      1.0651222     -23734.888     -21579.41     
     79000   294.74125     -300.83375      29466.674      1.0669453     -23608.47      -21485.557    
     80000   301.32655     -627.55936      29113.271      1.0798968     -23727.537     -21557.193    
     81000   302.79129     -1019.5429      29576.868      1.0629702     -23719.586     -21538.692    
     82000   307.08619      979.88063      29156.689      1.0782887     -23672.655     -21460.826    
     83000   296.26928     -2143.2734      29537.95       1.0643707     -23735.241     -21601.322    
     84000   304.05312     -56.69615       29549.38       1.063959      -23624.636     -21434.653    
     85000   295.00833     -1467.3652      29420.351      1.0686252     -23705.152     -21580.316    
     86000   300.58992     -677.2745       29517.805      1.0650971     -23644.128     -21479.09     
     87000   301.65768      326.2639       29078.58       1.0811851     -23698.445     -21525.716    
     88000   294.0684       449.00261      28803.459      1.0915123     -23806.845     -21688.779    
     89000   301.70042     -684.85425      29316.07       1.0724264     -23659.626     -21486.59     
     90000   299.55547     -13.256721      29312.987      1.0725392     -23754.413     -21596.826    
     91000   296.99209      118.63236      28673.088      1.0964752     -23704.767     -21565.642    
     92000   294.05285      545.70847      28869.313      1.0890224     -23756.634     -21638.68     
     93000   303.79665      2.6329139      28838.017      1.0902042     -23726.832     -21538.697    
     94000   294.09032      785.33519      28964.606      1.0854396     -23688.66      -21570.436    
     95000   298.23613      989.94632      28745.23       1.0937233     -23775.514     -21627.429    
     96000   302.69742      575.23588      28810.772      1.0912352     -23705.397     -21525.179    
     97000   291.61407     -920.04215      29009.055      1.0837764     -23704.778     -21604.39     
     98000   304.11485      550.58595      28824.379      1.0907201     -23726.476     -21536.049    
     99000   300.23822     -695.61229      28737.055      1.0940345     -23749.783     -21587.277    
    100000   296.49033     -304.30988      28461.787      1.1046154     -23780.576     -21645.065    
    101000   303.05437      98.349502      28368.211      1.1082591     -23693.974     -21511.186    
    102000   300.34728      1042.9101      28384.127      1.1076377     -23759.701     -21596.411    
    103000   296.84352     -321.29092      28609.068      1.0989288     -23713.723     -21575.669    
    104000   296.47078     -590.74149      28454.605      1.1048942     -23800.444     -21665.075    
    105000   307.50601      12.816595      28230.806      1.1136533     -23770.379     -21555.527    
    106000   303.31972     -67.156927      28203.891      1.114716      -23645.865     -21461.165    
    107000   293.69396     -1367.5968      28302.268      1.1108413     -23782.618     -21667.249    
    108000   303.63444     -17.117699      28275.312      1.1119003     -23711.578     -21524.611    
    109000   302.37201     -848.9157       28275.838      1.1118796     -23769.046     -21591.172    
    110000   292.37175      1125.1717      28084.259      1.1194644     -23796.754     -21690.908    
    111000   301.60406     -781.03258      28271.732      1.1120411     -23768.59      -21596.247    
    112000   304.14923      605.35614      28066.289      1.1201812     -23762.321     -21571.647    
    113000   296.1715       240.54811      27990.996      1.1231944     -23701.02      -21567.806    
    114000   306.37186      1500.5191      27589.887      1.1395236     -23699.435     -21492.752    
    115000   299.95269      31.50369       27604.799      1.1389081     -23804.204     -21643.756    
    116000   298.24951      360.05757      27510.956      1.142793      -23818.805     -21670.624    
    117000   301.97306     -855.52333      27880.454      1.1276477     -23740.893     -21565.892    
    118000   301.05319     -2068.2812      27657.885      1.1367221     -23725.503     -21557.128    
    119000   292.54543     -1023.4898      27737.126      1.1334746     -23862.674     -21755.578    
    120000   297.39806     -928.79114      27525.297      1.1421976     -23730.161     -21588.113    
Loop time of 7205.08 on 2 procs for 100000 steps with 3038 atoms

Performance: 1.199 ns/day, 20.014 hours/ns, 13.879 timesteps/s, 42.165 katom-step/s
97.5% CPU use with 2 MPI tasks x 1 OpenMP threads

MPI task timing breakdown:
Section |  min time  |  avg time  |  max time  |%varavg| %total
---------------------------------------------------------------
Pair    | 3529.8     | 3614.7     | 3699.6     | 141.3 | 50.17
Bond    | 130.47     | 138.13     | 145.79     |  65.2 |  1.92
Kspace  | 2021.2     | 2114.2     | 2207.2     | 202.2 | 29.34
Neigh   | 301.07     | 301.37     | 301.67     |   1.7 |  4.18
Comm    | 225.45     | 226.04     | 226.64     |   4.0 |  3.14
Output  | 0.74274    | 0.79828    | 0.85382    |   6.2 |  0.01
Modify  | 699.09     | 714.09     | 729.09     |  56.1 |  9.91
Other   |            | 95.75      |            |       |  1.33

Nlocal:           1519 ave        1520 max        1518 min
Histogram: 1 0 0 0 0 0 0 0 0 1
Nghost:        11152.5 ave       11171 max       11134 min
Histogram: 1 0 0 0 0 0 0 0 0 1
Neighs:         607183 ave      622674 max      591692 min
Histogram: 1 0 0 0 0 0 0 0 0 1

Total # of neighbors = 1214366
Ave neighs/atom = 399.72548
Ave special neighs/atom = 5.4193548
Neighbor list builds = 4132
Dangerous builds = 0
unfix NPTEQ
write_data data.after_equilibration.lmp
System init for write_data ...
PPPM initialization ...
  using 12-bit tables for long-range coulomb
  G vector (1/distance) = 0.29830779
  grid = 24 24 24
  stencil order = 5
  estimated absolute RMS force accuracy = 0.0032719083
  estimated relative force accuracy = 9.8532545e-06
  using double precision FFTW3
  3d grid and FFT values/proc = 18259 6912
Generated 91 of 91 mixed pair_coeff terms from geometric mixing rule

# --- 4. NPT production - this is the trajectory you analyse ----------------
print "RENEU >>> stage 4 of 4: NPT production"
RENEU >>> stage 4 of 4: NPT production
reset_timestep 0
fix NPTPROD all npt temp ${TK} ${TK} 100 iso ${PBAR} ${PBAR} 1000
fix NPTPROD all npt temp 300 ${TK} 100 iso ${PBAR} ${PBAR} 1000
fix NPTPROD all npt temp 300 300 100 iso ${PBAR} ${PBAR} 1000
fix NPTPROD all npt temp 300 300 100 iso 1 ${PBAR} 1000
fix NPTPROD all npt temp 300 300 100 iso 1 1 1000
fix DENSAVG all ave/time 10 100 1000 v_dens v_vol file density.dat

dump TRAJ all custom 500 dump.lammpstrj id mol type element q xu yu zu
dump_modify TRAJ element N C H C H O H H C C O H H O

run ${PRODRUN}
run 200000
PPPM initialization ...
  using 12-bit tables for long-range coulomb
  G vector (1/distance) = 0.29830779
  grid = 24 24 24
  stencil order = 5
  estimated absolute RMS force accuracy = 0.0032719083
  estimated relative force accuracy = 9.8532545e-06
  using double precision FFTW3
  3d grid and FFT values/proc = 18259 6912
Generated 91 of 91 mixed pair_coeff terms from geometric mixing rule
Per MPI rank memory allocation (min/avg/max) = 16.81 | 16.81 | 16.81 Mbytes
   Step          Temp          Press          Volume         v_dens         PotEng         TotEng    
         0   297.39806     -856.13534      27525.297      1.1421976     -23730.14      -21588.091    
      1000   300.5413       19.950058      27388.776      1.147891      -23784.243     -21619.555    
      2000   298.58541      772.78138      27541.417      1.1415291     -23783.338     -21632.738    
      3000   300.59708     -471.29556      27455.357      1.1451073     -23774.89      -21609.801    
      4000   306.58256      1037.3827      27450.702      1.1453015     -23793.838     -21585.637    
      5000   302.29981      441.20843      27515.497      1.1426044     -23730.713     -21553.359    
      6000   295.22503      1006.2808      27515.639      1.1425986     -23798.808     -21672.411    
      7000   302.69769     -623.25582      27628.612      1.1379265     -23765.37      -21585.15     
      8000   294.78739     -599.57949      27633.165      1.137739      -23801.648     -21678.403    
      9000   308.2535      -1758.371       27607.481      1.1387975     -23801.098     -21580.862    
     10000   303.94429     -701.46669      27402.547      1.1473141     -23817.235     -21628.036    
     11000   299.9415       563.06879      27328.082      1.1504404     -23817.972     -21657.604    
     12000   305.56842      348.80262      27323.885      1.1506171     -23803.421     -21602.525    
     13000   302.89496      286.85693      27282.989      1.1523418     -23817.803     -21636.163    
     14000   302.89167     -567.95073      27279.704      1.1524806     -23781.455     -21599.839    
     15000   301.7489      -679.18877      27272.632      1.1527794     -23772.555     -21599.169    
     16000   289.9046      -89.489894      27016.466      1.1637099     -23856.564     -21768.488    
     17000   298.26515     -847.43367      27274.739      1.1526904     -23848.704     -21700.41     
     18000   298.77194     -323.14808      27127.135      1.1589624     -23818.196     -21666.252    
     19000   299.78018      1757.8069      27053.673      1.1621095     -23805.623     -21646.418    
     20000   297.05932     -1180.1433      27155.026      1.157772      -23797.173     -21657.565    
     21000   294.85361      656.93202      27194.005      1.1561125     -23804.796     -21681.075    
     22000   291.82422     -342.96855      27115.279      1.1594691     -23824.847     -21722.945    
     23000   307.58395     -672.5866       27215.923      1.1551814     -23866.868     -21651.455    
     24000   310.18956     -125.47871      27199.708      1.1558701     -23792.644     -21558.463    
     25000   290.97292      682.81573      26801.816      1.1730298     -23867.837     -21772.067    
     26000   298.48643      1621.0165      26876.021      1.169791      -23828.173     -21678.285    
     27000   299.50981     -1240.9202      26949.083      1.1666196     -23875.679     -21718.42     
     28000   292.04607      1316.1561      26571.195      1.183211      -23844.496     -21740.996    
     29000   299.97944     -1371.1187      26781.175      1.1739339     -23899.629     -21738.988    
     30000   291.30381      1554.6034      26612.046      1.1813946     -23852.519     -21754.365    
     31000   292.64699      894.85661      26578.643      1.1828794     -23844.835     -21737.007    
     32000   302.19971      240.03787      26599.772      1.1819398     -23952.628     -21775.995    
     33000   304.04505      1396.2577      26597.213      1.1820535     -23908.065     -21718.14     
     34000   305.39947      736.79613      26772.211      1.1743269     -23876.361     -21676.682    
     35000   296.41635      255.001        26828.792      1.1718503     -23851.128     -21716.15     
     36000   297.0749       788.91164      26609.3        1.1815166     -23904.681     -21764.96     
     37000   302.56634     -1893.8809      26707.282      1.1771819     -23835.352     -21656.078    
     38000   296.37931      69.12887       26525.462      1.1852509     -23860.369     -21725.659    
     39000   302.60588     -158.96162      26305.276      1.195172      -23871.745     -21692.187    
     40000   301.64528      345.85994      26726.948      1.1763157     -23874.167     -21701.527    
     41000   297.57111      351.61268      26547.929      1.1842479     -23934.878     -21791.583    
     42000   296.84072     -142.08716      26656.766      1.1794127     -23904.232     -21766.198    
     43000   303.35831     -733.12869      26612.913      1.1813561     -23814.13      -21629.152    
     44000   306.54099     -1060.1713      26732.792      1.1760585     -23938.527     -21730.625    
     45000   291.41857     -42.058794      26742.639      1.1756255     -23915.761     -21816.781    
     46000   296.18871      20.35718       26524.714      1.1852844     -23897.328     -21763.99     
     47000   303.90994     -194.14914      26775.87       1.1741665     -23989.243     -21800.292    
     48000   308.36111     -1011.0579      26733.876      1.1760109     -23835.955     -21614.944    
     49000   293.49523      634.41828      26715.438      1.1768225     -23882.077     -21768.14     
     50000   308.17529     -1847.394       26624.551      1.1808398     -23897.495     -21677.822    
     51000   301.26705      1213.0365      26495.096      1.1866093     -23964.582     -21794.667    
     52000   294.51028      1056.0743      26522.084      1.1854019     -23932.741     -21811.492    
     53000   302.49473     -1452.0056      26638.304      1.1802301     -23958.541     -21779.784    
     54000   288.95071     -1026.7211      26685.341      1.1781498     -23981.177     -21899.972    
     55000   301.3254      -16.535542      26932.438      1.1673406     -23895.67      -21725.334    
     56000   303.16529      1142.668       26779.102      1.1740248     -23945.401     -21761.813    
     57000   307.51543     -1456.2157      26751.192      1.1752496     -23883.834     -21668.914    
     58000   294.99142     -160.72285      26769.119      1.1744626     -24002.905     -21878.191    
     59000   297.61613      1095.1016      26584.878      1.182602      -23909.457     -21765.838    
     60000   300.25291     -375.05463      26742.03       1.1756523     -23872.367     -21709.756    
     61000   306.15929     -1462.4824      26624.396      1.1808467     -23976.66      -21771.508    
     62000   303.71592     -205.14997      26767.764      1.1745221     -23889.122     -21701.568    
     63000   298.22105     -372.57995      26687.948      1.1780347     -23992.184     -21844.207    
     64000   293.17718      511.6689       26725.387      1.1763844     -23941.387     -21829.741    
     65000   301.51003      177.03088      26893.937      1.1690118     -23860.238     -21688.573    
     66000   302.30319     -13.531495      26704.142      1.1773203     -23973.092     -21795.714    
     67000   296.03692      405.90037      26679.715      1.1783982     -23933.901     -21801.656    
     68000   306.62525      152.48613      26672.965      1.1786965     -23942.861     -21734.353    
     69000   296.32414      993.6009       26637.229      1.1802777     -23872.832     -21738.518    
     70000   285.76671     -449.91105      26783.116      1.1738488     -23923.916     -21865.644    
     71000   310.81978     -584.25712      26674.649      1.178622      -23981.484     -21742.764    
     72000   293.84935     -716.22502      26924.181      1.1676986     -23894.501     -21778.013    
     73000   294.96688      465.53154      26800.576      1.1730841     -23914.463     -21789.926    
     74000   304.13184     -126.48688      26572.941      1.1831332     -23978.147     -21787.597    
     75000   301.06256     -1210.4796      26668.27       1.178904      -23910.599     -21742.157    
     76000   304.82527      818.72225      26553.615      1.1839943     -23848.409     -21652.865    
     77000   293.78699     -433.84016      26815.763      1.1724197     -23902.347     -21786.308    
     78000   297.97639      341.87889      26817.637      1.1723378     -23939.671     -21793.457    
     79000   299.82448     -792.62741      26733.8        1.1760142     -23918.362     -21758.837    
     80000   304.70946      1782.5234      26572.097      1.1831708     -23913.617     -21718.907    
     81000   299.63017      183.58309      26718.957      1.1766675     -23838.381     -21680.256    
     82000   296.62879     -680.45949      26878.309      1.1696915     -23900.2       -21763.693    
     83000   288.01562      628.16416      26790.747      1.1735144     -23874.577     -21800.107    
     84000   299.99781     -1877.5017      26909.192      1.168349      -23898.38      -21737.607    
     85000   301.50896     -1266.6797      26802.818      1.1729859     -23939.288     -21767.63     
     86000   307.03284      233.738        26793.154      1.173409      -23933.578     -21722.133    
     87000   305.97743      20.928305      26799.9        1.1731137     -23847.366     -21643.523    
     88000   292.04833     -604.77481      26788.882      1.1735962     -23899.655     -21796.139    
     89000   299.83727      603.50852      26670.368      1.1788112     -23850.613     -21690.996    
     90000   307.31577      309.52146      26871.247      1.1699989     -23850.377     -21636.895    
     91000   290.61889      137.98344      26671.886      1.1787441     -23881.915     -21788.695    
     92000   303.76076     -114.65048      26900.574      1.1687233     -23923.195     -21735.319    
     93000   289.58551      189.09721      26795.031      1.1733268     -23894.986     -21809.209    
     94000   301.48618      565.70004      26685.763      1.1781312     -23927.717     -21756.223    
     95000   305.03393      56.178389      26643.314      1.1800082     -23967.776     -21770.729    
     96000   299.86967      1549.8628      26582.219      1.1827203     -23942.119     -21782.269    
     97000   305.74174      627.2338       26676.387      1.1785452     -23878.117     -21675.972    
     98000   298.68865      14.12928       26737.317      1.1758595     -23943.444     -21792.1      
     99000   304.44266     -213.2556       26744.677      1.1755359     -23816.214     -21623.426    
    100000   299.3472      -207.96089      26732.565      1.1760685     -23923.778     -21767.691    
    101000   302.41004      267.92066      26704.733      1.1772943     -23911.26      -21733.113    
    102000   303.70482      1704.6792      26647.026      1.1798438     -23959.904     -21772.431    
    103000   298.69757     -266.8088       26785.102      1.1737618     -23827.781     -21676.373    
    104000   299.54034      294.91455      26830.809      1.1717622     -23843.943     -21686.464    
    105000   302.12139     -598.92389      26923.231      1.1677398     -23930.467     -21754.398    
    106000   305.45594      1033.4233      26763.734      1.1746989     -23851.066     -21650.98     
    107000   309.49621     -690.14984      26913.269      1.1681721     -23923.425     -21694.238    
    108000   294.42748     -488.61546      27006.392      1.164144      -23910.296     -21789.644    
    109000   301.91731     -1663.2431      26957.619      1.1662502     -23897.876     -21723.277    
    110000   306.26967      887.78824      26609.293      1.1815169     -23971.677     -21765.729    
    111000   305.49151     -1853.6348      26993.287      1.1647092     -23910.763     -21710.421    
    112000   293.4118       402.84361      26699.154      1.1775402     -23905.71      -21792.373    
    113000   298.46872     -59.469476      26659.993      1.17927       -23949.756     -21799.996    
    114000   305.21573     -796.08756      26780.786      1.1739509     -23866.747     -21668.391    
    115000   292.09939      316.54519      26611.256      1.1814297     -23917.354     -21813.47     
    116000   297.16002     -1802.3354      26656.242      1.1794359     -23875.901     -21735.568    
    117000   297.0267      -1606.941       26947.927      1.1666696     -23879.29      -21739.916    
    118000   299.05355      303.9604       26680.936      1.1783443     -23886.873     -21732.901    
    119000   300.50992     -233.94689      26983.395      1.1651362     -23872.293     -21707.831    
    120000   302.67588      770.41752      26849.005      1.1709681     -23839.228     -21659.166    
    121000   299.48361     -372.56529      26965.579      1.1659059     -23890.124     -21733.054    
    122000   303.49543      129.52951      26784.482      1.173789      -23857.414     -21671.449    
    123000   303.08453      393.59825      26918.424      1.1679484     -23884.062     -21701.057    
    124000   292.83062     -405.85331      26693.614      1.1777846     -23960.305     -21851.155    
    125000   299.92668     -0.0087873732   26632.18       1.1805015     -23905.271     -21745.01     
    126000   301.42241      666.84844      26659.83       1.1792772     -23847.828     -21676.793    
    127000   304.01837     -621.48636      26706.557      1.1772139     -24000.766     -21811.034    
    128000   306.06551      275.81488      26509.009      1.1859866     -23903.681     -21699.204    
    129000   301.14251     -876.26188      26663.3        1.1791237     -23903.982     -21734.964    
    130000   302.63549     -588.65533      26751.846      1.1752209     -23854.288     -21674.516    
    131000   300.69872     -1287.07        26806.902      1.1728072     -23843.165     -21677.343    
    132000   302.25441      2749.4819      26508.58       1.1860058     -23847.182     -21670.155    
    133000   293.37654      408.8864       26964.174      1.1659667     -23929.521     -21816.438    
    134000   289.21784     -229.76857      26901.825      1.168669      -23773.08      -21689.95     
    135000   295.57503     -1869.9436      26698.216      1.1775816     -23969.926     -21841.009    
    136000   296.56887      514.93871      26756.991      1.174995      -23837.239     -21701.163    
    137000   299.04024     -322.37922      26580.426      1.1828        -23922.854     -21768.978    
    138000   296.12872     -49.902227      26810.317      1.1726579     -23816.021     -21683.116    
    139000   294.11522      305.4911       26770.916      1.1743837     -23866.485     -21748.082    
    140000   306.53834      236.97502      26669.282      1.1788592     -23916.075     -21708.193    
    141000   292.56685     -287.21416      26748.972      1.1753472     -23868.814     -21761.563    
    142000   305.1074       514.33747      26641.878      1.1800718     -23901.885     -21704.309    
    143000   292.0857       596.98495      26757.612      1.1749676     -23914.16      -21810.374    
    144000   299.02229     -779.94547      26722.503      1.1765114     -23832.424     -21678.677    
    145000   294.51007      1415.4778      26646.543      1.1798652     -23895.229     -21773.981    
    146000   296.55306     -516.09864      26933.024      1.1673152     -23906.662     -21770.7      
    147000   306.2529      -367.60614      26792.652      1.173431      -23861.077     -21655.25     
    148000   300.79715     -1510.4115      26900.513      1.168726      -23942.091     -21775.56     
    149000   295.78688     -185.47961      26790.806      1.1735119     -23866.757     -21736.313    
    150000   294.7095       903.13583      26790.36       1.1735314     -23949.946     -21827.262    
    151000   299.912       -422.84746      26818.015      1.1723213     -23919.915     -21759.76     
    152000   300.94893     -177.63244      26851.391      1.1708641     -23842.361     -21674.737    
    153000   300.53759      184.51976      26670.974      1.1787844     -23924.075     -21759.414    
    154000   297.05884     -325.89579      26680.711      1.1783542     -23943.836     -21804.231    
    155000   301.60093      536.34822      26799.461      1.1731329     -23924.876     -21752.556    
    156000   293.78229     -40.698106      26760.557      1.1748383     -24010.358     -21894.353    
    157000   300.14583     -412.05174      26574.713      1.1830543     -23954.093     -21792.253    
    158000   299.62797      541.95144      26675.52       1.1785835     -23858.427     -21700.317    
    159000   300.50627     -807.41059      26668.026      1.1789147     -23917.514     -21753.079    
    160000   305.84826     -50.685398      26596.135      1.1821014     -23927.145     -21724.232    
    161000   291.7177      -1551.3434      26869.414      1.1700787     -23901.699     -21800.564    
    162000   297.13187     -533.0065       26777.273      1.174105      -23919.039     -21778.907    
    163000   297.34585      982.4548       26690.092      1.1779401     -23861.803     -21720.131    
    164000   311.2418       1703.048       26666.5        1.1789822     -23958.801     -21717.041    
    165000   304.30109      1246.0714      26755.288      1.1750697     -23864.702     -21672.933    
    166000   304.0114       353.81452      26677.192      1.1785097     -23899.705     -21710.023    
    167000   302.42661     -713.30263      26734.314      1.1759916     -23928.225     -21749.958    
    168000   283.76086      227.18977      26419.079      1.1900236     -23922.68      -21878.856    
    169000   296.65387      225.11829      26667.241      1.1789495     -23970.21      -21833.522    
    170000   300.24893     -1000.6609      26676.516      1.1785395     -23979.058     -21816.475    
    171000   307.06032     -3.7734099      26660.961      1.1792272     -23961.907     -21750.265    
    172000   309.37839     -1122.2662      26654.951      1.179493      -23971.543     -21743.205    
    173000   301.77021      576.33621      26500.825      1.1863528     -23939.574     -21766.035    
    174000   305.78184     -1603.6261      26655.403      1.179473      -23917.553     -21715.119    
    175000   305.28316     -709.68823      26606.655      1.181634      -23985.363     -21786.521    
    176000   300.58024      1335.6291      26515.262      1.1857069     -23951.876     -21786.908    
    177000   307.91284     -1278.0638      26747.615      1.1754068     -23954.718     -21736.935    
    178000   294.29505     -902.42995      26560.432      1.1836904     -23968.727     -21849.029    
    179000   308.66643      388.30945      26334.629      1.1938398     -23980.808     -21757.598    
    180000   303.36421      940.93721      26638.838      1.1802065     -23931.088     -21746.068    
    181000   296.72744      670.51937      26492.179      1.18674       -23971.304     -21834.086    
    182000   299.77284      2218.1893      26396.241      1.1910533     -23958.203     -21799.05     
    183000   296.81342     -528.46913      26762.144      1.1747687     -23978.354     -21840.516    
    184000   298.79093      404.23316      26621.436      1.180978      -23901.029     -21748.948    
    185000   301.41868     -1354.0842      26793.928      1.1733751     -23962.209     -21791.201    
    186000   299.07157     -1493.2766      26637.821      1.1802515     -23955.309     -21801.207    
    187000   294.46291      240.32586      26564.756      1.1834977     -23937.076     -21816.168    
    188000   299.41039      572.39994      26658.667      1.1793286     -23888.767     -21732.225    
    189000   301.3383       936.2743       26340.386      1.1935789     -23966.17      -21795.742    
    190000   302.33234     -461.65563      26527.917      1.1851413     -23977.731     -21800.143    
    191000   297.53966      1466.277       26607.787      1.1815837     -23969.353     -21826.285    
    192000   291.15901     -134.15637      26603.844      1.1817589     -23952.56      -21855.449    
    193000   293.61311     -1276.3617      26717.271      1.1767417     -23859.844     -21745.057    
    194000   296.73171     -187.55318      26572.696      1.1831441     -23943.871     -21806.622    
    195000   299.67574      204.6182       26747.597      1.1754076     -23898.897     -21740.444    
    196000   301.74042     -383.93766      26623.234      1.1808982     -23911.213     -21737.889    
    197000   289.23063      1023.6068      26564.146      1.1835249     -23942.453     -21859.232    
    198000   302.57825      593.98549      26441.503      1.1890145     -23867.545     -21688.186    
    199000   304.87955      1330.198       26594.936      1.1821547     -23966.159     -21770.224    
    200000   298.61471     -176.00924      26762.221      1.1747653     -23898.108     -21747.296    
Loop time of 14407.7 on 2 procs for 200000 steps with 3038 atoms

Performance: 1.199 ns/day, 20.011 hours/ns, 13.881 timesteps/s, 42.172 katom-step/s
98.3% CPU use with 2 MPI tasks x 1 OpenMP threads

MPI task timing breakdown:
Section |  min time  |  avg time  |  max time  |%varavg| %total
---------------------------------------------------------------
Pair    | 8287.3     | 8319.5     | 8351.7     |  35.3 | 57.74
Bond    | 267.4      | 273.97     | 280.53     |  39.6 |  1.90
Kspace  | 3370.9     | 3408.8     | 3446.8     |  65.0 | 23.66
Neigh   | 752.08     | 752.28     | 752.48     |   0.7 |  5.22
Comm    | 375.39     | 376.84     | 378.3      |   7.5 |  2.62
Output  | 24.886     | 33.267     | 41.649     | 145.3 |  0.23
Modify  | 1089       | 1092.4     | 1095.8     |  10.3 |  7.58
Other   |            | 150.6      |            |       |  1.05

Nlocal:           1519 ave        1527 max        1511 min
Histogram: 1 0 0 0 0 0 0 0 0 1
Nghost:          11432 ave       11480 max       11384 min
Histogram: 1 0 0 0 0 0 0 0 0 1
Neighs:         623360 ave      625828 max      620891 min
Histogram: 1 0 0 0 0 0 0 0 0 1

Total # of neighbors = 1246719
Ave neighs/atom = 410.37492
Ave special neighs/atom = 5.4193548
Neighbor list builds = 8061
Dangerous builds = 0

write_data data.final.lmp
System init for write_data ...
PPPM initialization ...
  using 12-bit tables for long-range coulomb
  G vector (1/distance) = 0.29901136
  grid = 24 24 24
  stencil order = 5
  estimated absolute RMS force accuracy = 0.0031812796
  estimated relative force accuracy = 9.5803291e-06
  using double precision FFTW3
  3d grid and FFT values/proc = 18259 6912
Generated 91 of 91 mixed pair_coeff terms from geometric mixing rule
print "RENEU >>> finished. trajectory = dump.lammpstrj, density log = density.dat"
RENEU >>> finished. trajectory = dump.lammpstrj, density log = density.dat
Total wall time: 6:15:58
