        1522
  Built with Packmol                                             
  N            1.500000        1.500000        1.500000
  C            3.036493       18.793359       17.569139
  C            2.136169       19.025721       16.367979
  O            2.921927       17.662770       18.118036
  O            3.786591       19.765570       17.864651
  H            1.512451       18.150726       16.162564
  H            1.480732       19.881248       16.555893
  H            2.744936       19.232064       15.482731
  C           23.621193       20.495452       16.048299
  C           23.274019       19.102681       15.551289
  O           22.647731       21.171126       16.482444
  O           24.844245       20.798711       15.962588
  H           22.203696       18.899499       15.651097
  H           23.547394       19.006627       14.496359
  H           23.823556       18.354687       16.130384
  C           19.935623       11.965854       15.094519
  C           20.003121       12.303800       16.573910
  O           20.246924       10.779385       14.797828
  O           19.575165       12.919761       14.349333
  H           20.320240       11.440045       17.165685
  H           20.718074       13.115738       16.736500
  H           19.017709       12.621937       16.926882
  H           16.644059        6.741591        7.723673
  O           16.080452        7.510167        7.420954
  H           15.942112        8.142591        8.183123
  H            8.473891       24.758716       22.520738
  O            7.734557       24.829548       23.190341
  H            7.597889       23.942371       23.631065
  H           19.064487       12.143734        4.228897
  O           18.814128       12.165105        5.196814
  H           18.044999       11.546130        5.355902
  H           12.351530       20.375833       20.291092
  O           13.317932       20.599092       20.163726
  H           13.867736       19.769972       20.265091
  H           12.631672        9.051679       22.945393
  O           13.606959        8.845490       22.866013
  H           13.743153        7.855831       22.911029
  H           10.730643       20.574800       12.911575
  O            9.839165       20.628715       13.361418
  H            9.525935       19.707466       13.592041
  H           11.980737        8.816071       19.541057
  O           11.018369        8.878927       19.276674
  H           10.441411        8.677716       20.068275
  H           15.567721        3.760578        4.355519
  O           16.425941        3.470999        4.779315
  H           16.765009        4.198244        5.376095
  H            3.498889       12.177521       18.988945
  O            3.760445       11.215851       18.906607
  H            3.250284       10.673356       19.574016
  H           22.591435       14.010796       17.460794
  O           23.069990       13.136857       17.375848
  H           23.404018       12.851071       18.274042
  H           11.131153       17.150038        9.951150
  O           10.294032       17.696375        9.923878
  H            9.504454       17.091480        9.820584
  H           15.903057        9.777617        1.815555
  O           15.231009       10.457994        2.107853
  H           15.665949       11.357214        2.155083
  H            8.672541       22.672487        2.550189
  O            9.670515       22.688589        2.488644
  H            9.971018       23.591704        2.181920
  H           24.197904        4.084846        9.055477
  O           24.819985        3.329817        9.262714
  H           24.289248        2.508609        9.472323
  H           21.532309       11.729884       10.621730
  O           21.752839       11.409846       11.543110
  H           21.139882       11.844876       12.202680
  H           12.930916       22.343717       14.711533
  O           12.144433       22.146029       15.296651
  H           11.473894       21.609905       14.783866
  H            4.544145       16.766441       14.532526
  O            4.735521       16.586410       15.497390
  H            4.311523       15.721351       15.765530
  H           18.295942        2.551320        5.484555
  O           19.154893        2.464942        5.989274
  H           19.918535        2.432187        5.344465
  H           15.706197       10.405662       22.807756
  O           15.094991       11.181939       22.653414
  H           15.619560       12.032351       22.693736
  H           13.228443        9.978349       21.020026
  O           12.665744       10.731848       20.680011
  H           11.703154       10.543069       20.874390
  H            5.350581       24.674778       18.051110
  O            5.671057       23.873690       18.556634
  H            5.275873       23.046903       18.156318
  H            4.627799       18.946469        4.490549
  O            4.281847       18.156930        3.983650
  H            3.809922       17.538276        4.611786
  H            6.519199        7.792329       15.992389
  O            7.438060        7.613279       15.640769
  H            7.476848        7.854879       14.671169
  H            4.438338       24.634464        9.484375
  O            3.637186       24.040548        9.557995
  H            3.539252       23.507285        8.717734
  H            3.115884        3.443595       24.661152
  O            2.130846        3.424432       24.489884
  H            1.718558        4.273584       24.819973
  H           12.434830       12.504069       12.976901
  O           12.676435       11.533694       12.976966
  H           13.671848       11.438044       12.978858
  H           14.230917       14.686819       17.601894
  O           13.236103       14.599827       17.654598
  H           12.991816       13.638378       17.780849
  H           15.217297       23.872532        5.408371
  O           15.313923       24.236479        4.481977
  H           16.124720       24.819997        4.435993
  H            6.427486       13.083987       13.040382
  O            7.204547       13.713351       13.031543
  H            7.968049       13.307330       13.533750
  H            2.569925       22.119623       10.122348
  O            1.679204       21.904274        9.722047
  H            1.786600       21.181707        9.039140
  H           17.536263        3.781948       18.794156
  O           18.112569        4.586472       18.650580
  H           18.717907        4.427944       17.870558
  H           10.007880        6.652624       18.699790
  O           10.871646        6.684331       19.202685
  H           11.633679        6.703248       18.555423
  H           10.128776       18.673406       16.838785
  O            9.478489       18.984501       17.531856
  H            9.490977       19.983443       17.576107
  H           11.004144        3.119620       12.181695
  O           11.399014        2.255481       11.869698
  H           10.798603        1.500360       12.132944
  H            9.871710        4.394715       14.832633
  O            8.895847        4.289187       14.641437
  H            8.447256        5.181297       14.695348
  H           13.516905       14.701302        1.500378
  O           14.096757       15.460524        1.795934
  H           13.521909       16.221148        2.097596
  H            8.781636        7.582529       21.261719
  O            9.343838        6.909762       20.780768
  H            8.764035        6.163388       20.454036
  H           10.630410        4.681816       24.821849
  O           10.479630        5.670370       24.816597
  H           11.361409        6.142029       24.815275
  H           17.369793       20.289887       21.065238
  O           16.827058       19.495514       21.338020
  H           15.977778       19.475016       20.810476
  H            4.201649        4.732468        3.229669
  O            4.205166        3.932690        3.829954
  H            5.144337        3.725857        4.104139
  H           17.289119       19.315096        9.397161
  O           18.168781       18.839522        9.402044
  H           18.013590       17.851646        9.406074
  H            8.811431       13.893609       23.181417
  O            8.131752       14.614735       23.047199
  H            8.571269       15.415440       22.640141
  H            6.416338       22.067604        2.219334
  O            6.520917       22.665546        3.014021
  H            5.660403       22.697796        3.522425
  H           13.559252       23.559786       12.989104
  O           13.127338       23.135852       12.193032
  H           12.527211       22.394931       12.494502
  H            1.699649        9.139812       19.284565
  O            1.695629        8.966629       18.299683
  H            2.047412        8.047681       18.121407
  H            5.774564       22.627877       21.553798
  O            6.405269       23.329466       21.885437
  H            7.339301       23.090286       21.620150
  H            9.597172       15.622667       19.543090
  O            9.308813       15.298575       20.444097
  H            8.312822       15.211335       20.463893
  H            2.680738        7.025997       11.068926
  O            2.009723        6.428808       10.629490
  H            1.489909        5.939475       11.329737
  H           16.414224       24.563492       13.973263
  O           15.533463       24.136205       13.769092
  H           15.650029       23.144881       13.708358
  H           18.901892        8.638674       21.784696
  O           18.792210        8.308081       20.847318
  H           19.687056        8.065592       20.472553
  H            4.368205       14.989154        9.390115
  O            4.328054       13.996857        9.507315
  H            3.373730       13.698283        9.496415
  H            2.811509       16.988399       23.212816
  O            1.839852       16.885004       23.425398
  H            1.657891       15.941637       23.702794
  H            7.895149       23.528148       17.030839
  O            7.597315       24.361515       17.496450
  H            8.389607       24.819199       17.899933
  H            3.612991       11.565099        7.980133
  O            2.769895       11.292039        7.516853
  H            2.556916       11.951746        6.796141
  H           16.382774       21.064916       14.308371
  O           17.202837       21.246789       13.765767
  H           17.747369       21.956710       14.212416
  H            6.761969        4.769005        1.500007
  O            7.651264        5.226209        1.510956
  H            8.378413        4.540242        1.537463
  H            8.826347       15.879193       24.774428
  O            9.824641       15.894336       24.830815
  H           10.208136       15.321675       24.106253
  H           11.520031       17.050414        7.788245
  O           10.809071       16.349214        7.734818
  H           10.165163       16.582263        7.006073
  H           13.569958       13.789883       11.585740
  O           14.374428       14.342352       11.367552
  H           15.149680       13.740758       11.175020
  H            3.727134        9.213821       10.737738
  O            4.542450        8.861170       10.278502
  H            4.518439        7.861459       10.277760
  H           10.168158       13.533836       17.163172
  O           10.844515       13.154640       17.794640
  H           10.946187       13.765083       18.580148
  H           10.787372       15.577480       16.625335
  O            9.972978       15.726570       17.186169
  H           10.033128       16.620574       17.630171
  H           23.572849       24.032053       21.847611
  O           23.714390       23.086817       22.141713
  H           23.709441       23.044308       23.140796
  H           21.480628        2.681161       14.025675
  O           22.420586        2.590517       13.696641
  H           22.920180        3.437696       13.877453
  H           15.818147        9.632648       17.399508
  O           15.839891        9.941813       18.350268
  H           16.764895       10.243153       18.581700
  H           19.480800       24.374030       14.009790
  O           19.327781       23.901688       13.141759
  H           19.482860       22.921364       13.263880
  H           22.941758       13.240503       11.326229
  O           22.651917       14.103308       10.912031
  H           22.588006       13.992060        9.920295
  H            8.522545       16.152352       15.585481
  O            8.640935       15.164326       15.486551
  H            9.098317       14.968638       14.619079
  H            9.902122        8.641578       17.395211
  O            9.803995        9.636547       17.415441
  H           10.709204       10.060121       17.449798
  H           20.830238       20.289371       24.822776
  O           19.862600       20.039628       24.786650
  H           19.771564       19.108995       24.432201
  H           13.481626        6.978843        5.569593
  O           14.248203        7.612205        5.675479
  H           13.928521        8.549075        5.533778
  H           17.896329       15.911581       15.763054
  O           18.016123       14.929393       15.907813
  H           18.817723       14.772843       16.484812
  H           12.116169       18.575733       24.780783
  O           11.893262       18.172623       23.893194
  H           12.474330       17.374440       23.734246
  H            2.354445        8.680118       12.483071
  O            1.763712        8.980489       11.734198
  H            1.516194        9.939922       11.869187
  H           22.013347       13.279463        4.385600
  O           21.024038       13.135145        4.364664
  H           20.556968       14.015712        4.444953
  H           14.412054        5.635572        1.527286
  O           13.900411        4.776807        1.500000
  H           12.937803        4.955725        1.703407
  H            5.088676        6.524450        6.335354
  O            5.952713        6.140387        6.660830
  H            5.957373        5.152354        6.506657
  H            9.536855       11.002034        2.802259
  O            8.932439       10.277060        2.471968
  H            8.578266       10.523568        1.569862
  H           20.889216       24.616666       19.221210
  O           21.217263       23.843451       19.763911
  H           22.086664       24.084116       20.195446
  H            1.936988        6.353739        5.006750
  O            2.670293        5.691687        5.161511
  H            3.537358        6.073925        4.841995
  H           21.407880        4.575837       24.080057
  O           20.418633        4.453833       24.160716
  H           20.203715        3.477397       24.180269
  H           22.221923       11.171592        7.531747
  O           23.055177       10.643433        7.368238
  H           22.816896        9.684996        7.211333
  H           14.523346       22.629108       23.353864
  O           14.143755       21.802683       23.769717
  H           14.318412       21.814565       24.754274
  H            1.558495        3.096622       16.817604
  O            1.481966        3.499411       15.905516
  H            1.495414        2.773155       15.218224
  H            5.556755       22.693469       13.905209
  O            5.442299       21.703266       13.985190
  H            6.314326       21.286604       14.242020
  H            6.117017       13.753042       10.809661
  O            6.777788       14.500002       10.735952
  H            6.308943       15.331595       10.438230
  H           16.139082        7.361099       10.368845
  O           16.107291        6.510308        9.844303
  H           15.224189        6.437278        9.380842
  H           12.695429       23.309859       24.808900
  O           13.527391       23.864663       24.803227
  H           13.281645       24.833990       24.806870
  H           22.476200        9.977267        9.381745
  O           22.285319        9.008675        9.541097
  H           21.650834        8.674897        8.843944
  H           20.738054        3.574249        7.040061
  O           21.380067        3.583141        7.806704
  H           21.215771        4.393129        8.369666
  H            6.834181       12.624304        8.904439
  O            7.528955       13.285128        8.620539
  H            7.123300       14.198215        8.579108
  H           24.593306        6.335792       16.001576
  O           24.821363        7.106515       15.406618
  H           24.709147        6.834430       14.450910
  H            5.388175       19.457937        1.613306
  O            5.098926       18.574748        1.982511
  H            4.281495       18.262667        1.498350
  H           15.013509       12.174401       18.562565
  O           15.351448       12.620310       17.733733
  H           16.212926       12.196106       17.454615
  H           13.871951       20.694377       17.959570
  O           13.585822       19.737413       17.911087
  H           14.337880       19.149185       18.208402
  H            8.208690       18.283442       11.139485
  O            8.897342       18.628954       11.776964
  H            9.288729       19.476201       11.417813
  H            5.435405        8.044090       22.231194
  O            5.982491        7.493699       21.600506
  H            6.303746        8.069205       20.848451
  H            3.537828       17.669686        7.096827
  O            3.979910       18.508008        7.415858
  H            3.401519       19.293878        7.197061
  H           17.848794       16.733019        7.449605
  O           18.714322       16.320800        7.734098
  H           19.467699       16.938600        7.508830
  H           18.403603       17.819729       18.665425
  O           19.354104       18.048743       18.455422
  H           19.955426       17.331720       18.807968
  H            6.986137       12.826358       16.548743
  O            7.251229       13.789084       16.495029
  H            6.457492       14.339407       16.235943
  H           19.469838        5.832514       19.935933
  O           20.354858        5.656637       19.504881
  H           20.326344        5.955678       18.551067
  H           22.324511       20.505822        3.846204
  O           21.768031       19.675013        3.855539
  H           21.890206       19.182308        2.993963
  H           15.857925       20.310024       16.492132
  O           16.768368       20.723651       16.489810
  H           17.461791       20.003142       16.484250
  H            4.742736        4.083037        8.040620
  O            4.780037        3.292827        8.652319
  H            4.088466        3.392199        9.367759
  H           24.193261       23.654317       12.260935
  O           23.845797       24.303902       11.584690
  H           23.071082       24.804613       11.970831
  H           20.194451       22.384652        5.934205
  O           19.690071       23.237057        5.796338
  H           20.250522       24.008457        6.097730
  H           16.348334       20.003295       18.619302
  O           17.224157       19.662067       18.960621
  H           17.963961       20.240724       18.617336
  H            9.653157        2.385528       10.476621
  O            8.952586        3.025442       10.792389
  H            8.436324        2.611224       11.541986
  H           10.337674       24.305922       14.882627
  O            9.354439       24.320006       14.700830
  H            8.887781       24.820475       15.430049
  H           13.755578       10.321335        6.837026
  O           14.706143       10.622074        6.759685
  H           14.736588       11.620119        6.705103
  H           15.521820        7.378928       24.208451
  O           15.503017        8.188469       24.795214
  H           14.574795        8.559561       24.821539
  H           15.317205       16.130495       14.510553
  O           14.323868       16.219308       14.584003
  H           14.016511       16.992909       14.029862
  H           19.593620       14.612286        6.452399
  O           20.270369       14.387912        7.153589
  H           19.851542       14.466328        8.058263
  H           23.888492        7.043767       21.075777
  O           23.319642        6.926027       21.889747
  H           22.376157        6.743072       21.613411
  H           21.205198       15.088357       18.786637
  O           20.426394       14.474775       18.916949
  H           20.741918       13.526141       18.893763
  H           12.309744       16.578651       15.393634
  O           12.106927       17.530291       15.162881
  H           11.135133       17.620607       14.945033
  H           20.963728       21.346991       20.855352
  O           21.808005       20.872011       20.607176
  H           22.339906       20.684281       21.432911
  H           13.991111        1.500680       20.171046
  O           14.839548        1.743370       19.700668
  H           14.680269        1.760456       18.713582
  H           19.720386        9.932456       11.561149
  O           20.097351        9.006246       11.555390
  H           21.080335        9.047563       11.376405
  H           18.219825       18.803859        6.806252
  O           17.563513       19.528424        6.595869
  H           18.037299       20.288417        6.150968
  H            7.434298       23.573516       13.163386
  O            7.787576       22.668704       12.925669
  H            8.757207       22.616156       13.164530
  H           23.381042       17.285671       23.291027
  O           22.389449       17.282227       23.420373
  H           22.172237       17.607384       24.340749
  H           10.649959       12.055578       11.778050
  O            9.951599       11.395309       12.054344
  H           10.006022       10.587391       11.467569
  H            9.373948        4.688607       21.975730
  O            9.846216        5.475894       22.372142
  H           10.753499        5.196684       22.686591
  H           12.671369       15.180703        7.650468
  O           13.404025       15.857280        7.724366
  H           14.277344       15.389403        7.860031
  H           24.711143       18.273596       12.734709
  O           23.789508       17.905454       12.611988
  H           23.843856       17.013872       12.162403
  H           13.091739        8.739289       14.919964
  O           13.183796        7.744101       14.886406
  H           12.275778        7.326146       14.857839
  H           13.467938        9.252316       12.814774
  O           12.502563        9.120787       12.589491
  H           12.426532        8.584811       11.748689
  H           11.206097       20.043409        3.628586
  O           11.803096       20.845300        3.652298
  H           11.246206       21.675834        3.642947
  H           16.673418       13.958146       18.883877
  O           17.031107       14.170642       17.974535
  H           16.638255       15.032932       17.654965
  H           19.456909       11.819988       23.706277
  O           18.836280       11.048158       23.844468
  H           19.053098       10.324629       23.189108
  H           21.111278        8.380909        6.730735
  O           20.655079        7.621502        7.194614
  H           21.338730        6.959332        7.501456
  H           23.581270       12.287020        3.203793
  O           23.985900       12.429855        2.300536
  H           23.476741       13.141117        1.815910
  H           17.374916       24.820076       18.275827
  O           17.073853       24.291013       19.069208
  H           16.075897       24.316658       19.127733
  H            9.756703        9.542849       22.287321
  O            9.029650        9.589347       22.972326
  H            8.702353        8.666238       23.174183
  H            2.535081       21.764942       16.132078
  O            3.077013       22.541338       15.810335
  H            4.031221       22.417431       16.082607
  H           13.080501       23.980925        4.888944
  O           12.646592       23.086057        4.784380
  H           13.302448       22.368261        5.018096
  H            9.477280       18.421954       23.542785
  O            9.389701       17.447140       23.337683
  H           10.209233       17.132329       22.858871
  H           15.375527       17.272321       24.781668
  O           14.380023       17.188551       24.825875
  H           14.117586       16.238691       24.655899
  H           10.212372        3.585408       18.504374
  O            9.664851        3.659321       19.337896
  H            8.713205        3.430473       19.132960
  H           24.835955       18.798237       24.840586
  O           23.882405       18.976976       24.598110
  H           23.646151       19.916704       24.845283
  H           15.539303       12.806502       24.773733
  O           14.599595       12.892403       24.442721
  H           14.187129       13.720805       24.821694
  H           21.644250        1.818419       23.492734
  O           22.414995        2.284755       23.926881
  H           22.132523        2.634932       24.819957
  H            4.662297       12.307632       22.057049
  O            4.059935       12.140988       21.276416
  H            3.587529       12.988124       21.033121
  H           13.315796       22.786084       20.396133
  O           12.340431       22.568093       20.362320
  H           11.811896       23.414337       20.295085
  H            8.319041       21.054555        9.742714
  O            9.300737       21.095184        9.928786
  H            9.456930       21.577558       10.790713
  H            8.964111       14.456195        3.636670
  O            8.699769       13.751747        4.295362
  H            9.310686       13.788807        5.086189
  H           13.247953       21.205650       10.519642
  O           12.308063       21.457317       10.288840
  H           12.214462       22.452676       10.311201
  H           19.092251        9.169422        7.347643
  O           18.337085        8.699198        6.890900
  H           18.469027        7.710419        6.960954
  H           18.570465       15.622117       18.597346
  O           18.140194       15.479047       19.488636
  H           18.449214       16.185648       20.125206
  H           17.517519        4.406502       14.454223
  O           17.151633        5.329251       14.575308
  H           17.902613        5.964671       14.754950
  H           19.221368       21.505620       17.327212
  O           19.730467       22.138556       17.910488
  H           20.416902       21.632126       18.432346
  H           18.834980       17.692709        4.991303
  O           19.612159       17.069003        4.907732
  H           19.676843       16.741500        3.965099
  H           16.975425       24.827588       21.205706
  O           17.700474       24.225011       21.539181
  H           18.533499       24.757418       21.689553
  H            3.217921       16.860908        9.322483
  O            4.155190       17.162137        9.147019
  H            4.297167       18.064246        9.554503
  H           22.896698       17.259854        3.944258
  O           22.712996       16.312106        4.205078
  H           21.773366       16.074719        3.958618
  H           16.417586       18.024034       14.631090
  O           16.000756       18.930767       14.695022
  H           15.066179       18.893682       14.341200
  H            8.201296       15.637900       12.613897
  O            8.820890       16.422460       12.590021
  H            8.855488       16.847504       13.494532
  H            6.687797       16.290747       14.234605
  O            6.769048       17.163622       14.715736
  H            7.003271       17.883702       14.062572
  H           21.467183       24.007402       15.043740
  O           22.461318       24.001683       14.935751
  H           22.848474       24.814903       15.370244
  H           10.282572       15.177151       10.573926
  O           10.861280       15.308300       11.378847
  H           10.398560       14.940655       12.185523
  H            5.930939        1.497247        9.706176
  O            6.596242        1.799936        9.023717
  H            7.519099        1.571014        9.333442
  H           19.503759       11.265846       19.369928
  O           20.245945       10.602938       19.271370
  H           21.116672       11.087479       19.187381
  H            6.820888        5.558104       16.128599
  O            6.330470        5.379645       15.275579
  H            5.710909        4.605119       15.403069
  H            7.153230       16.283748        7.278372
  O            8.093080       16.104063        7.568881
  H            8.415942       15.256585        7.147525
  H           10.120549       24.595119        7.148354
  O            9.942223       24.672583        6.167436
  H            8.964651       24.819966        6.016996
  H           12.069767        8.357638       17.138887
  O           12.950942        8.480335       17.595479
  H           13.687604        8.205093       16.977766
  H           11.789406       10.090090       10.278056
  O           12.164237       10.645175       11.020607
  H           13.158623       10.542114       11.044571
  H           19.993946       19.822949       12.232026
  O           19.955715       19.096914       11.545432
  H           19.363538       18.360226       11.871954
  H           16.975245       24.820000        6.807627
  O           17.489778       23.967076        6.895808
  H           18.381439       24.156688        7.306888
  H           13.714365       18.264707        4.555453
  O           13.754853       17.525306        3.883406
  H           14.219011       16.735502        4.284362
  H            7.719128        2.719553        2.581703
  O            7.144039        1.928081        2.788696
  H            6.527159        1.754414        2.021039
  H           16.894775       10.308712        9.242666
  O           16.296205       11.001820        8.841025
  H           16.531704       11.127655        7.877331
  H           15.834417       16.170240       19.357171
  O           16.476387       16.935859       19.398430
  H           15.968765       17.797382       19.388553
  H           10.768792       15.807469        3.595643
  O           10.404185       16.120586        2.718705
  H           10.323938       17.117318        2.727872
  H            2.553254       21.251786        6.665516
  O            3.433180       21.626031        6.958213
  H            3.479577       22.595593        6.717807
  H            6.045691       17.904661        8.270056
  O            6.184611       18.775545        7.798609
  H            5.760837       19.511615        8.326450
  H            2.519238       22.877949        4.510514
  O            2.288062       21.905807        4.549211
  H            3.127949       21.363060        4.545283
  H            3.747199        3.898782       20.262453
  O            3.042973        3.790081       20.964059
  H            2.139275        3.887885       20.547210
  H           14.127361        3.426656       21.671505
  O           14.254811        4.411609       21.788221
  H           13.362918        4.854686       21.878823
  H           19.871188        1.500002        3.274205
  O           20.856513        1.638196        3.374390
  H           21.051066        2.617040        3.437733
  H           16.883180       15.426271       21.497352
  O           16.337716       16.264400       21.494513
  H           16.944216       17.057016       21.557106
  H           14.909765        6.506030       21.623777
  O           15.846032        6.636432       21.949966
  H           16.020941        7.612448       22.079574
  H           24.084881       20.709089       12.435716
  O           23.331246       20.696297       13.092884
  H           23.624350       21.130539       13.944661
  H            1.499257       23.650486       22.807292
  O            2.389166       24.095753       22.906283
  H            2.644848       24.118446       23.872777
  H            9.287620       19.596442        5.679433
  O            9.001401       20.199737        6.423821
  H            8.589274       21.027222        6.042484
  H           11.073401       18.381470        6.096951
  O           11.223088       18.415060        5.108788
  H           11.496982       17.510440        4.782222
  H           20.536221       14.693004       24.446923
  O           21.463261       14.650339       24.819449
  H           22.122186       14.601417       24.068833
  H           12.864340       18.942619       10.654692
  O           13.238725       18.074915       10.327697
  H           13.209599       18.054831        9.328323
  H           19.996151       16.613365       16.731694
  O           20.130505       17.353763       16.073089
  H           19.642882       17.139560       15.226720
  H           23.460304        8.663199       14.654286
  O           22.835008        8.315255       15.352812
  H           22.646282        7.348630       15.179552
  H           24.278732       11.438919       22.433836
  O           23.844858       12.185771       21.929885
  H           23.034832       11.841285       21.455347
  H           19.982527       17.427584       23.026913
  O           20.271836       16.738178       23.691006
  H           19.822489       16.910522       24.567582
  H            8.414266       17.683893       18.955031
  O            7.960424       17.602008       19.842343
  H            8.639433       17.392548       20.545956
  H            6.559468       21.399409       19.048816
  O            7.380374       21.091313       19.529638
  H            7.332845       20.102403       19.670338
  H           14.835525       18.622533       22.813150
  O           14.977163       17.838074       22.209359
  H           14.619082       17.012640       22.645748
  H           17.930148       24.592147        3.196250
  O           18.195946       24.177053        4.066335
  H           18.760799       24.820001        4.583596
  H            8.721023       23.925586       20.126364
  O            8.275616       24.820412       20.096365
  H            7.283247       24.699802       20.121995
  H           16.570432        9.380902       15.144044
  O           16.412602        8.447076       15.465071
  H           15.438508        8.318806       15.651316
  H            7.493714        7.531508       18.368127
  O            7.991475        8.394353       18.456066
  H            7.915927        8.728480       19.395562
  H           20.806854       20.027488       16.952841
  O           21.207569       19.335745       17.553606
  H           21.979821       19.732317       18.049950
  H            1.720953        6.359923        8.459819
  O            2.711424        6.222995        8.474615
  H            2.912813        5.243639        8.457194
  H           17.643746       11.075437       16.215149
  O           18.199798       10.571526       16.876118
  H           18.032056        9.591001       16.773978
  H            7.913778       19.433365       24.727999
  O            7.732970       19.738062       23.792869
  H            8.373255       20.466823       23.550089
  H           20.259489        5.441783        5.978610
  O           19.647210        6.218609        5.831453
  H           19.272736        6.177054        4.905147
  H           11.651903       16.247919       20.838864
  O           11.556868       15.335164       21.236162
  H           12.442019       15.031163       21.588428
  H           10.149219        5.077204       12.708635
  O            9.342232        4.550097       12.442310
  H            8.548994        5.157021       12.393143
  H           19.981411       12.929524        9.625816
  O           19.746599       13.551554       10.372771
  H           20.341971       14.354239       10.337722
  H            4.875566       18.775807       20.835100
  O            4.709432       18.942872       19.863252
  H            5.153506       19.796536       19.591119
  H           17.767783       12.309095       22.313006
  O           17.388869       13.205663       22.083678
  H           17.394119       13.325717       21.090925
  H           23.445051        4.330173        4.061469
  O           23.899368        3.468611        3.834956
  H           24.606776        3.635351        3.148100
  H            5.926258        6.233940       11.929458
  O            6.352060        6.808525       12.628418
  H            6.841092        6.231013       13.282121
  H            4.962876       11.502355       15.905230
  O            4.329319       10.771609       15.651032
  H            4.847318        9.972701       15.345381
  H           18.471515        5.147194       12.341290
  O           17.521979        5.453530       12.408668
  H           17.374607        6.221804       11.785742
  H           20.193344        7.592423       15.536032
  O           19.512963        8.324848       15.510788
  H           18.597198        7.927257       15.453388
  H            2.899248       19.662044        3.169388
  O            2.485024       19.092673        2.459293
  H            1.497228       19.247464        2.442003
  H           22.916532       18.795691        5.551566
  O           23.892546       19.009492        5.592627
  H           24.088943       19.509987        6.435795
  H           11.738749        7.124713       22.372551
  O           10.919775        7.686270       22.490597
  H           10.704884        7.761738       23.464315
  H           22.354210       10.101874       22.617758
  O           21.622388        9.420706       22.638939
  H           20.920706        9.664424       21.969430
  H           23.957781       14.198327       19.922904
  O           23.005272       14.502527       19.909231
  H           22.483707       13.995969       20.595794
  H           15.366525       21.621088        4.652340
  O           16.228668       22.117351        4.550196
  H           16.626005       21.914507        3.655222
  H            9.543513        1.498711       21.666778
  O            9.192793        2.029370       20.895159
  H            9.377702        1.540249       20.042769
  H            5.597022       12.170891       24.157469
  O            5.308919       11.445217       24.782283
  H            6.014871       10.737954       24.819826
  H            3.872714        1.995848        6.444197
  O            3.468460        1.500004        7.212778
  H            3.073856        2.152421        7.859801
  H           22.713383       18.844477        8.243565
  O           22.575008       18.020056        8.792365
  H           21.675543       17.632425        8.590612
  H           21.829107       15.456969        8.297527
  O           22.697985       15.099840        7.954731
  H           22.528518       14.281822        7.405071
  H            7.910055        6.884420        8.489722
  O            7.766084        6.062207        7.939053
  H            8.633972        5.577404        7.830724
  H           11.689611       24.819886        9.746509
  O           11.965093       24.225441        8.991033
  H           12.493558       24.753971        8.326668
  H            8.518722       23.742304       11.150000
  O            8.275465       24.709163       11.072475
  H            7.294267       24.819722       11.230672
  H           17.918253       15.989957       13.233253
  O           16.969946       16.258647       13.064372
  H           16.866318       16.532410       12.108174
  H            4.092491        3.008272       13.770082
  O            3.668994        3.144632       14.665658
  H            3.224154        4.039878       14.691172
  H            7.587457       12.275040        2.974954
  O            7.078003       11.417179        2.907643
  H            6.361395       11.508464        2.216166
  H           10.445592       10.125826        4.991582
  O           10.727908       10.196617        5.948288
  H           11.722431       10.289435        5.996341
  H           14.014486       22.628849       16.796115
  O           14.962839       22.333582       16.680169
  H           15.168983       22.249664       15.705252
  H           10.908401       21.868601        8.640687
  O           10.155629       22.503655        8.467365
  H            9.878565       22.438455        7.508728
  H           20.806802        9.162370       17.628957
  O           19.846138        8.983947       17.841771
  H           19.739472        8.031806       18.128213
  H           13.078755       12.054863        1.886239
  O           13.231543       11.145126        1.500189
  H           12.388685       10.610639        1.562747
  H           22.320318       21.838974        6.085620
  O           22.301785       20.839146        6.086710
  H           21.353362       20.523386        6.114797
  H           10.631655        6.250353        8.457512
  O           11.018134        6.872646        7.776788
  H           11.895918        6.514758        7.458335
  H           12.820173        8.502573        7.647767
  O           13.797528        8.302139        7.715618
  H           13.928349        7.318201        7.837071
  H            9.760403        2.425721       13.858163
  O            9.400193        1.493244       13.831067
  H            8.479277        1.502861       13.441424
  H           13.821565       13.444952       15.630470
  O           14.818169       13.362630       15.628473
  H           15.227937       14.273091       15.684610
  H            6.682672       14.455292        1.884886
  O            7.668946       14.615103        1.843353
  H            7.846933       15.599055        1.830757
  H           23.228242        6.763098       12.826265
  O           22.698267        5.915115       12.819091
  H           22.113760        5.880498       13.629741
  H           19.460956        1.500222       11.775251
  O           19.996655        1.825682       12.554419
  H           19.397037        2.308134       13.192931
  H            9.393287       10.990793       20.654261
  O            9.146503       11.847056       20.200486
  H            9.977784       12.345138       19.953734
  H            8.892469       11.805239        5.940356
  O            8.661914       11.412462        5.050092
  H            7.882517       10.794013        5.150391
  H           12.793842        3.719936       17.605786
  O           13.765926        3.952790       17.634624
  H           13.927529        4.776825       17.091623
  H           11.213415        9.813755       15.323589
  O           10.895856       10.241871       14.477496
  H           10.012749        9.851382       14.217419
  H           23.011540        6.807488        3.344872
  O           23.750432        7.421549        3.622300
  H           24.631927        6.985329        3.441529
  H           15.457571        5.020541       11.791157
  O           14.598654        4.510876       11.841191
  H           14.389631        4.121103       10.944316
  H           18.048063       20.145261       23.550520
  O           18.707017       20.131596       22.798461
  H           18.745031       19.212930       22.405260
  H            4.867119       20.314390       15.701190
  O            4.909354       19.326295       15.849126
  H            5.794932       18.980404       15.539108
  H           19.795979        6.821146       12.972016
  O           19.113944        7.434153       13.370829
  H           18.572743        7.850902       12.640472
  H           22.734803       15.516471       22.165254
  O           23.554021       15.752049       21.642391
  H           24.297278       15.130275       21.889302
  H            5.469824       13.787651        6.581289
  O            4.533877       14.112620        6.445646
  H            4.270313       14.698936        7.211654
  H            7.764921       11.496275       12.271590
  O            7.512832       10.995131       11.443758
  H            6.982314       11.591689       10.841538
  H           20.355110       21.779449        3.785167
  O           19.926937       20.885083        3.655639
  H           19.454353       20.617061        4.495180
  H           13.962988       24.823162       18.787370
  O           13.147709       24.244787       18.759035
  H           12.333033       24.820343       18.688057
  H           14.641454       10.261701       14.567638
  O           14.481621       11.091966       15.101599
  H           15.128726       11.128232       15.863136
  H            5.369775       15.236298       23.792918
  O            4.612052       14.584078       23.771367
  H            3.747429       15.073811       23.883565
  H           20.953254       17.132101       10.732133
  O           21.951078       17.197971       10.729423
  H           22.345780       16.279168       10.732630
  H           11.696572        5.913167       16.477376
  O           11.978604        5.060244       16.038081
  H           11.922664        5.162494       15.044896
  H            5.137852       11.323800       13.324741
  O            5.244561       10.335937       13.211876
  H            6.194994       10.127560       12.981106
  H           14.750121       21.139269       21.748713
  O           15.676269       21.219883       22.117158
  H           15.776347       20.610380       22.903599
  H           14.221074       12.025944        9.777669
  O           13.343369       11.891245        9.317788
  H           13.325212       10.986262        8.892729
  H           12.707809       10.483122       24.620133
  O           13.575044       10.634841       24.145914
  H           14.307630       10.744165       24.817752
  H           23.872669        2.004073        6.118479
  O           23.275972        1.955431        6.919470
  H           23.400117        2.775650        7.477887
  H           14.256171        4.939445        5.854586
  O           14.914585        4.714581        6.572867
  H           14.925989        5.445471        7.255267
  H           17.465858       15.785568       10.128305
  O           18.404270       15.455646       10.230948
  H           18.997046       16.214949       10.499415
  H            5.528037        5.999521       17.852916
  O            5.031805        5.154291       17.654572
  H            4.469626        4.904959       18.443106
  H           14.183846       16.886202       17.659141
  O           13.574996       17.423296       17.075333
  H           14.045867       17.651315       16.223108
  H            2.383470        4.472433       12.702616
  O            3.136499        4.689147       12.081340
  H            3.589523        3.843548       11.798976
  H           24.039752       11.044861       10.502019
  O           24.818107       10.455690       10.285130
  H           24.728384       10.116095        9.348847
  H            5.371778       17.998278       11.477486
  O            6.216996       17.923234       12.006613
  H            6.432254       16.958143       12.155820
  H           19.617733        7.421023        9.121872
  O           18.631211        7.258013        9.107639
  H           18.446667        6.308099        9.359842
  H            4.676293       11.172653       11.174798
  O            4.948390       11.021936       10.224404
  H            4.931344       11.891519        9.730912
  H           10.650455       19.122830        8.124694
  O           11.549888       19.537626        7.986978
  H           11.925098       19.820645        8.869654
  H            6.693009       21.820267        5.255986
  O            5.980109       21.512740        5.886224
  H            5.081346       21.711636        5.495499
  H            1.592361        7.089386       21.998336
  O            2.103033        7.766020       22.528790
  H            2.726971        7.297435       23.154192
  H            6.044820       17.508160       22.204591
  O            7.017866       17.277799       22.215372
  H            7.557063       18.113380       22.320588
  H            1.901384        4.930141       22.471703
  O            2.766422        4.883775       22.971262
  H            3.478355        5.353564       22.449295
  H            5.450715       20.431210       11.743403
  O            6.337499       20.699387       12.119827
  H            7.047152       20.088606       11.768630
  H           18.511275       19.330502        1.535489
  O           17.649293       19.836198        1.500001
  H           17.557035       20.395851        2.323576
  H            8.992135        8.444208        7.382570
  O            8.731017        9.356869        7.068138
  H            7.745319        9.382690        6.901607
  H           17.362226        2.212564       11.787209
  O           17.803275        3.110025       11.780918
  H           17.406412        3.671364       11.054696
  H            1.499481        3.466185       10.902112
  O            2.097905        3.817714       10.182170
  H            1.716616        3.583461        9.287886
  H           16.966658       13.028471        6.572472
  O           17.295039       13.950702        6.776567
  H           17.412818       14.458981        5.923467
  H           22.980158        9.483823       17.231041
  O           23.967403        9.581728       17.105498
  H           24.205661       10.552629       17.081298
  H           10.933849       17.003186       12.790736
  O           10.723442       17.980293       12.822214
  H           11.574441       18.505199       12.805693
  H            4.317951        2.825009       22.793939
  O            4.416463        1.874991       23.090185
  H            3.516438        1.500165       23.312581
  H           22.187887        4.446349       22.018294
  O           22.032406        3.587273       21.530632
  H           21.094638        3.278645       21.689814
  H           17.586653       22.609517        8.898394
  O           17.680452       22.036717        8.084083
  H           16.838517       21.515535        7.944391
  H           22.006257       21.767080       23.694696
  O           21.442549       22.041402       22.915607
  H           20.493453       21.772635       23.079864
  H           20.045003       18.998924        8.019459
  O           20.081705       19.998232        8.025470
  H           19.151949       20.365796        8.046704
  H           19.701079       20.948202       14.184658
  O           19.118825       20.159119       14.380435
  H           19.320762       19.815230       15.297475
  H            3.060206        4.770700       16.759734
  O            2.245236        5.346607       16.824191
  H            2.518448        6.307846       16.861251
  H           15.296044       12.901976       13.199185
  O           15.393166       13.854930       13.486319
  H           14.487300       14.264595       13.593937
  H           16.980881       11.826110       11.949758
  O           17.033058       12.819828       11.850750
  H           17.989330       13.109243       11.892963
  H           24.634310        4.936373       11.540405
  O           23.768258        4.634356       11.141985
  H           23.284221        4.054366       11.797209
  H           24.018652       17.302076        6.975370
  O           24.705829       17.294924        7.701825
  H           24.819997       18.220886        8.061768
  H            9.018896       16.780794        4.509576
  O            8.022117       16.860811        4.514809
  H            7.614501       15.947758        4.528307
  H           23.589346        1.751035       11.415564
  O           22.622200        1.500001       11.455693
  H           22.082072        2.172224       10.949356
  H           12.778235       18.957120       22.037548
  O           13.026329       19.881778       22.326438
  H           13.121386       19.905822       23.321619
  H           21.685435        8.665770        3.395667
  O           22.011291        9.474604        2.906172
  H           22.915472        9.289465        2.521230
  H           14.816601       24.714888       20.892582
  O           14.709343       24.001982       21.585590
  H           15.413793       23.303892       21.457450
  H           17.776065       22.640136       11.450804
  O           17.167335       21.846837       11.439682
  H           17.695292       21.018901       11.628846
  H            4.165226        1.594896       16.599845
  O            4.841316        2.272972       16.311549
  H            4.583791        3.171941       16.665860
  H            3.962278        8.267650       13.927036
  O            4.599317        8.239424       13.156722
  H            4.275204        7.578142       12.480218
  H            5.556341        3.193263       11.056167
  O            5.847100        4.114026       11.316272
  H            6.830234        4.113905       11.499159
  H           15.349161        7.133706       18.413929
  O           14.860892        6.261015       18.412124
  H           15.520857        5.509806       18.423611
  H           23.117941       24.819998        5.479489
  O           22.490585       24.323083        6.079072
  H           22.389442       24.819981        6.940966
  H            4.400818       21.214333        2.496558
  O            3.809343       22.011779        2.377239
  H            2.852279       21.722379        2.393873
  H           12.932556       16.103623       11.239991
  O           12.956751       16.375198       12.202104
  H           12.907930       15.560385       12.779768
  H            2.372099       14.377413        5.990414
  O            2.019240       15.247229        5.645581
  H            2.114323       15.948929        6.351681
  H           16.805901       16.857041        5.407068
  O           15.867829       17.018447        5.713612
  H           15.875492       17.313358        6.669106
  H           14.221186       14.467283       22.752480
  O           15.196564       14.489603       22.533071
  H           15.728578       14.497283       23.379772
  H            5.722172        6.878493        8.720423
  O            5.780317        6.059453        9.291205
  H            4.859673        5.768713        9.551752
  H           11.075104       13.722753       22.719980
  O           11.168843       13.255224       21.840987
  H           10.910884       12.294702       21.945172
  H           10.135385       18.853370       19.667815
  O           10.456577       19.281649       20.512453
  H           10.301701       18.660681       21.280835
  H            3.861162        1.697715        1.500012
  O            4.493155        2.468368        1.581742
  H            3.978982        3.325575        1.553078
  H            6.960210        3.803400       13.716433
  O            6.286316        3.087740       13.900002
  H            6.712281        2.358117       14.434984
  H           20.594401       14.663022       15.186813
  O           21.290887       15.209052       15.652386
  H           22.196169       14.832612       15.455519
  H           16.082550       23.123138       24.823048
  O           16.504267       22.396817       24.280267
  H           16.545944       21.557287       24.821980
  H            8.719889        1.997486       17.002844
  O            9.042553        1.618299       17.870084
  H           10.034674        1.498641       17.832975
  H            5.146524        6.001632       20.216476
  O            5.958301        5.430676       20.093885
  H            6.700197        5.983259       19.714092
  H           10.422037       24.820190       11.544565
  O           10.155510       24.454102       12.436160
  H           10.781478       23.718491       12.695081
  H            7.595155        5.934098       10.528209
  O            7.813264        6.896925       10.687555
  H            7.017351        7.460151       10.465520
  H            7.931300        7.381449        1.852326
  O            8.523228        8.146879        2.104790
  H            9.319380        8.166130        1.500000
  H           20.725936       15.532006       12.354708
  O           19.788090       15.189750       12.297217
  H           19.764293       14.232604       12.585843
  H           13.784556       23.425944        7.139443
  O           14.355355       23.288192        7.948895
  H           14.830140       22.411064        7.876600
  H           22.067464       12.704726       15.053898
  O           22.239834       11.721238       15.109039
  H           22.498396       11.480091       16.044450
  H           20.994527        2.898736       18.380268
  O           20.694155        3.491420       17.632938
  H           20.172706        2.953911       16.970235
  H           20.822875        5.298655       15.799966
  O           19.833108        5.430090       15.744422
  H           19.384156        4.542322       15.642882
  H           11.277481        1.681104       16.021772
  O           10.582968        2.389912       15.898313
  H           10.847556        3.208271       16.408490
  H            2.736935       22.576322       18.167481
  O            2.913835       21.665827       18.541253
  H            2.097153       21.098247       18.436926
  H            2.133955       10.551735       21.868742
  O            2.354399       10.482046       22.841649
  H            2.999641        9.731501       22.984283
  H            5.768418       23.684854       24.826434
  O            5.650995       24.618841       24.488971
  H            4.675660       24.821416       24.401306
  H            4.397763       10.968108        6.013448
  O            5.243839       11.092091        6.531891
  H            5.952487       10.491254        6.162010
  H           24.727476        8.960173       12.210670
  O           23.770283        8.868240       12.485132
  H           23.200543        9.454126       11.908822
  H           12.777633        5.746458       11.752529
  O           13.473528        6.425767       11.985489
  H           13.793113        6.268593       12.919920
  H           15.957946        3.301481       13.085004
  O           16.045723        2.576551       13.768211
  H           15.761704        2.924434       14.661693
  H           11.940197       22.292816        6.743823
  O           11.907445       21.296407        6.665750
  H           11.036425       21.022475        6.257969
  H            3.455810       15.751225       19.076753
  O            3.407082       16.360985       19.867840
  H            4.290314       16.369922       20.336691
  H           12.550153        2.051839        9.638069
  O           12.412862        1.587182        8.763286
  H           11.802550        2.132290        8.188502
  H           11.707365       24.816825       16.519561
  O           12.353078       24.060133       16.621893
  H           11.919012       23.318384       17.133162
  H           17.563980       16.687784       24.107480
  O           17.860022       17.610110       23.859140
  H           17.058156       18.185741       23.698957
  H            9.274656        2.886085       23.410402
  O            8.898404        2.008541       23.707640
  H            7.959542        2.139157       24.026194
  H           16.085487       17.811889       10.465476
  O           15.595755       17.210702        9.834020
  H           15.928246       17.363013        8.903295
  H            2.151461       14.391676       11.189482
  O            1.499715       13.873755       10.635419
  H            1.595160       12.898221       10.833466
  H            8.879721        5.929334       16.813660
  O            9.140460        5.135787       17.363476
  H            8.975684        4.299400       16.840690
  H            7.833341       21.330069       17.042240
  O            6.926290       20.923401       16.933247
  H            6.254160       21.646101       16.772172
  H            7.278969       16.104305       17.732024
  O            6.723545       16.340229       18.529423
  H            6.051354       15.618116       18.692861
  H           24.833084       11.553869       12.741003
  O           23.852898       11.687214       12.594530
  H           23.340202       11.175126       13.283666
  H           13.376562        7.994224        9.856478
  O           12.561483        7.484643        9.580843
  H           12.729157        6.504600        9.687617
  H            6.846040        1.510396       19.009333
  O            6.155612        1.487043       18.286309
  H            6.605862        1.523902       17.394168
  H           20.766460       18.756556       13.997879
  O           20.774852       17.889294       13.500097
  H           21.403113       17.955953       12.724955
  H           21.660345        8.633920       19.594038
  O           22.363257        7.944763       19.770044
  H           22.055298        7.058588       19.423843
  H           18.711304       11.249150       13.189770
  O           18.227763       10.376991       13.115422
  H           18.604741        9.729369       13.777595
  H           24.808037       20.211750       18.104200
  O           24.253083       19.382981       18.032309
  H           24.773081       18.602500       18.379371
  H            2.677778       10.786847        2.893249
  O            2.979582        9.959484        3.366942
  H            3.259267       10.191970        4.298460
  H           17.339001        8.042392       18.176504
  O           17.384306        8.030301       19.175404
  H           17.338981        7.085434       19.499703
  H            6.965771       11.580255       14.553522
  O            7.716621       11.002587       14.873715
  H            7.438453       10.526407       15.707905
  H            4.219579       22.722948       23.150603
  O            4.411562       22.180272       23.968310
  H            3.714951       22.364457       24.661715
  H           22.601133       23.571065        2.487205
  O           23.393014       23.059573        2.153587
  H           23.090467       22.365833        1.499989
  H            3.763980        7.928022        3.679649
  O            4.589163        8.492047        3.710437
  H            5.388701        7.906064        3.842205
  H           14.304746        1.499915       15.489061
  O           13.360443        1.782756       15.320857
  H           13.211675        2.693552       15.705978
  H            4.327185        7.962355       16.073871
  O            3.363506        8.214304       16.162443
  H            3.291038        9.096492       16.627731
  H            2.708300       19.350998       23.226470
  O            2.727365       19.739046       24.147912
  H            2.401632       20.684047       24.118412
  H           20.213064        5.949487       10.646030
  O           20.885159        5.266112       10.360920
  H           21.682505        5.311469       10.962735
  H            6.830321        4.211196        8.722719
  O            7.522374        3.776130        9.298723
  H            8.345744        3.603845        8.758001
  H            9.489015       11.575419       16.422727
  O            8.747806       11.626049       17.092088
  H            9.130795       11.784417       18.002164
  H           12.221153       16.691777       18.647775
  O           11.651446       17.489953       18.843602
  H           11.823393       18.198250       18.158949
  H            5.163271        9.163355       18.037254
  O            5.220835        8.165841       18.077912
  H            4.315183        7.787215       18.268791
  H            4.025662       20.809100        9.116126
  O            4.831071       20.969445        9.686744
  H            4.755807       21.864904       10.125478
  H           16.340173       19.418154       12.318660
  O           17.010672       18.696772       12.491972
  H           17.694005       19.026374       13.143446
  H            5.061405       12.886956       17.612455
  O            4.228657       13.171029       17.137237
  H            3.783648       13.902979       17.653198
  H            8.040008       18.531581        8.958836
  O            8.458652       18.946925        8.151230
  H            8.638772       18.239318        7.467967
  H            8.294504        7.840105       12.620214
  O            7.868354        8.729393       12.454196
  H            8.529313        9.455970       12.641863
  H            1.507819       21.307864       20.696840
  O            1.499331       21.071737       21.668525
  H            2.149529       21.652514       22.158363
  H            6.996631        8.010177        5.353596
  O            7.773484        8.454311        4.907229
  H            7.484430        8.822100        4.023386
  H           11.471862       13.357614        2.634527
  O           11.891987       13.932620        3.336569
  H           12.874036       13.747937        3.374920
  H           18.193567        6.327082       16.902892
  O           17.291221        6.051884       17.234611
  H           16.611332        6.205744       16.517619
  H           16.539811        2.155980        9.688599
  O           17.291807        1.500003        9.623818
  H           18.163923        1.986449        9.676579
  H           20.240867       12.127891        7.594380
  O           19.256311       12.284114        7.515366
  H           18.786052       11.406580        7.421610
  H           14.222191       19.964353       12.051796
  O           14.185486       20.388002       12.956878
  H           13.233340       20.455357       13.255006
  H           20.119216        4.349123       13.578727
  O           20.686617        4.450195       12.761512
  H           20.277206        3.938575       12.006113
  H            5.849870       10.195513       21.181926
  O            6.096910       10.144157       22.149570
  H            6.952854        9.636656       22.248570
  H           10.968079       20.270629       23.977869
  O           10.941521       19.980455       23.021263
  H           10.355566       20.601490       22.500714
  H           11.171261       24.813654       21.867261
  O           11.923389       24.829257       22.526094
  H           11.571798       24.619136       23.438362
  H           10.218501        6.549299       14.907130
  O           10.171910        7.248432       15.620602
  H            9.581103        7.995857       15.316789
  H           10.484946       11.442085       23.927945
  O           10.580581       11.004897       24.822215
  H           10.091038       10.132919       24.820998
  H           10.589961        8.733129        8.870551
  O           10.439663        9.655580        8.514890
  H           11.294560       10.010202        8.136216
  H           15.549596       14.453487        4.753690
  O           14.560733       14.338415        4.659302
  H           14.168740       14.085004        5.543680
  H           16.098662        9.892949       11.258243
  O           15.277137       10.060831       10.713345
  H           15.132437        9.296925       10.084449
  H           22.376612       22.753522       13.125747
  O           21.545906       22.238952       12.913275
  H           21.578953       21.930376       11.962649
  H           15.541446        2.227841       22.857341
  O           15.862222        2.883317       23.541047
  H           15.212357        3.640449       23.607584
  H           19.385597       19.932479       20.274206
  O           19.891162       19.071364       20.327928
  H           20.728910       19.142361       19.786506
  H           11.360762        7.013074       12.858941
  O           10.427258        7.371228       12.876153
  H           10.441569        8.349181       12.667822
  H           11.835619       13.848006        9.760284
  O           12.579479       14.516341        9.759872
  H           13.412340       14.087869        9.409510
  H            7.434075       24.011556        9.086099
  O            6.469513       24.093300        8.835225
  H            6.396466       24.356965        7.873380
  H           19.702571       11.614864       21.532631
  O           20.673846       11.851691       21.555825
  H           20.871212       12.519913       20.838520
  H            9.311756       22.537952       24.049173
  O            9.593447       23.431460       24.398876
  H           10.494802       23.353595       24.824899
  H           16.197563       18.966212        4.745297
  O           16.541415       19.148002        3.824038
  H           15.782321       19.121142        3.173612
  H           23.311268        5.710676        6.689398
  O           22.930974        6.411804        6.086243
  H           22.440873        5.973300        5.332907
  H           20.302573       10.309753        9.476085
  O           19.325026       10.335730        9.266975
  H           18.906657        9.463542        9.520460
  H           19.402466       14.102883       22.198341
  O           19.609324       15.051772       22.436707
  H           18.759027       15.537500       22.639348
  H            6.136513        3.589320       18.932073
  O            6.754994        3.597349       18.146315
  H            7.139562        4.513610       18.034184
  H           16.099541        1.618768        7.337563
  O           16.672515        2.420302        7.508571
  H           17.632195        2.141877        7.547213
  H            5.524931        2.802606       20.954615
  O            6.428959        3.211426       21.079513
  H            7.086456        2.498406       21.323026
  H           16.561246       24.826168       16.151080
  O           15.683856       24.346674       16.134554
  H           15.205770       24.496525       16.999989
  H           12.634567        6.398938       20.489938
  O           13.095701        7.272631       20.644908
  H           13.771668        7.425234       19.923950
  H           17.186861        4.455247        2.426374
  O           16.310214        4.555234        1.955744
  H           15.740556        3.753901        2.138380
  H           10.386840       13.270433       13.610358
  O           10.479520       12.341320       13.968352
  H            9.585145       12.008532       14.267258
  H           24.386170       18.624358       21.832395
  O           23.839986       19.239416       22.401066
  H           24.305245       20.121014       22.480544
  H            4.850004        5.046327       13.435685
  O            4.739271        5.942802       13.864720
  H            3.777821        6.082494       14.101572
  H           23.539516        5.484693       18.675069
  O           23.423997        5.532768       17.682928
  H           22.933534        6.371036       17.444701
  H           24.212275       22.934183        5.185999
  O           23.980301       22.664464        4.251419
  H           24.820016       22.503239        3.732877
  H            4.055812       15.256095        2.302384
  O            4.432279       16.173013        2.169970
  H            5.405263       16.170380        2.400828
  H            6.689914       13.059997       22.460390
  O            7.427982       12.811752       21.832990
  H            7.203618       11.949472       21.378971
  H            5.336983       15.310017        4.463575
  O            4.341417       15.403676        4.472332
  H            3.920931       14.503276        4.360660
  H           21.543670        8.111077       13.315713
  O           21.094731        8.938826       13.652291
  H           21.708977        9.720013       13.540714
  H           12.279234        2.216808       21.976617
  O           11.957823        3.162327       21.924768
  H           10.960520        3.171840       21.851989
  H            2.530630        1.460586       13.788083
  O            2.264841        1.653047       12.843459
  H            1.612369        2.410713       12.828563
  H           10.405229       21.477155       20.393623
  O            9.440218       21.241265       20.279124
  H            8.904871       21.663166       21.010836
  H           19.879262       23.060640        9.203652
  O           20.617384       22.391380        9.288894
  H           20.845623       22.029928        8.384871
  H            5.188562       12.589653        4.757377
  O            6.187238       12.557238        4.717450
  H            6.549862       13.488553        4.683450
  H            5.670740        5.422595       22.274917
  O            6.613556        5.459870       22.606141
  H            7.236344        5.196786       21.869309
  H            9.719910        7.590026        4.355702
  O           10.544364        7.935994        4.803565
  H           10.472019        7.793863        5.790766
  H            7.692016       22.645534        7.380923
  O            6.878109       22.212885        7.768698
  H            7.065868       21.246453        7.944071
  H           24.558730       14.126223       13.577085
  O           23.613192       13.800732       13.573486
  H           23.017625       14.510950       13.198134
  H            4.365970       12.099059        1.499747
  O            4.780987       12.970020        1.762785
  H            4.576192       13.160336        2.722909
  H           19.227115       22.951544       15.666140
  O           18.612483       23.535640       16.196290
  H           17.787507       23.022737       16.433659
  H           11.048564        4.897195       10.687863
  O           10.788387        5.860143       10.616877
  H            9.796412        5.945159       10.710454
  H            3.844672       20.786342       21.054884
  O            4.169127       21.553991       20.502214
  H            3.723482       22.395806       20.806761
  H           10.246790       23.617345       18.566152
  O            9.935919       22.872660       17.975556
  H            9.185559       22.384673       18.421459
  H            6.193190        1.896582        6.307309
  O            7.023199        1.986674        6.857735
  H            7.248641        2.955025        6.964840
  H           11.706107       14.503862        5.709745
  O           11.725365       15.502440        5.660036
  H           12.669008       15.812231        5.543560
  H            5.284079       16.676949        6.187507
  O            5.473573       17.648805        6.047553
  H            6.232925       17.751175        5.404977
  H           17.959606       12.118188        9.928172
  O           17.610728       13.018816        9.669031
  H           16.611162       13.009766        9.697059
  H           13.213174       13.067906        7.355600
  O           12.550712       12.321490        7.292302
  H           12.012122       12.423873        6.455978
  H           13.257026       17.657530       20.332497
  O           14.097854       17.116284       20.324694
  H           13.868091       16.143237       20.344358
  H            5.353329       14.426893       21.118237
  O            5.769013       14.103992       20.267977
  H            5.050435       13.831401       19.628180
  H            7.262042       12.851954       18.790983
  O            7.560924       13.794586       18.939692
  H            8.421230       13.951902       18.454797
  H           18.251587       22.033837       20.062093
  O           19.160757       22.447563       20.014741
  H           19.073723       23.443749       20.008549
  H            1.884632       16.490199        3.203528
  O            2.229779       15.593983        3.482222
  H            1.500269       14.915138        3.398651
  H            7.632638       11.344302       23.457881
  O            8.308766       11.276691       24.191557
  H            8.510033       12.190400       24.544584
  H            1.500000       10.537176       14.953453
  O            2.344136       10.011389       14.848653
  H            2.803291       10.283193       14.002899
  H           18.051297        3.068257       23.426590
  O           18.369888        2.126115       23.530841
  H           17.586157        1.524305       23.684431
  H            8.715778       13.724485       11.434288
  O            8.659176       13.325486       10.519086
  H            9.580509       13.129323       10.183429
  H           19.040527        3.674437       20.425446
  O           19.218957        2.724861       20.683261
  H           18.355865        2.220980       20.717551
  H            2.338047       18.964211        9.109174
  O            1.479359       18.687964        8.677500
  H            1.621520       17.841622        8.164182
  H            1.501438        9.292968        5.851273
  O            1.558254        8.302337        5.975460
  H            2.391826        8.076902        6.479779
  H           16.929294       12.968548       15.143626
  O           17.266733       12.357376       14.427663
  H           16.644589       11.580312       14.332227
  H            2.817827       24.437732       14.004567
  O            2.482478       23.499496       13.919400
  H            3.233914       22.900840       13.641995
  H            1.523647       22.813088       12.062624
  O            1.496336       21.814499       12.017087
  H            2.405587       21.446939       12.212436
  H            3.987743       13.366007       11.876986
  O            3.310336       13.040504       12.536659
  H            3.034190       12.109271       12.298860
  H            2.801372       19.580115       13.309219
  O            3.069605       18.616814       13.299087
  H            4.056625       18.547163       13.154378
  H           11.801825        4.518750       19.704458
  O           12.015909        3.543480       19.759379
  H           13.008187        3.420396       19.774701
  H            8.718000        9.784253        9.879064
  O            8.710265        8.796327       10.033794
  H            9.330555        8.571792       10.785341
  H            4.387279       16.073549       11.958947
  O            4.648516       15.493890       12.730796
  H            5.490591       15.002446       12.508552
  H           23.942504       16.841453       14.527889
  O           23.071295       16.444503       14.239054
  H           22.320972       16.910175       14.708271
  H           19.311584        6.090672       23.193747
  O           20.244568        6.442302       23.116952
  H           20.311387        7.038130       22.316625
  H            2.838224       15.003142       21.500557
  O            1.928650       14.735955       21.182301
  H            1.503516       14.132344       21.856775
  H            5.456280        9.371032        1.676303
  O            6.133972        8.635821        1.662241
  H            5.674867        7.762380        1.500000
  H            8.811245       11.280932        8.128760
  O            9.607859       11.807988        8.424762
  H           10.253832       11.890262        7.665848
  H           11.909896       21.561361       18.452313
  O           11.488652       20.711019       18.136921
  H           11.535013       20.666206       17.139002
  H           15.267616        4.056561        8.926415
  O           14.470265        3.553882        8.592431
  H           14.539955        2.595750        8.870144
  H           10.454500       22.756674       22.180346
  O           11.435174       22.687824       22.363479
  H           11.578446       22.255881       23.253927
  H           12.688395       11.564325       17.111194
  O           13.255836       10.755057       16.959223
  H           13.757815       10.537950       17.796410
  H            4.393802        8.122579       24.336661
  O            5.129529        8.797666       24.282227
  H            6.013217        8.332623       24.335435
  H           14.298398        4.954301       14.621741
  O           14.968343        5.360428       15.243218
  H           14.614409        6.227144       15.594691
  H           18.489544        4.124968        9.082462
  O           17.535615        3.968568        8.826420
  H           17.243487        4.674852        8.181576
  H            2.044577        3.014496        4.126487
  O            2.553989        2.272096        3.691352
  H            3.289965        1.972340        4.298382
  H            5.025962       17.338939       17.544627
  O            5.378413       18.248811       17.763513
  H            6.354343       18.288681       17.549102
  H           24.906617       20.131198       20.314613
  O           24.287908       20.908363       20.429556
  H           24.802124       21.760713       20.334255
  H           19.069403        8.465300        4.670905
  O           18.157860        8.875084        4.705049
  H           17.469840        8.152456        4.771656
  H           15.994694       22.008111       19.629239
  O           15.964964       22.170612       18.642979
  H           16.897372       22.241581       18.288609
  H            9.247367       22.370562       15.717912
  O            9.290784       21.451614       15.325929
  H            8.405854       21.219259       14.922309
  H           12.791565        3.607114       13.749959
  O           13.614843        3.223199       13.331841
  H           13.375991        2.395055       12.824764
  H           16.895198       10.579776       20.782267
  O           15.940383       10.329072       20.622658
  H           15.398685       11.156590       20.475084
  H           14.311339       12.195352        3.977464
  O           13.736423       11.513469        4.429687
  H           12.774637       11.767004        4.326305
  H            6.856509        4.237029       24.509721
  O            7.764552        4.329347       24.101143
  H            8.437897        4.500253       24.820446
  H            4.991207        8.690070        7.554804
  O            4.255258        9.093881        8.098234
  H            3.578673        8.390961        8.317632
  H           24.359849       16.092447        2.715428
  O           23.817307       15.269970        2.544601
  H           22.944726       15.526628        2.128995
  H            4.328362        8.863990       20.209932
  O            4.104970        7.923359       20.465488
  H            3.115085        7.790547       20.415608
  H            7.318440        5.004305        3.674282
  O            6.599733        5.676733        3.497362
  H            6.132970        5.898765        4.353419
  H           18.008421       23.887795       23.683111
  O           18.657734       23.243915       23.278374
  H           18.157240       22.502163       22.831933
  H           16.045893       16.835974       16.522621
  O           16.632784       17.253863       17.216111
  H           16.426961       18.230191       17.282603
  H           13.915848       20.476494       15.345948
  O           13.409038       19.691460       15.702129
  H           12.464176       19.729286       15.376852
  H           16.537293        7.403909       13.532056
  O           15.661573        7.796250       13.250663
  H           15.746466        8.790699       13.188498
  H           21.555617        9.700401       24.820063
  O           22.294106       10.374394       24.800879
  H           21.904926       11.295533       24.807284
  H           16.471216       10.027135        5.588910
  O           16.262700        9.988155        4.611668
  H           15.272105        9.939162        4.483912
  H           22.398404       23.563617        8.746920
  O           23.139846       23.403606        9.398580
  H           23.168733       22.433357        9.638959
  H           22.937451        4.403086       15.854812
  O           22.279804        3.658735       15.970744
  H           22.765984        2.785221       15.995301
  H           17.857276       11.677745        2.450113
  O           17.707958       10.711102        2.658210
  H           18.522707       10.335527        3.099941
  H            6.199531       21.187048       23.159501
  O            6.723235       21.925114       23.584933
  H            6.801914       21.754717       24.567163
  H           23.518166        2.188627       20.707987
  O           24.197403        2.350315       21.423874
  H           24.820001        1.569452       21.475107
  H           20.421160       23.716955        2.744949
  O           20.413966       23.141152        1.927392
  H           19.569332       22.606327        1.903807
