LAMMPS (10 Dec 2025)
OMP_NUM_THREADS environment is not set. Defaulting to 1 thread.
  using 1 OpenMP thread(s) per MPI task
# created by fftool

units real
boundary p p p

atom_style full
bond_style harmonic
angle_style harmonic
dihedral_style opls

special_bonds lj/coul 0.0 0.0 0.5

# remove hybrid if not necessary
pair_style hybrid lj/cut/coul/long 10.0 10.0
pair_modify mix geometric tail yes
read_data data.lmp
Reading data file ...
  orthogonal box = (0 0 0) to (37.63 37.63 37.63)
  1 by 1 by 2 MPI processor grid
  reading atoms ...
  3060 atoms
  scanning bonds ...
  1 = max bonds/atom
  scanning angles ...
  6 = max angles/atom
  scanning dihedrals ...
  9 = max dihedrals/atom
  orthogonal box = (0 0 0) to (37.63 37.63 37.63)
  1 by 1 by 2 MPI processor grid
  reading bonds ...
  2468 bonds
  reading angles ...
  3163 angles
  reading dihedrals ...
  2765 dihedrals
Finding 1-2 1-3 1-4 neighbors ...
  special bond factors lj:    0        0        0.5     
  special bond factors coul:  0        0        0.5     
     4 = max # of 1-2 neighbors
     6 = max # of 1-3 neighbors
     9 = max # of 1-4 neighbors
    11 = max # of special neighbors
  special bonds CPU = 0.004 seconds
  read_data CPU = 0.479 seconds
# read_restart restart1.lmp

kspace_style pppm 1.0e-5

# remove pair style if not using hybrid
pair_coeff    1    1 lj/cut/coul/long     0.170000     3.250000  # N1 N1
pair_coeff    2    2 lj/cut/coul/long     0.065999     3.500000  # C1NE C1NE
pair_coeff    3    3 lj/cut/coul/long     0.000000     0.000000  # HN HN
pair_coeff    4    4 lj/cut/coul/long     0.065999     3.500000  # CTOE CTOE
pair_coeff    5    5 lj/cut/coul/long     0.030000     2.500000  # H1N H1N
pair_coeff    6    6 lj/cut/coul/long     0.170000     3.120000  # OH OH
pair_coeff    7    7 lj/cut/coul/long     0.030000     2.500000  # H1O H1O
pair_coeff    8    8 lj/cut/coul/long     0.000000     1.000000  # HO HO
pair_coeff    9    9 lj/cut/coul/long     0.105000     3.750000  # CO2 CO2
pair_coeff   10   10 lj/cut/coul/long     0.065999     3.500000  # CTA CTA
pair_coeff   11   11 lj/cut/coul/long     0.210000     2.960000  # O2 O2
pair_coeff   12   12 lj/cut/coul/long     0.030000     2.500000  # HC HC
pair_coeff   13   13 lj/cut/coul/long     0.000000     1.000000  # Hw Hw
pair_coeff   14   14 lj/cut/coul/long     0.155425     3.165500  # Ow Ow
pair_coeff   15   15 lj/cut/coul/long     0.125643     2.995200  # Nd Nd

# minimize 1.0e-4 1.0e-6 100 1000
# reset_timestep 0

fix SHAKE all shake 0.0001 20 0 b 2 4 6 9
Finding SHAKE clusters ...
      98 = # of size 2 clusters
     588 = # of size 3 clusters
     199 = # of size 4 clusters
       0 = # of frozen angles
  find clusters CPU = 0.002 seconds

neighbor 2.0 bin
neigh_modify delay 0 every 1 check yes








#fix VAVG all ave/time 10 1000 50000 v_vinst

# ---------------------------------------------------------------------------
# RENEU 2026 simulation protocol (stage3b M4 ethanolammonium acetate)
# 1 minimise  2 NVT relaxation  3 NPT equilibration  4 NPT production
# ---------------------------------------------------------------------------
timestep 1.0

variable TK      equal 300.0
variable PBAR    equal 1.0
variable NVTRUN  equal 20000
variable EQRUN   equal 100000
variable PRODRUN equal 200000

variable dens equal density
variable vol  equal vol

thermo 1000
thermo_style custom step temp press vol v_dens pe etotal

# --- 1. energy minimisation ------------------------------------------------
print "RENEU >>> stage 1 of 4: energy minimisation"
RENEU >>> stage 1 of 4: energy minimisation
minimize 1.0e-4 1.0e-6 10000 100000
PPPM initialization ...
  using 12-bit tables for long-range coulomb
  G vector (1/distance) = 0.29047306
  grid = 27 27 27
  stencil order = 5
  estimated absolute RMS force accuracy = 0.0037910449
  estimated relative force accuracy = 1.1416619e-05
  using double precision FFTW3
  3d grid and FFT values/proc = 23120 10206
Generated 105 of 105 mixed pair_coeff terms from geometric mixing rule
WARNING: Using fix shake with minimization.
  Substituting constraints with harmonic restraint forces using kbond=1987206.7 (src/RIGID/fix_shake.cpp:397)
Neighbor list info ...
  update: every = 1 steps, delay = 0 steps, check = yes
  max neighbors/atom: 2000, page size: 100000
  master list distance cutoff = 12
  ghost atom cutoff = 12
  binsize = 6, bins = 7 7 7
  1 neighbor lists, perpetual/occasional/extra = 1 0 0
  (1) pair lj/cut/coul/long, perpetual
      attributes: half, newton on
      pair build: half/bin/newton
      stencil: half/bin/3d
      bin: standard
Per MPI rank memory allocation (min/avg/max) = 17.04 | 17.07 | 17.1 Mbytes
   Step          Temp          Press          Volume         v_dens         PotEng         TotEng    
         0   0             -10246799       53284.716      0.60004041     483647.45      483647.45    
        13   0              8982.5557      53284.716      0.60004041    -2164.2391     -2164.2391    
Loop time of 3.42157 on 2 procs for 13 steps with 3060 atoms

99.5% CPU use with 2 MPI tasks x 1 OpenMP threads

Minimization stats:
  Stopping criterion = energy tolerance
  Energy initial, next-to-last, final = 
      483647.450854974   -2164.2350824634  -2164.23906716836
  Force two-norm initial, final = 2576913.5 4975.343
  Force max component initial, final = 138404.69 408.94945
  Final line search alpha, max atom move = 3.0566107e-05 0.012499993
  Iterations, force evaluations = 13 57

MPI task timing breakdown:
Section |  min time  |  avg time  |  max time  |%varavg| %total
---------------------------------------------------------------
Pair    | 1.7816     | 1.9204     | 2.0592     |  10.0 | 56.13
Bond    | 0.078508   | 0.079363   | 0.080219   |   0.3 |  2.32
Kspace  | 1.1327     | 1.274      | 1.4153     |  12.5 | 37.23
Neigh   | 0          | 0          | 0          |   0.0 |  0.00
Comm    | 0.082431   | 0.087411   | 0.09239    |   1.7 |  2.55
Output  | 0          | 0          | 0          |   0.0 |  0.00
Modify  | 0.022928   | 0.025171   | 0.027414   |   1.4 |  0.74
Other   |            | 0.03527    |            |       |  1.03

Nlocal:           1530 ave        1560 max        1500 min
Histogram: 1 0 0 0 0 0 0 0 0 1
Nghost:           7400 ave        7441 max        7359 min
Histogram: 1 0 0 0 0 0 0 0 0 1
Neighs:         346595 ave      377018 max      316172 min
Histogram: 1 0 0 0 0 0 0 0 0 1

Total # of neighbors = 693190
Ave neighs/atom = 226.53268
Ave special neighs/atom = 5.4215686
Neighbor list builds = 0
Dangerous builds = 0
reset_timestep 0

# --- 2. NVT relaxation (lets the packed box relax before the barostat) ------
print "RENEU >>> stage 2 of 4: NVT relaxation"
RENEU >>> stage 2 of 4: NVT relaxation
velocity all create ${TK} 12345 mom yes rot yes dist gaussian
velocity all create 300 12345 mom yes rot yes dist gaussian
fix NVTRELAX all nvt temp ${TK} ${TK} 100
fix NVTRELAX all nvt temp 300 ${TK} 100
fix NVTRELAX all nvt temp 300 300 100
run ${NVTRUN}
run 20000
PPPM initialization ...
  using 12-bit tables for long-range coulomb
  G vector (1/distance) = 0.29047306
  grid = 27 27 27
  stencil order = 5
  estimated absolute RMS force accuracy = 0.0037910449
  estimated relative force accuracy = 1.1416619e-05
  using double precision FFTW3
  3d grid and FFT values/proc = 23120 10206
Generated 105 of 105 mixed pair_coeff terms from geometric mixing rule
Per MPI rank memory allocation (min/avg/max) = 15.91 | 15.95 | 15.98 Mbytes
   Step          Temp          Press          Volume         v_dens         PotEng         TotEng    
         0   300            24898.05       53284.716      0.60004041    -2166.0058      11.774048    
      1000   291.57947     -1683.7333      53284.716      0.60004041    -22408.279     -20291.626    
      2000   300.00157     -1516.1155      53284.716      0.60004041    -22959.185     -20781.394    
      3000   298.92341     -707.56554      53284.716      0.60004041    -23303.325     -21133.36     
      4000   305.04697     -769.72219      53284.716      0.60004041    -23618.987     -21404.57     
      5000   296.83749     -2068.2121      53284.716      0.60004041    -23668.979     -21514.157    
      6000   300.09411     -542.44698      53284.716      0.60004041    -23749.276     -21570.813    
      7000   296.25968     -112.42136      53284.716      0.60004041    -23866.984     -21716.356    
      8000   306.05113      228.8765       53284.716      0.60004041    -23868.372     -21646.665    
      9000   301.10367     -577.38345      53284.716      0.60004041    -23941.331     -21755.539    
     10000   297.976       -174.55804      53284.716      0.60004041    -23965.029     -21801.942    
     11000   306.27729     -1283.7143      53284.716      0.60004041    -23992.585     -21769.236    
     12000   308.76598     -1104.0312      53284.716      0.60004041    -24089.213     -21847.798    
     13000   307.12078     -637.03649      53284.716      0.60004041    -24156.051     -21926.579    
     14000   299.46745     -1144.484       53284.716      0.60004041    -24113.347     -21939.433    
     15000   301.61438     -963.75961      53284.716      0.60004041    -24110.225     -21920.725    
     16000   298.48416     -768.21877      53284.716      0.60004041    -24176.034     -22009.258    
     17000   302.46788     -792.90793      53284.716      0.60004041    -24165.048     -21969.353    
     18000   293.55018     -208.42845      53284.716      0.60004041    -24223.89      -22092.932    
     19000   299.69774     -756.23705      53284.716      0.60004041    -24180.369     -22004.783    
     20000   289.54602     -219.01057      53284.716      0.60004041    -24181.969     -22080.077    
Loop time of 895.591 on 2 procs for 20000 steps with 3060 atoms

Performance: 1.929 ns/day, 12.439 hours/ns, 22.332 timesteps/s, 68.335 katom-step/s
97.7% CPU use with 2 MPI tasks x 1 OpenMP threads

MPI task timing breakdown:
Section |  min time  |  avg time  |  max time  |%varavg| %total
---------------------------------------------------------------
Pair    | 459.14     | 481.89     | 504.64     | 103.6 | 53.81
Bond    | 21.538     | 22.476     | 23.413     |  19.8 |  2.51
Kspace  | 285.59     | 308.38     | 331.16     | 129.7 | 34.43
Neigh   | 32.205     | 32.322     | 32.438     |   2.0 |  3.61
Comm    | 26.252     | 27.32      | 28.388     |  20.4 |  3.05
Output  | 0.050829   | 0.054107   | 0.057384   |   1.4 |  0.01
Modify  | 19.717     | 19.75      | 19.784     |   0.8 |  2.21
Other   |            | 3.401      |            |       |  0.38

Nlocal:           1530 ave        1593 max        1467 min
Histogram: 1 0 0 0 0 0 0 0 0 1
Nghost:           6095 ave        6251 max        5939 min
Histogram: 1 0 0 0 0 0 0 0 0 1
Neighs:         424050 ave      448077 max      400024 min
Histogram: 1 0 0 0 0 0 0 0 0 1

Total # of neighbors = 848101
Ave neighs/atom = 277.15719
Ave special neighs/atom = 5.4215686
Neighbor list builds = 938
Dangerous builds = 0
unfix NVTRELAX

# --- 3. NPT equilibration (this is where the density finds its own value) ---
# restart files are written every 25000 steps. If the run stops for any
# reason you can pick up from the last one instead of starting over:
#     read_restart rst_a.lmp      (or rst_b.lmp, whichever is newer)
print "RENEU >>> stage 3 of 4: NPT equilibration - watch the density column"
RENEU >>> stage 3 of 4: NPT equilibration - watch the density column
restart 25000 rst_a.lmp rst_b.lmp
fix NPTEQ all npt temp ${TK} ${TK} 100 iso ${PBAR} ${PBAR} 1000
fix NPTEQ all npt temp 300 ${TK} 100 iso ${PBAR} ${PBAR} 1000
fix NPTEQ all npt temp 300 300 100 iso ${PBAR} ${PBAR} 1000
fix NPTEQ all npt temp 300 300 100 iso 1 ${PBAR} 1000
fix NPTEQ all npt temp 300 300 100 iso 1 1 1000
run ${EQRUN}
run 100000
PPPM initialization ...
  using 12-bit tables for long-range coulomb
  G vector (1/distance) = 0.29047306
  grid = 27 27 27
  stencil order = 5
  estimated absolute RMS force accuracy = 0.0037910449
  estimated relative force accuracy = 1.1416619e-05
  using double precision FFTW3
  3d grid and FFT values/proc = 23120 10206
Generated 105 of 105 mixed pair_coeff terms from geometric mixing rule
Per MPI rank memory allocation (min/avg/max) = 16.3 | 16.33 | 16.37 Mbytes
   Step          Temp          Press          Volume         v_dens         PotEng         TotEng    
     20000   289.54602     -218.77491      53284.716      0.60004041    -24181.969     -22080.077    
     21000   305.64912      71.00541       49242.579      0.64929545    -24275.172     -22056.384    
     22000   309.04187      65.952555      46960.337      0.68085079    -24292.31      -22048.893    
     23000   296.22434      462.26524      45569.029      0.70163844    -24341.231     -22190.86     
     24000   297.28715      119.33968      44401.048      0.72009523    -24326.979     -22168.893    
     25000   295.1478       281.66285      43510.744      0.7348296     -24340.959     -22198.402    
     26000   304.54398      373.18713      42156.46       0.75843614    -24367.106     -22156.341    
     27000   297.13191      399.54866      40983.333      0.78014599    -24424.778     -22267.818    
     28000   298.66144      1085.2313      40078.863      0.79775174    -24482.006     -22313.943    
     29000   303.30661      581.18358      40354.754      0.79229781    -24433.359     -22231.575    
     30000   296.85353     -200.91903      38910.614      0.82170338    -24475.529     -22320.59     
     31000   300.65609      165.58175      38230.434      0.83632277    -24474.865     -22292.322    
     32000   306.17891     -412.18638      38235.392      0.83621433    -24530.847     -22308.213    
     33000   298.81218      616.21123      37992.52       0.84155993    -24470.591     -22301.434    
     34000   292.41015     -248.98274      37519.414      0.85217171    -24542.959     -22420.276    
     35000   301.70955      596.44681      37226.921      0.85886724    -24519.119     -22328.929    
     36000   297.99408      690.15052      37478.301      0.85310652    -24498.437     -22335.219    
     37000   293.44947     -196.07294      36928.564      0.86580629    -24535.732     -22405.504    
     38000   304.03331      592.29772      36931.994      0.86572587    -24605.983     -22398.924    
     39000   302.61737     -92.756869      36505.552      0.87583892    -24565.446     -22368.666    
     40000   301.12795      672.96888      35952.449      0.88931306    -24495.639     -22309.671    
     41000   295.1525       76.35721       36377.489      0.87892222    -24548.74      -22406.15     
     42000   296.10238     -384.4677       35951.128      0.88934574    -24564.622     -22415.136    
     43000   302.84923     -889.13305      35991.452      0.88834934    -24592.91      -22394.447    
     44000   297.87258     -1057.7072      36083.824      0.88607523    -24578.823     -22416.487    
     45000   299.98633      238.81128      35915.108      0.89023768    -24596.131     -22418.451    
     46000   298.68819      212.50462      35660.805      0.89658613    -24593.409     -22425.152    
     47000   300.20874     -1167.0343      35681.11       0.89607591    -24563.568     -22384.273    
     48000   290.66783      156.40064      35257.822      0.90683374    -24726.871     -22616.836    
     49000   295.92955      373.94491      35409.503      0.9029492     -24613.988     -22465.757    
     50000   310.42785     -217.78817      35363.4        0.90412638    -24612.187     -22358.708    
     51000   301.3584       608.2441       34645.088      0.92287204    -24630.488     -22442.847    
     52000   299.44483      2.0717075      34170.809      0.93568118    -24654.177     -22480.427    
     53000   305.99668     -385.51385      34752.598      0.92001705    -24541.978     -22320.667    
     54000   304.2825      -783.32885      34707.212      0.92122015    -24583.357     -22374.489    
     55000   300.02587     -629.40033      33722.655      0.94811582    -24643.828     -22465.86     
     56000   298.97304     -678.62337      34238.208      0.93383925    -24588.452     -22418.127    
     57000   295.47134      125.08048      34380.272      0.9299805     -24677.371     -22532.466    
     58000   298.62138     -314.22537      33603.303      0.95148334    -24699.252     -22531.48     
     59000   298.92053      472.7414       33364.993      0.95827931    -24655.368     -22485.424    
     60000   303.77581     -190.8105       33207.647      0.96281987    -24603.038     -22397.848    
     61000   300.56079     -950.53226      32635          0.9797145     -24618.128     -22436.277    
     62000   296.65586     -968.51003      33052.347      0.96734378    -24701.561     -22548.057    
     63000   302.22424      937.1224       33068.402      0.96687415    -24707.297     -22513.371    
     64000   299.10431     -559.87821      33130.917      0.96504974    -24711.595     -22540.318    
     65000   297.23528     -1016.1682      32645.877      0.97938808    -24751.284     -22593.574    
     66000   296.42299     -93.42199       32570.085      0.98166717    -24755.2       -22603.387    
     67000   299.13379     -394.89328      32420.043      0.98621037    -24780.135     -22608.643    
     68000   307.85269      283.33458      33067.924      0.96688811    -24785.994     -22551.209    
     69000   294.96493      510.32425      32754.639      0.97613601    -24727.01      -22585.781    
     70000   293.69952     -1180.6836      32615.757      0.98029251    -24744.501     -22612.458    
     71000   303.32589     -405.4231       32627.708      0.97993345    -24645.46      -22443.536    
     72000   305.99876      498.58098      32511.029      0.98345035    -24807.538     -22586.212    
     73000   297.06676      115.12624      32623.706      0.98005366    -24789.622     -22633.136    
     74000   307.81074     -1159.8126      32365.682      0.98786681    -24771.331     -22536.851    
     75000   298.92162      1128.7091      32659.547      0.97897814    -24832.102     -22662.15     
     76000   300.58306      2109.3805      32559.888      0.98197461    -24837.231     -22655.218    
     77000   303.57899     -97.348217      32470.068      0.98469099    -24751.051     -22547.29     
     78000   301.99027     -399.85908      32616.744      0.98026287    -24845.629     -22653.401    
     79000   300.54934     -711.52968      32175.739      0.99369846    -24789.292     -22607.524    
     80000   293.84512     -628.12413      32055.48       0.99742643    -24755.859     -22622.759    
     81000   300.15887      45.220464      32241.902      0.99165933    -24737.29      -22558.357    
     82000   291.05407     -481.6681       32262.37       0.99103019    -24772.195     -22659.356    
     83000   306.08238     -342.64452      32264.226      0.99097317    -24793.48      -22571.546    
     84000   297.1578      -81.199129      32643.115      0.97947095    -24780.694     -22623.547    
     85000   296.73949     -1010.4574      32008.154      0.99890117    -24760.787     -22606.676    
     86000   305.51122     -1176.9924      31922.298      1.0015877     -24831.422     -22613.635    
     87000   298.50875      865.60695      32105.628      0.99586849    -24718.826     -22551.871    
     88000   295.4527       384.09901      31694.543      1.0087851     -24790.445     -22645.675    
     89000   302.06155      1048.608       31717.451      1.0080565     -24803.716     -22610.971    
     90000   297.56981     -100.7397       31767.803      1.0064587     -24787.826     -22627.688    
     91000   295.39095      786.66489      31258.365      1.0228616     -24763.689     -22619.368    
     92000   304.60307     -1416.0902      31549.316      1.0134287     -24788.023     -22576.829    
     93000   300.77572     -524.03616      31059.814      1.0294003     -24796.753     -22613.342    
     94000   302.21416      512.63396      31139.795      1.0267564     -24763.096     -22569.243    
     95000   297.93062      572.06811      31271.857      1.0224204     -24784.005     -22621.247    
     96000   297.15603      963.15545      30779.002      1.0387921     -24824.158     -22667.023    
     97000   302.03099      659.08881      31028.997      1.0304227     -24870.354     -22677.83     
     98000   293.15458      354.80699      30930.364      1.0337086     -24902.214     -22774.127    
     99000   297.06074      503.65271      30844.766      1.0365773     -24771.801     -22615.358    
    100000   297.85997      559.44272      30650.934      1.0431324     -24796.965     -22634.72     
    101000   308.54842     -936.92615      30742.028      1.0400414     -24854.604     -22614.769    
    102000   293.42766     -287.23061      30777.823      1.0388319     -24813.499     -22683.43     
    103000   300.50469      49.527664      30557.513      1.0463215     -24809.315     -22627.872    
    104000   294.88919     -1394.9118      30973.689      1.0322627     -24908.712     -22768.033    
    105000   297.76421      476.88088      30956.135      1.032848      -24861.887     -22700.337    
    106000   293.17307     -630.65068      31042.736      1.0299666     -24763.667     -22635.446    
    107000   302.36808      184.54817      31057.875      1.0294646     -24830.693     -22635.722    
    108000   300.80778     -414.06908      30936.85       1.0334919     -24869.064     -22685.421    
    109000   299.8089       1031.5312      30754.431      1.039622      -24767.675     -22591.283    
    110000   297.53503     -1897.7296      31007.35       1.0311421     -24849.36      -22689.474    
    111000   300.3676       722.72573      30709.781      1.0411335     -24834.652     -22654.203    
    112000   296.37414     -106.1073       30893.692      1.0349356     -24861.745     -22710.286    
    113000   302.7444       600.3988       30590.471      1.0451942     -24826.504     -22628.802    
    114000   302.36182     -1573.9145      30720.979      1.040754      -24883.639     -22688.714    
    115000   300.87033      1307.1212      30678.768      1.042186      -24862.824     -22678.726    
    116000   299.72988     -159.08417      30723.681      1.0406625     -24836.057     -22660.238    
    117000   300.07382     -766.61593      30623.007      1.0440837     -24912.766     -22734.45     
    118000   302.41219     -388.45527      30729.972      1.0404494     -24847.977     -22652.686    
    119000   295.91764     -5.4829011      30223.675      1.0578787     -24857.818     -22709.673    
    120000   306.76315      361.07034      30319.81       1.0545245     -24934.52      -22707.645    
Loop time of 6613.24 on 2 procs for 100000 steps with 3060 atoms

Performance: 1.306 ns/day, 18.370 hours/ns, 15.121 timesteps/s, 46.271 katom-step/s
97.9% CPU use with 2 MPI tasks x 1 OpenMP threads

MPI task timing breakdown:
Section |  min time  |  avg time  |  max time  |%varavg| %total
---------------------------------------------------------------
Pair    | 3435.1     | 3490.6     | 3546.1     |  93.9 | 52.78
Bond    | 133.82     | 135.71     | 137.59     |  16.2 |  2.05
Kspace  | 1832.2     | 1886.4     | 1940.6     | 124.8 | 28.52
Neigh   | 214        | 214.04     | 214.07     |   0.2 |  3.24
Comm    | 194.6      | 196.95     | 199.3      |  16.8 |  2.98
Output  | 0.12785    | 0.3201     | 0.51235    |  34.0 |  0.00
Modify  | 588.03     | 605.81     | 623.58     |  72.2 |  9.16
Other   |            | 83.39      |            |       |  1.26

Nlocal:           1530 ave        1551 max        1509 min
Histogram: 1 0 0 0 0 0 0 0 0 1
Nghost:          10214 ave       10279 max       10149 min
Histogram: 1 0 0 0 0 0 0 0 0 1
Neighs:         571766 ave      583520 max      560011 min
Histogram: 1 0 0 0 0 0 0 0 0 1

Total # of neighbors = 1143531
Ave neighs/atom = 373.70294
Ave special neighs/atom = 5.4215686
Neighbor list builds = 4125
Dangerous builds = 0
unfix NPTEQ
write_data data.after_equilibration.lmp
System init for write_data ...
PPPM initialization ...
  using 12-bit tables for long-range coulomb
  G vector (1/distance) = 0.29586999
  grid = 24 24 24
  stencil order = 5
  estimated absolute RMS force accuracy = 0.0036622919
  estimated relative force accuracy = 1.1028883e-05
  using double precision FFTW3
  3d grid and FFT values/proc = 18259 6912
Generated 105 of 105 mixed pair_coeff terms from geometric mixing rule

# --- 4. NPT production - this is the trajectory you analyse ----------------
print "RENEU >>> stage 4 of 4: NPT production"
RENEU >>> stage 4 of 4: NPT production
reset_timestep 0
fix NPTPROD all npt temp ${TK} ${TK} 100 iso ${PBAR} ${PBAR} 1000
fix NPTPROD all npt temp 300 ${TK} 100 iso ${PBAR} ${PBAR} 1000
fix NPTPROD all npt temp 300 300 100 iso ${PBAR} ${PBAR} 1000
fix NPTPROD all npt temp 300 300 100 iso 1 ${PBAR} 1000
fix NPTPROD all npt temp 300 300 100 iso 1 1 1000
fix DENSAVG all ave/time 10 100 1000 v_dens v_vol file density.dat

dump TRAJ all custom 500 dump.lammpstrj id mol type element q xu yu zu
dump_modify TRAJ element N C H C H O H H C C O H H O N

run ${PRODRUN}
run 200000
PPPM initialization ...
  using 12-bit tables for long-range coulomb
  G vector (1/distance) = 0.29586999
  grid = 24 24 24
  stencil order = 5
  estimated absolute RMS force accuracy = 0.0036622919
  estimated relative force accuracy = 1.1028883e-05
  using double precision FFTW3
  3d grid and FFT values/proc = 18259 6912
Generated 105 of 105 mixed pair_coeff terms from geometric mixing rule
Per MPI rank memory allocation (min/avg/max) = 16.4 | 16.59 | 16.79 Mbytes
   Step          Temp          Press          Volume         v_dens         PotEng         TotEng    
         0   306.76315      316.18493      30319.81       1.0545245     -24934.515     -22707.64     
      1000   307.88364     -943.74939      30385.122      1.0522579     -24849.384     -22614.374    
      2000   299.51938      1052.3676      30274.324      1.0561089     -24982.424     -22808.133    
      3000   297.64396      867.53986      30545.713      1.0467257     -24869.736     -22709.059    
      4000   304.56647     -169.93608      30242.954      1.0572044     -24826.229     -22615.3      
      5000   294.69236      673.44471      30280.77       1.0558841     -24893.503     -22754.253    
      6000   300.7584       8.5536342      30682.359      1.042064      -24917.753     -22734.468    
      7000   294.91456      1207.0221      30255.501      1.0567659     -24840.807     -22699.944    
      8000   296.45162      23.539203      30159.569      1.0601273     -24884.375     -22732.354    
      9000   295.40481     -1415.8482      30566.845      1.0460021     -24792.804     -22648.382    
     10000   295.79202      1164.9558      30300.394      1.0552002     -24867.293     -22720.06     
     11000   300.82663     -117.5522       30629.616      1.0438584     -24833.51      -22649.729    
     12000   296.31899      157.19812      30235.67       1.057459      -24850.746     -22699.688    
     13000   302.7639       27.330469      30449.354      1.0500381     -24819.625     -22621.781    
     14000   293.78598      47.70258       30204.082      1.058565      -24861.294     -22728.624    
     15000   306.44647     -536.35231      30487.486      1.0487248     -24928.672     -22704.096    
     16000   301.49578     -354.84442      30420.509      1.0510338     -24848.934     -22660.296    
     17000   296.74805     -615.46415      30091.594      1.0625221     -24879.267     -22725.094    
     18000   302.97893      622.04861      29759.42       1.0743819     -24860.136     -22660.732    
     19000   303.19914      30.030649      29978.874      1.0665171     -24904.016     -22703.012    
     20000   300.04433      590.93054      29912.502      1.0688836     -24804.325     -22626.224    
     21000   298.99119     -528.21145      29916.641      1.0687357     -24884.114     -22713.658    
     22000   305.98077     -331.67794      30034.341      1.0645475     -24874.376     -22653.18     
     23000   300.34848     -387.72379      29302.829      1.0911227     -24878.418     -22698.109    
     24000   303.31558      877.73332      29349.229      1.0893977     -24898.717     -22696.868    
     25000   298.00955     -608.7167       29513.432      1.0833366     -24896.815     -22733.484    
     26000   310.48997      618.49016      29157.831      1.0965487     -24882.109     -22628.179    
     27000   296.15434     -1225.3816      29460.406      1.0852866     -24826.064     -22676.201    
     28000   298.46802      679.67646      29121.395      1.0979207     -24895.449     -22728.79     
     29000   306.0466       125.40535      29180.959      1.0956797     -24913.474     -22691.8      
     30000   301.10321     -782.70499      29269.723      1.0923569     -24894.751     -22708.962    
     31000   297.56793      1195.137       29307.794      1.0909379     -24902.658     -22742.533    
     32000   294.23024     -457.31116      29483.19       1.0844479     -24843.596     -22707.701    
     33000   295.86509     -353.29637      29560.354      1.0816171     -24881.588     -22733.825    
     34000   296.4108      -1381.4573      29405.101      1.0873278     -24788.365     -22636.64     
     35000   292.49779      1084.2972      29112.72       1.0982479     -24878.005     -22754.686    
     36000   303.74099      1.3975217      29208.076      1.0946624     -24783.881     -22578.944    
     37000   297.35254     -888.22334      29649.356      1.0783702     -24909.713     -22751.152    
     38000   294.35096      507.60578      29076.654      1.0996101     -24840.95      -22704.178    
     39000   307.22323      736.56229      29181.973      1.0956416     -24944.022     -22713.807    
     40000   304.48686     -951.32879      29292.965      1.0914902     -24899.429     -22689.078    
     41000   304.43012      407.6126       29164.676      1.0962914     -24868.381     -22658.442    
     42000   301.36452      401.68314      28820.574      1.1093805     -24903.247     -22715.562    
     43000   290.82522     -833.02351      28723.907      1.113114      -24839.052     -22727.874    
     44000   303.86643     -262.90611      28779.399      1.1109677     -24884.111     -22678.264    
     45000   308.07153     -759.4466       28540.767      1.1202566     -24856.61      -22620.236    
     46000   297.7428      -243.6537       28312.233      1.1292992     -24908.551     -22747.157    
     47000   293.98339     -770.38177      28380.049      1.1266007     -24959.475     -22825.371    
     48000   293.93469     -711.25591      28516.433      1.1212126     -24922.297     -22788.547    
     49000   304.84151     -1306.4789      28447.328      1.1239362     -24962.757     -22749.831    
     50000   288.50706      629.22758      28220.267      1.1329795     -24867.155     -22772.805    
     51000   301.63981     -1796.976       28078.204      1.1387118     -24922.163     -22732.48     
     52000   293.43644      1925.6436      28098.11       1.1379051     -25007.852     -22877.719    
     53000   300.42816     -1579.8624      28240.319      1.132175      -24939.59      -22758.702    
     54000   307.61581     -943.17654      27978.522      1.1427688     -24898.543     -22665.478    
     55000   300.6522       1.0357685      28097.261      1.1379395     -24937.368     -22754.853    
     56000   295.44723     -16.937173      28071.267      1.1389932     -24967.291     -22822.56     
     57000   297.77371      213.53834      27865.871      1.1473886     -24857.791     -22696.173    
     58000   297.114       -1117.852       28022.234      1.1409862     -24904.859     -22748.029    
     59000   301.13607      177.85231      27772.88       1.1512304     -24892.411     -22706.384    
     60000   300.87401      840.8026       27850.373      1.1480271     -24939.815     -22755.69     
     61000   304.95685      268.51582      28036.734      1.1403961     -24943.956     -22730.193    
     62000   296.01681      1295.453       27882.435      1.146707      -24958.247     -22809.382    
     63000   309.30528     -1886.1153      28246.089      1.1319437     -24916.253     -22670.924    
     64000   300.19694      243.07736      27965.183      1.1433139     -24987.129     -22807.92     
     65000   300.54174      239.2479       27943.478      1.144202      -24954.974     -22773.261    
     66000   304.73364     -786.51433      27880.165      1.1468003     -24908.723     -22696.581    
     67000   300.71549      684.43427      27950.336      1.1439212     -24970.77      -22787.796    
     68000   297.0105       546.57253      27860.541      1.1476081     -24972.517     -22816.439    
     69000   290.93228      249.10855      28003.061      1.1417674     -24846.847     -22734.892    
     70000   301.12993      597.11066      27718.661      1.1534822     -25017.982     -22832        
     71000   304.46315     -1148.6861      27763.105      1.1516357     -24953.301     -22743.122    
     72000   300.41394      512.76877      27514.051      1.1620602     -24949.76      -22768.975    
     73000   304.97949     -356.88721      27549.284      1.160574      -25020.182     -22806.255    
     74000   285.17454      128.22685      27725.597      1.1531937     -24971.559     -22901.401    
     75000   297.60106     -1076.2729      27635.667      1.1569463     -24914.976     -22754.61     
     76000   299.80837     -724.05837      27731.158      1.1529624     -24957.641     -22781.252    
     77000   308.75478      744.84032      27714.441      1.1536579     -24946.552     -22705.218    
     78000   304.08665     -1441.8715      27682.417      1.1549925     -24978.887     -22771.441    
     79000   296.0427       223.85864      27712.597      1.1537346     -24957.501     -22808.449    
     80000   298.32021      685.72595      27453.625      1.1646179     -24901.456     -22735.87     
     81000   296.88502     -1663.9449      27725.927      1.1531799     -24943.156     -22787.988    
     82000   291.68953      1474.5051      27557.067      1.1602462     -24888.177     -22770.725    
     83000   300.12814      565.76821      27360.026      1.168602      -24975.159     -22796.449    
     84000   295.37844      364.20792      27443.542      1.1650458     -24920.513     -22776.282    
     85000   293.96169      605.8801       27674.134      1.1553381     -24927.524     -22793.578    
     86000   290.14489      457.26195      27881.282      1.1467544     -24998.468     -22892.229    
     87000   294.68755     -544.98021      27891.852      1.1463198     -24975.404     -22836.189    
     88000   298.31136      979.34644      27619.077      1.1576412     -24973.107     -22807.585    
     89000   296.22767     -948.52297      27778.358      1.1510033     -25000.563     -22850.168    
     90000   293.95278     -24.984749      27707.183      1.1539601     -24996.422     -22862.54     
     91000   300.44745     -504.96783      27410.507      1.1664499     -24970.041     -22789.013    
     92000   296.69676     -317.26602      27457.857      1.1644384     -25062.103     -22908.302    
     93000   302.24049      715.99324      27553.015      1.1604169     -24973.887     -22779.843    
     94000   291.86961      117.14339      27743.408      1.1524533     -24938.998     -22820.239    
     95000   301.35689     -919.68417      27740.54       1.1525725     -24941.404     -22753.775    
     96000   298.69885      758.52543      27485.051      1.1632863     -24998.852     -22830.518    
     97000   295.58937     -976.42145      27649.696      1.1563593     -24912.665     -22766.903    
     98000   307.01578      2535.582       27394.448      1.1671337     -25068.156     -22839.447    
     99000   300.71321     -1081.8543      27556.652      1.1602637     -24978.278     -22795.32     
    100000   292.89003      1958.4815      27375.905      1.1679242     -25006.863     -22880.697    
    101000   304.00681      272.6058       27397.423      1.1670069     -25034.539     -22827.672    
    102000   294.89367      1083.8418      27521.754      1.1617349     -24999.165     -22858.453    
    103000   308.30367     -1189.7176      27475.696      1.1636823     -25018.226     -22780.167    
    104000   294.5578      -115.18135      27546          1.1607124     -25033.412     -22895.139    
    105000   300.59688     -299.85015      27495.626      1.1628389     -25029.201     -22847.088    
    106000   304.34035      1949.1753      27341.408      1.1693978     -25064.424     -22855.136    
    107000   302.92241     -853.03506      27631.13       1.1571363     -25006.858     -22807.864    
    108000   295.31299     -408.72852      27315.993      1.1704858     -25040.377     -22896.621    
    109000   301.42929     -264.43425      27639.13       1.1568014     -24928.461     -22740.306    
    110000   302.21733      812.18184      27446.679      1.1649126     -25010.851     -22816.975    
    111000   296.57027     -40.567596      27502.829      1.1625343     -25036.704     -22883.822    
    112000   300.93142      508.4935       27325.415      1.1700822     -24925.298     -22740.756    
    113000   294.68612     -342.62508      27345.106      1.1692397     -25077.561     -22938.356    
    114000   293.59961     -363.17893      27372.844      1.1680548     -24983.024     -22851.707    
    115000   302.14718     -28.833789      27685.001      1.1548846     -25040.983     -22847.616    
    116000   300.92047     -1112.6833      27461.705      1.1642752     -24971.638     -22787.177    
    117000   300.37795      790.99519      27432.75       1.1655041     -25031.475     -22850.951    
    118000   300.43982      750.3912       27150.648      1.177614      -25010.885     -22829.912    
    119000   316.69174     -776.01393      27545.534      1.160732      -25087.744     -22788.795    
    120000   293.18679     -667.49838      27629.439      1.1572071     -25009.72      -22881.399    
    121000   298.18604     -587.39778      27497.572      1.1627566     -24965.033     -22800.421    
    122000   299.27637      1136.2569      27319.14       1.170351      -25099.654     -22927.127    
    123000   297.25615     -783.55101      27202.659      1.1753624     -25050.168     -22892.306    
    124000   287.48529     -518.22552      27390.996      1.1672808     -24982.58      -22895.648    
    125000   304.8614      -304.64709      27324.339      1.1701283     -25055.502     -22842.432    
    126000   301.25451      429.57105      27080.689      1.1806562     -25046.43      -22859.544    
    127000   308.08869      14.670543      27460.494      1.1643266     -24963.609     -22727.111    
    128000   295.07479     -593.05628      27370.48       1.1681557     -25032.889     -22890.862    
    129000   298.43637     -280.24242      27544.898      1.1607588     -25029.911     -22863.482    
    130000   298.82794     -450.45086      27501.518      1.1625897     -24970.755     -22801.483    
    131000   290.03531      614.63281      27476.291      1.1636572     -24983.045     -22877.602    
    132000   306.8397      -184.26674      27388.059      1.167406      -25030.834     -22803.403    
    133000   283.86848      86.109898      27354.453      1.1688402     -25034.783     -22974.107    
    134000   296.12049     -906.33589      27361.732      1.1685292     -25006.258     -22856.641    
    135000   298.54332     -145.29275      27532.201      1.1612941     -24995.068     -22827.862    
    136000   297.48888      871.76096      27152.248      1.1775446     -25096.599     -22937.048    
    137000   307.96599     -333.90346      27448.998      1.1648142     -25011.937     -22776.33     
    138000   300.47604      722.83771      27315.251      1.1705176     -25070.494     -22889.258    
    139000   302.44078      127.07414      27524.685      1.1616112     -24985.084     -22789.586    
    140000   294.75889     -307.32397      27373.738      1.1680167     -25007.652     -22867.919    
    141000   306.88748     -396.32269      27441.939      1.1651138     -25046.761     -22818.984    
    142000   304.02933      358.01788      27324.114      1.1701379     -25052.796     -22845.766    
    143000   300.9055      -447.11794      27421.671      1.165975      -25017.081     -22832.728    
    144000   290.2091      -248.01134      27207.429      1.1751564     -25056.375     -22949.67     
    145000   297.23539      1048.6895      27301.063      1.171126      -25003.968     -22846.257    
    146000   304.28474     -1253.9374      27355.861      1.16878       -25004.167     -22795.283    
    147000   299.02439     -226.23833      27303.165      1.1710358     -25013.55      -22842.852    
    148000   300.7947       1940.7584      27155.447      1.1774059     -25052.079     -22868.53     
    149000   296.55385      474.9504       27146.696      1.1777854     -25098.468     -22945.704    
    150000   297.69575      748.39324      27105.606      1.1795708     -25050.29      -22889.237    
    151000   295.19967      852.79705      27110.768      1.1793463     -25080.523     -22937.59     
    152000   290.11367      495.95413      27200.628      1.1754502     -25058.18      -22952.168    
    153000   299.05683     -509.23019      27331.719      1.1698124     -25041.931     -22870.998    
    154000   295.5269       898.93889      27290.076      1.1715974     -25050.153     -22904.845    
    155000   298.07973     -988.86606      27136.541      1.1782262     -25032.743     -22868.903    
    156000   290.57109      1415.7949      26922.786      1.1875808     -25073.955     -22964.622    
    157000   298.60308     -1583.2959      27344.085      1.1692833     -25013.419     -22845.78     
    158000   301.90932     -1279.6075      27486.084      1.1632426     -25082.262     -22890.622    
    159000   302.4477       100.01604      27357.742      1.1686996     -25063.747     -22868.199    
    160000   301.64302     -158.44925      27426.072      1.1657879     -25002.242     -22812.535    
    161000   299.79416     -788.46293      27230.616      1.1741557     -24995.658     -22819.372    
    162000   302.71334     -605.01661      27441.192      1.1651455     -25016.066     -22818.59     
    163000   309.11533      113.20878      27194.712      1.1757059     -25042.468     -22798.517    
    164000   299.86012     -584.50736      27328.98       1.1699296     -25016.889     -22840.125    
    165000   295.78088      734.58294      27228.215      1.1742592     -25130.398     -22983.246    
    166000   307.2877      -47.015833      27276.183      1.1721942     -25102.959     -22872.276    
    167000   299.8854      -801.15852      27422.449      1.1659419     -25077.882     -22900.935    
    168000   294.65413     -168.48563      27381.878      1.1676695     -25100.811     -22961.838    
    169000   303.77037     -698.61243      27578.073      1.1593625     -25008.761     -22803.611    
    170000   295.69727     -337.6442       27302.507      1.171064      -25046.633     -22900.088    
    171000   300.35095      222.22881      27388.499      1.1673872     -24999.176     -22818.848    
    172000   298.65875      2153.207       27381.604      1.1676811     -25063.563     -22895.52     
    173000   302.83518     -861.59368      27337.753      1.1695542     -25012.982     -22814.621    
    174000   296.99479      875.57026      27338.695      1.1695138     -25040.824     -22884.859    
    175000   303.80801      946.17187      27164.804      1.1770003     -24984.826     -22779.403    
    176000   299.1417       640.92027      27262.764      1.1727711     -25056.83      -22885.281    
    177000   303.93465     -141.81241      27215.084      1.1748258     -25014.609     -22808.267    
    178000   306.65695     -718.14852      27297.816      1.1712652     -25077.845     -22851.741    
    179000   311.34171      512.29873      26933.175      1.1871227     -25031.115     -22771.003    
    180000   294.54993     -601.4536       27105.281      1.179585      -25056.493     -22918.277    
    181000   305.6606       1359.186       27139.825      1.1780836     -25041.939     -22823.067    
    182000   298.39585      1265.7552      27164.157      1.1770283     -25067.003     -22900.868    
    183000   305.58597     -301.80603      27087.697      1.1803507     -24989.225     -22770.895    
    184000   301.32606      846.42308      27176.185      1.1765074     -25051.813     -22864.407    
    185000   291.02632     -943.23007      27195.514      1.1756712     -25082.524     -22969.886    
    186000   307.23723      1287.5229      27187.981      1.175997      -25079.025     -22848.708    
    187000   296.1844      -602.26996      27165.429      1.1769733     -25050.394     -22900.313    
    188000   297.86131     -446.51304      27080.092      1.1806822     -25068.712     -22906.458    
    189000   294.31603      732.10661      27268.052      1.1725437     -24966.358     -22829.839    
    190000   299.66176      1231.5115      27190.51       1.1758876     -25062.975     -22887.65     
    191000   297.71976      722.10418      27078.072      1.1807703     -25063.363     -22902.136    
    192000   301.23524     -815.92275      26956.39       1.1861003     -25084.299     -22897.552    
    193000   295.8498       930.92289      27075.891      1.1808654     -25053.61      -22905.958    
    194000   297.2611      -949.30736      27393.017      1.1671946     -25029.932     -22872.035    
    195000   305.62962     -883.18631      27196.135      1.1756444     -25078.08      -22859.433    
    196000   301.22084     -250.61863      27193.584      1.1757547     -25019.657     -22833.015    
    197000   293.75316      213.87284      27297.769      1.1712673     -25033.958     -22901.525    
    198000   299.99958     -172.4218       27231.845      1.1741027     -25123.692     -22945.915    
    199000   300.77364      1303.6645      27009.326      1.1837757     -25044.449     -22861.054    
    200000   300.13018      107.64762      26962.248      1.1858426     -25043.291     -22864.566    
Loop time of 13888.6 on 2 procs for 200000 steps with 3060 atoms

Performance: 1.244 ns/day, 19.290 hours/ns, 14.400 timesteps/s, 44.065 katom-step/s
98.1% CPU use with 2 MPI tasks x 1 OpenMP threads

MPI task timing breakdown:
Section |  min time  |  avg time  |  max time  |%varavg| %total
---------------------------------------------------------------
Pair    | 8073.3     | 8316.2     | 8559.2     | 266.4 | 59.88
Bond    | 261.51     | 269.2      | 276.9      |  46.9 |  1.94
Kspace  | 3108.7     | 3344.7     | 3580.7     | 408.1 | 24.08
Neigh   | 458.83     | 459.08     | 459.34     |   1.2 |  3.31
Comm    | 382.56     | 384.07     | 385.57     |   7.7 |  2.77
Output  | 15.991     | 18.936     | 21.882     |  67.7 |  0.14
Modify  | 962.72     | 966.66     | 970.6      |  12.7 |  6.96
Other   |            | 129.7      |            |       |  0.93

Nlocal:           1530 ave        1546 max        1514 min
Histogram: 1 0 0 0 0 0 0 0 0 1
Nghost:          11344 ave       11372 max       11316 min
Histogram: 1 0 0 0 0 0 0 0 0 1
Neighs:         627886 ave      634561 max      621212 min
Histogram: 1 0 0 0 0 0 0 0 0 1

Total # of neighbors = 1255773
Ave neighs/atom = 410.38333
Ave special neighs/atom = 5.4215686
Neighbor list builds = 8143
Dangerous builds = 0

write_data data.final.lmp
System init for write_data ...
PPPM initialization ...
  using 12-bit tables for long-range coulomb
  G vector (1/distance) = 0.29882688
  grid = 24 24 24
  stencil order = 5
  estimated absolute RMS force accuracy = 0.0032564742
  estimated relative force accuracy = 9.8067752e-06
  using double precision FFTW3
  3d grid and FFT values/proc = 18259 6912
Generated 105 of 105 mixed pair_coeff terms from geometric mixing rule
print "RENEU >>> finished. trajectory = dump.lammpstrj, density log = density.dat"
RENEU >>> finished. trajectory = dump.lammpstrj, density log = density.dat
Total wall time: 5:56:42
