LAMMPS data file via write_data, version 10 Dec 2025, timestep = 200000, units = real

2301 atoms
12 atom types
2183 bonds
6 bond types
4071 angles
11 angle types
5192 dihedrals
12 dihedral types

2.0945225305707353 30.04547746942943 xlo xhi
2.0945225305707353 30.04547746942943 ylo yhi
2.0945225305707353 30.04547746942943 zlo zhi

Masses

1 14.007
2 12.011
3 1.008
4 12.011
5 1.008
6 12.011
7 1.008
8 1.008
9 12.011
10 12.011
11 15.999
12 12.011

Bond Coeffs # harmonic

1 382.003 1.448
2 434.034 1.01
3 267.925 1.529
4 339.986 1.09
5 317.041 1.522
6 655.951 1.25

Angle Coeffs # harmonic

1 35.0024 109.5
2 35.0024 109.5
3 56.2022 109.5
4 35.0024 109.5
5 37.5 110.7
6 32.9947 107.8
7 58.3533 112.7
8 70.0048 117
9 79.9952 126
10 63.0019 111.1
11 35.0024 109.5

Dihedral Coeffs # opls

1 -0.19001 -0.416993 0.417997 0
2 0 0 0.4 0
3 2.39199 -0.673996 0.55 0
4 0 0 0.3 0
5 -1.013 -0.709011 0.472992 0
6 0 0 0.3 0
7 0 0.820005 0 0
8 0 0 0 0
9 -3.18499 -0.825 0.492997 0
10 0 0 -0.225 0
11 1.3 -0.05 0.2 0
12 0 21 0 0

Atoms # full

457 33 6 -0.32 5.091809784172616 6.112693193332075 6.483631645522911 1 0 0
461 33 8 0.13 4.320145171385752 6.259634579527082 5.727967445960908 1 0 0
462 33 8 0.13 5.961236148023035 6.732092144088692 6.263338525111456 1 0 0
454 33 4 -0.12 4.534846725267669 6.525945836368488 7.848139599915135 1 0 0
460 33 8 0.13 5.400421704250244 5.071147035945903 6.394040115134147 1 0 0
458 33 7 0.06 3.9291909904545506 7.4308809744819 7.7995602306135625 1 0 0
2154 113 11 -0.8 6.208867772044173 3.4741706839135187 8.314781079862286 0 0 0
573 41 8 0.13 2.13415816351959 2.841981664132688 6.359998466762335 1 0 0
455 33 5 0.08 6.589809378251671 7.239160727628609 8.509608406092738 1 0 0
2163 113 7 0.06 8.61991282600528 4.773674177149653 7.689377893494917 0 0 0
2152 113 9 0.7 6.248822675474864 2.4075664763367395 7.650782638803551 0 0 0
1774 97 7 0.06 5.138131857530661 8.845276410144033 4.086135816185115 0 0 0
2157 113 7 0.06 7.605726649635351 2.5182212375145894 5.923948236737981 0 0 0
1716 95 7 0.06 4.124637349336284 6.847057220952242 2.7109671898313445 0 0 1
1191 74 7 0.06 8.026855147812643 3.442418284785147 2.8683933872700265 0 0 0
2156 113 4 -0.12 8.836064076344648 2.5613607720283893 7.6107967526533296 0 0 0
2161 113 7 0.06 8.697045023440154 2.418771053325535 8.682444226292482 0 0 0
1185 74 7 0.06 4.55325145527267 2.537523815974344 2.41834203215576 0 0 0
1187 74 4 -0.12 8.002388434900075 2.368918101264743 2.681083078183114 0 0 0
315 23 5 0.08 8.613588940933665 7.937339334557955 2.568366712551941 0 0 0
569 41 6 -0.32 2.2615359007452556 3.7463052900472267 6.955027977755979 1 0 0
2153 113 10 -0.22 7.578502532286403 2.1225964430494413 6.939244403701453 0 0 0
572 41 8 0.13 3.318617270835018 3.889111296309631 7.179241848423222 1 0 0
459 33 7 0.06 3.7514892284692607 5.825822534007536 8.138423646572871 1 0 0
450 33 2 0.2 5.6757148535979365 6.756093422137403 8.854809119794943 1 0 0
451 33 3 0.35 6.120715865795196 4.7891793060109435 9.061988352238274 1 0 0
564 41 3 0.35 4.068650360829387 2.4575807265367855 8.777420976006951 1 0 0
1186 74 7 0.06 5.45863184860686 3.991684092093939 2.5750282126187845 0 0 0
1181 74 4 -0.12 5.504655832098621 2.9922679858024006 2.142436451892717 0 0 0
2164 113 7 0.06 9.14916480246183 4.218021504091278 6.18564500024304 0 0 0
2159 113 4 -0.12 9.277921590004144 4.023720445096789 7.250424393107856 0 0 0
2273 117 7 0.06 9.873707394824539 8.297076904972853 7.472475406972718 0 0 0
321 23 8 0.13 9.876267580925932 6.865446850331646 4.654658131096064 0 0 0
2162 113 4 -0.12 10.720346237357267 4.431143361777153 7.71566466308489 0 0 0
2168 113 4 -0.12 13.337682746241832 3.9976543052046862 7.1111371733795155 0 0 0
2166 113 7 0.06 10.855715042705098 4.291441555285865 8.788159466606766 0 0 0
2165 113 4 -0.12 11.834393863480393 3.5597192364129078 7.019695817413192 0 0 0
2169 113 7 0.06 11.518027208371404 3.4475433201041126 5.982673576519298 0 0 0
2171 113 12 -0.18 13.979522358007012 3.594751060930564 8.467664906162438 0 0 0
2167 113 7 0.06 10.949866968510111 5.476741043146692 7.51040357870135 0 0 0
2172 113 7 0.06 13.506821201803078 5.056997756455575 6.918082685923953 0 0 0
317 23 6 -0.32 10.612535626084435 6.6528537333027815 3.879545250895536 0 0 0
322 23 8 0.13 11.305574287203841 5.9124476137344395 4.279023072764868 0 0 0
2170 113 7 0.06 11.799434535796332 2.525026773574978 7.360688120956652 0 0 0
2173 113 7 0.06 13.929640427788781 3.548216709987665 6.313842783179223 0 0 0
2176 113 7 0.06 14.87841335965787 4.1920183856780975 8.620482226593642 0 0 0
1216 75 7 0.06 14.05221867368125 7.828922946177558 4.533441224098476 0 0 1
1223 75 7 0.06 14.433135845797771 7.854243662971897 7.605935782109094 0 0 1
1788 98 7 0.06 14.535739836629569 3.655440885688826 3.2119080343190047 0 1 1
1197 74 7 0.06 10.410925189573364 3.2979338511335836 3.3074494075382397 0 0 0
1218 75 4 -0.12 15.164083276919962 7.48946655762983 6.884312653138429 0 0 1
1193 74 4 -0.12 10.497032397881041 2.223574456691499 3.1448951914634327 0 0 0
2175 113 7 0.06 14.27801159531539 2.562591883245958 8.284258135659496 0 0 0
1217 75 7 0.06 12.923909997220017 8.674541758224983 5.471073319095053 0 0 1
1222 75 7 0.06 14.971868154444806 6.505538457086872 6.45649811114005 0 0 1
1794 98 7 0.06 15.82726450099798 4.056225792674232 5.463071780162833 0 1 1
1272 77 7 0.06 15.807863246915845 7.294733016256375 3.6326695857686486 0 0 1
1212 75 4 -0.12 13.899499083646305 8.801260508163807 5.001760286578222 0 0 1
1215 75 4 -0.12 15.15839176240931 8.698353488939652 5.912024327423003 0 0 1
1784 98 4 -0.12 15.439414188373581 3.2905098073335286 2.7237642588811593 0 1 1
1220 75 7 0.06 16.011566628614613 8.575355811647352 5.244903154249416 0 0 1
320 23 8 0.13 11.214203307877174 7.5544128094788014 3.7643339709978347 0 0 0
1199 74 7 0.06 12.44823538594286 2.476758833437616 3.879001156968739 0 0 0
314 23 4 -0.12 10.05559846806942 6.184748472621098 2.6044738005833414 0 0 0
319 23 7 0.06 9.330955473898664 5.374826532865632 2.688171711419905 0 0 0
1789 98 7 0.06 15.77683803717383 4.177179665314083 2.1870630799507915 0 1 1
1271 77 12 -0.18 17.897623005978847 7.115634620845034 3.0821642110378837 0 0 1
1787 98 4 -0.12 16.33603632386447 2.734871906325343 3.8563632260844125 0 1 1
1276 77 7 0.06 18.146701932909547 7.1591319553676165 4.142425551063115 0 0 1
1793 98 4 -0.12 17.73387538465637 3.2238884983336193 5.933660848984509 0 1 1
1796 98 12 -0.18 18.40068964195986 4.292308201816261 6.840598930006617 0 1 1
1801 98 7 0.06 19.338138332276444 4.030899235892716 7.33145701980794 0 1 1
1790 98 4 -0.12 16.726722280821562 3.770738304019913 4.917582067990093 0 1 1
1800 98 7 0.06 17.666395754474124 4.719496999939386 7.523540116082334 0 1 1
1798 98 7 0.06 17.175934294145826 2.557454165388905 6.591424803650701 0 1 1
1795 98 7 0.06 17.218834932871502 4.659164549159627 4.521841832992131 0 1 1
1799 98 7 0.06 18.75492600664906 5.037918605989637 6.128792693217272 0 1 1
1225 75 7 0.06 16.556520976778216 7.005173632110822 8.55666805325357 0 0 1
1221 75 12 -0.18 16.524049067810402 7.4875382016421455 7.579756370520598 0 0 1
1226 75 7 0.06 17.34013542211745 7.118783622520351 6.958379234057248 0 0 1
1224 75 7 0.06 16.773995648917936 8.51189028643274 7.856009698185414 0 0 1
1797 98 7 0.06 18.513058005270317 2.698492088754482 5.381465747430623 0 1 1
1040 68 4 -0.12 22.71143019351828 2.5236861925572414 9.058951715832432 0 1 0
1045 68 7 0.06 21.779196128030964 2.273664984591362 8.552478197560664 0 1 0
1594 90 7 0.06 22.256563072859876 7.732165471704555 8.180044503424757 0 0 0
1268 77 4 -0.12 16.508077056424803 7.549882579221863 2.837254134349149 0 0 1
1274 77 7 0.06 18.085582830708645 6.1001102769475155 2.733641918931294 0 0 1
1791 98 7 0.06 17.260644173577752 2.3657637837170205 3.4125772931970237 0 1 1
1273 77 7 0.06 16.464969874339324 8.607849584401187 3.095970213178283 0 0 1
1275 77 7 0.06 18.701914470036552 7.776650280453816 2.7592711642057575 0 0 1
2100 110 7 0.06 22.27142393183672 8.772390470033312 2.778141585648616 0 0 1
574 41 8 0.13 29.756033343417872 4.659017012857788 6.57202626522964 0 0 0
1723 95 7 0.06 29.703610108856783 6.776480925124324 4.359784740097821 -1 0 1
1718 95 4 -0.12 29.295283340189574 7.209124962116371 3.4464530239127322 -1 0 1
570 41 7 0.06 29.349199826851812 4.284533212014047 8.910030596657931 0 0 0
566 41 4 -0.12 29.491254149882284 3.4040741635329415 8.283373694733692 0 0 0
1715 95 4 -0.12 29.968740416297482 6.481919391868764 2.276936955259112 -1 0 1
1719 95 7 0.06 29.976669427861324 5.42722682365209 2.5519772282884334 -1 0 1
1048 68 7 0.06 23.42381340092369 4.004451406793928 7.620253511302291 0 1 0
1046 68 12 -0.18 24.359575757847157 2.148709225586014 7.039382454501162 0 1 0
1049 68 7 0.06 25.27135917586023 2.51092266882618 6.5644731759810515 0 1 0
1721 95 12 -0.18 27.759195769703343 6.980871895565322 3.6236051927173847 -1 0 1
1724 95 7 0.06 27.533491882534083 5.935515823638581 3.412951742236211 -1 0 1
1725 95 7 0.06 27.278251991602673 7.357168037478905 4.526478792466786 -1 0 1
1043 68 4 -0.12 23.776699606397653 3.099296976358673 8.11447332346432 0 1 0
1047 68 7 0.06 24.557925503720476 3.4555840894363365 8.785913584987323 0 1 0
1726 95 7 0.06 27.228895507389655 7.463833657057273 2.802864086753534 -1 0 1
2124 111 7 0.06 26.883035930002457 2.6835209204603334 2.206678625164464 0 1 1
2097 110 7 0.06 24.827165741320723 8.013429255180192 2.996632872844617 0 0 1
571 41 7 0.06 28.457074979766166 3.2808109280602373 7.961867891421039 0 0 0
1722 95 7 0.06 29.61175709159609 8.250521344089673 3.3879358610282915 -1 0 1
2093 110 4 -0.12 24.451673832347478 8.731220837989444 2.2673404239667505 0 0 1
1776 97 7 0.06 4.09140017601807 10.016687247719835 4.872354976856817 0 0 0
1771 97 12 -0.18 5.118177070375556 9.826832188851 4.559671932134133 0 0 0
1770 97 7 0.06 7.630414439308161 9.858508097508658 3.8675468088838674 0 0 0
1772 97 7 0.06 5.504217523142744 10.72819306727101 2.6831360340301047 0 0 0
1762 97 4 -0.12 8.045907958129154 11.579148617779786 2.736404851361226 0 0 0
1775 97 7 0.06 5.59722067283522 9.80892536908617 5.5385912359693235 0 0 0
1768 97 4 -0.12 5.7988531810149455 10.960548023553354 3.7065066444100534 0 0 0
1759 97 4 -0.12 8.250430077370002 13.07774920007988 2.87993681679925 0 0 0
970 65 7 0.06 6.112506495349322 14.386872408188266 7.85054745938422 0 0 0
965 65 4 -0.12 6.9756863390523565 13.820850800603171 8.200728078845248 0 0 0
1765 97 4 -0.12 7.310803801038479 10.900413409876474 3.8867496202770706 0 0 0
1803 99 10 -0.22 5.059759257091972 15.054990904474582 4.373845302117012 0 0 0
968 65 4 -0.12 6.370690132054156 12.455740760377859 8.711831793635323 0 0 0
1769 97 7 0.06 7.60260625300884 11.33800921271476 4.841447306602179 0 0 0
969 65 7 0.06 7.611617275499848 13.640458759740437 7.334046483267301 0 0 0
976 65 7 0.06 6.167163857229652 11.9430129728118 6.652551711630075 0 0 0
1763 97 7 0.06 7.364510536636558 13.4569434067228 3.3892940090290047 0 0 0
1773 97 7 0.06 5.319439199708233 11.908756915535678 3.949711436924342 0 0 0
1806 99 4 -0.12 3.9939826743156672 14.796336313131228 5.515472187713458 0 0 0
1764 97 7 0.06 9.04126577914202 13.279454819658746 3.6024187068646434 0 0 0
1808 99 7 0.06 4.947400788154069 14.285975126631099 3.609596189185136 0 0 0
2208 115 7 0.06 3.9378900145737497 14.71767171352267 8.585151080516416 0 0 0
1810 99 7 0.06 3.5184683969307544 15.688647047882244 5.922601268067827 0 0 0
1813 99 7 0.06 2.9631230299839717 13.546510309700516 3.948645420004808 0 0 0
1809 99 4 -0.12 2.7788476301730607 13.876076119818435 4.9711498905303095 0 0 0
1807 99 7 0.06 6.072127879185176 15.080183406355573 4.777034528801538 0 0 0
966 65 7 0.06 7.893373465737149 15.63846432929649 8.863483584832162 0 0 0
1758 97 7 0.06 7.265405742489 15.458108136189551 2.1127894464581383 0 0 0
791 57 5 0.08 7.893854976544947 16.069200661686963 6.032785441260387 0 0 0
1811 99 7 0.06 4.594158336912246 14.322188798962232 6.292041397990677 0 0 0
2275 117 7 0.06 8.003943576636516 9.673474029558788 8.490130883139166 0 0 0
2271 117 12 -0.18 9.014735937258678 9.769184864222208 8.886646504147055 0 0 0
1766 97 7 0.06 9.068175515336012 11.203968314894393 2.6884967095038057 0 0 0
1817 99 7 0.06 3.2353124943708624 12.02805589439013 5.646730036723 0 0 0
1812 99 4 -0.12 2.4407174864710384 12.736999951250754 5.879331619850909 0 0 0
1816 99 7 0.06 2.486948220728668 13.180264017597379 6.874050742029147 0 0 0
971 65 12 -0.18 5.645841705547179 11.719934360515541 7.5834359881542275 0 0 0
974 65 7 0.06 5.526899592080428 10.671983179353234 7.85864042648577 0 0 0
975 65 7 0.06 4.6940940880509565 12.207880348737488 7.3732658233466974 0 0 0
1210 75 7 0.06 12.808281512261416 9.123748541090603 2.5429092072284036 0 0 1
2272 117 7 0.06 11.061795974120848 9.262703673231307 8.229639181527357 0 0 0
2268 117 4 -0.12 10.063620970556254 9.320601674405289 7.795610543856171 0 0 0
2269 117 7 0.06 10.89298832592899 9.900544764572594 5.84636330176278 0 0 0
2270 117 7 0.06 9.213292887618152 10.548310410312075 6.174378953756073 0 0 0
964 65 7 0.06 9.840007295133516 14.207487493505079 8.638606005741636 0 0 0
1213 75 7 0.06 13.87401604460837 11.0199546070675 4.626746165926675 0 0 1
2264 117 7 0.06 9.911027614210862 13.157620779884935 5.963575448491186 0 0 0
2263 117 7 0.06 10.675528835451441 12.036187314870855 4.89520019762652 0 0 0
2267 117 7 0.06 11.939764063382395 11.444108311462028 7.201353674254224 0 0 0
2265 117 4 -0.12 10.195427280962287 10.30506164552867 6.579753456588503 0 0 0
2262 117 4 -0.12 10.897485564038057 11.624261957448804 6.938130435840231 0 0 0
2266 117 7 0.06 10.392882595150875 12.18294307215323 7.726380174019567 0 0 0
2258 117 7 0.06 11.619971565342745 14.784722429764612 7.192699714485305 0 0 0
2259 117 4 -0.12 10.850095561644283 12.631745093908231 5.79126035152513 0 0 0
2256 117 4 -0.12 12.084781059233134 13.433349817326626 5.5268792142067 0 0 0
2253 117 10 -0.22 12.402689356359108 14.627818934766694 6.450526827279533 0 0 0
2260 117 7 0.06 12.979072290344206 12.810339863339152 5.513163270917962 0 0 0
2254 117 11 -0.8 14.385266568628913 15.286643033613965 7.594130168940464 0 0 0
185 14 3 0.35 15.176746506471984 15.866776810341971 6.179309085921564 0 0 0
2252 117 9 0.7 13.576916286542216 14.33572402033689 7.399698151758559 0 0 0
1209 75 4 -0.12 13.906867958833738 10.075183817344303 4.08414564795352 0 0 1
2261 117 7 0.06 11.930424195949827 13.771827031111725 4.502333690717661 0 0 0
2255 117 11 -0.8 13.549825420068833 13.258039499547863 7.982315896120455 0 0 0
2257 117 7 0.06 12.4468571250071 15.52277841343793 5.829895570420316 0 0 0
1211 75 7 0.06 11.78303991235445 10.260192249216008 3.55548526782765 0 0 1
1206 75 4 -0.12 12.746236493407762 10.068764226900198 3.082522196522177 0 0 1
1214 75 7 0.06 14.823090911331546 10.022177326663147 3.4960876934732177 0 0 1
175 13 5 0.08 14.29910936756503 10.290821939816315 8.523577445301076 0 0 0
187 14 3 0.35 15.651744408975087 16.01855493438535 4.540139047035895 0 0 0
1219 75 7 0.06 15.205210299945502 9.594364668372835 6.530941462314045 0 0 1
1955 105 11 -0.8 15.320698079045192 15.779057180874412 3.0542145787300408 0 0 1
243 18 3 0.35 15.447820288204918 15.49188851100133 8.891843891523745 0 0 0
1755 97 11 -0.8 10.464104034744903 15.832580835395142 2.4506909066395015 0 0 0
1207 75 7 0.06 12.821775350883058 12.130596215580535 2.522937222647014 0 0 1
1969 105 7 0.06 18.39194546132623 10.403411104061968 2.5090860758147793 0 0 1
194 14 8 0.13 16.554418743413812 14.023134557290195 6.963618257953536 0 0 0
1966 105 7 0.06 18.368641198342956 13.42647869801055 2.914930188821938 0 0 1
1975 105 7 0.06 20.555866284611383 9.600907543883174 4.024938567939223 0 0 1
193 14 7 0.06 17.780006642641307 14.568287664988226 4.655777548912028 0 0 0
196 14 8 0.13 18.154877235786017 14.335602820710966 7.701315557276365 0 0 0
1976 105 7 0.06 20.631598294538648 10.205049652639614 5.632874319928453 0 0 1
195 14 8 0.13 17.873172869670604 13.032750825028545 6.538987565984673 0 0 0
192 14 7 0.06 18.99005428168982 15.2387381945805 5.652373863915638 0 0 0
188 14 4 -0.12 17.920340410349567 15.03035940999169 5.632958483113219 0 0 0
191 14 6 -0.32 17.62890068679379 14.066027962906443 6.785474683773707 0 0 0
1316 79 7 0.06 20.6588929070826 14.306007784490028 7.307862189277257 0 0 0
1971 105 12 -0.18 19.952743065652857 10.093893321823561 4.787364846432682 0 0 1
1968 105 4 -0.12 19.550485810639394 11.384934850055588 4.167906308000194 0 0 1
1970 105 7 0.06 17.46371705951009 11.158860795624884 3.747921981110415 0 0 1
1972 105 7 0.06 19.31706111153966 12.15363176080469 4.904591049510916 0 0 1
1312 79 4 -0.12 21.48343284031253 15.016310596994973 7.368609209567629 0 0 0
1317 79 7 0.06 22.372259921424156 14.521979765286984 7.760667733080207 0 0 0
1965 105 4 -0.12 18.384670096129064 11.266395216068977 3.174887761281417 0 0 1
1974 105 7 0.06 19.108929169841435 9.485066027322752 5.112009067832437 0 0 1
1323 79 7 0.06 21.125034025755294 13.713407761342555 4.80529981907444 0 0 0
1589 90 7 0.06 20.038938726607217 9.205493001189105 8.558357848084981 0 0 0
1315 79 4 -0.12 21.89206078914091 15.403268796228913 5.927428153069586 0 0 0
1973 105 7 0.06 20.414315347979507 11.73255397167153 3.6012972124856635 0 0 1
1325 79 7 0.06 22.929982737118923 12.67752701715942 6.278189997230471 0 0 0
1583 90 7 0.06 18.663038610336855 10.935246156272639 8.462767626148267 0 0 0
1318 79 4 -0.12 22.080552950627936 14.201445586769026 4.997365168769544 0 0 0
1319 79 7 0.06 22.777577685988124 16.037402770835648 5.884763066782071 0 0 0
1322 79 7 0.06 22.3851620440147 14.670450440706373 4.061772208326548 0 0 0
1964 105 7 0.06 16.128293164733073 12.688551316367988 2.461546660635953 0 0 1
1588 90 7 0.06 21.34545197361241 10.241952431564641 8.506184964702795 0 0 0
1582 90 7 0.06 19.443435947732475 12.344990603542175 8.91263215752722 0 0 0
1962 105 4 -0.12 18.192637626988812 12.523965073107657 2.329628381011471 0 0 1
1320 79 7 0.06 21.20443047583791 16.04761768532871 5.379645802272099 0 0 0
2082 110 7 0.06 24.9129591048221 15.500016919445306 2.537342323410341 0 0 1
2091 110 7 0.06 26.79622368085028 10.362813045576782 2.354252114183947 0 0 1
1824 99 7 0.06 26.67504331852462 10.667584037842493 5.616395016408793 -1 0 0
1826 99 7 0.06 27.680359702726292 9.272555308330968 6.164707869977901 -1 0 0
1821 99 12 -0.18 27.643050388103156 10.171111238445892 5.548841326057277 -1 0 0
1825 99 7 0.06 27.85294493657594 9.85007257607349 4.5285644721444225 -1 0 0
1814 99 7 0.06 29.86144759240805 14.526538165447219 4.866530572811786 -1 0 0
2089 110 7 0.06 27.091539746359388 12.624497813452066 3.168665247700326 0 0 1
1820 99 7 0.06 28.226015234429692 13.064120286819954 5.852010964077843 -1 0 0
2088 110 7 0.06 25.69798871202003 12.086221339490562 3.997934139109182 0 0 1
1321 79 12 -0.18 23.195097693579704 13.20185916196466 5.360107057548783 0 0 0
1326 79 7 0.06 23.401348603149177 12.483523789071155 4.566670680588538 0 0 0
1819 99 7 0.06 28.964520176381075 12.180062438074295 4.515443083496415 -1 0 0
1815 99 4 -0.12 28.991620274402884 12.332287370272436 5.594414615958472 -1 0 0
1818 99 4 -0.12 28.7119890089068 10.95935456371499 6.195024077268568 -1 0 0
2083 110 7 0.06 25.478022789189158 14.845835655565677 4.063259156085179 0 0 1
2078 110 10 -0.22 25.677409642587154 14.869894307369384 2.9919270751319633 0 0 1
1823 99 7 0.06 29.583583400571232 10.350758032621933 6.43589731142421 -1 0 0
1822 99 7 0.06 28.296252891671603 11.263998742234376 7.155462436246281 -1 0 0
2077 110 9 0.7 26.935160315200182 15.499624214474121 2.555332049017587 0 0 1
1324 79 7 0.06 24.082768654255947 13.81315494964573 5.522723639695744 0 0 0
623 45 5 0.08 28.15877834366477 15.090809112774235 7.477382440471878 0 0 0
626 45 7 0.06 26.18465733366134 15.153396177612148 6.321877291490564 0 0 0
1074 69 7 0.06 24.014192029703523 11.553524866462707 7.8229380788693454 0 0 0
628 45 8 0.13 24.252645858529334 15.699649442027757 7.800933214736951 0 0 0
625 45 6 -0.32 25.287948278836463 15.8231926947223 8.118694693936249 0 0 0
2084 110 4 -0.12 26.051708958403303 12.344614300968567 2.9998352045998082 0 0 1
629 45 8 0.13 25.521671939626078 14.943351300890768 8.71814344652169 0 0 0
1071 69 12 -0.18 24.32153220887434 11.48510758116365 8.866464527433259 0 0 0
1075 69 7 0.06 25.395875916635585 11.331833785987028 8.968342657667788 0 0 0
622 45 4 -0.12 26.25883366661849 16.06641279954853 6.912626764898597 0 0 0
618 45 2 0.2 27.775419861466652 16.029855127751567 7.078239268586444 0 0 0
2095 110 7 0.06 24.723239534271354 10.1413525667784 3.732154956802666 0 0 1
2094 110 7 0.06 23.76731808535966 10.825429189091391 2.460265975261789 0 0 1
2087 110 4 -0.12 25.937926506930875 11.024900372935587 2.2400036032365684 0 0 1
2081 110 4 -0.12 25.31515394969361 13.564034871438448 2.344623354982739 0 0 1
2090 110 4 -0.12 24.66710747392522 10.23959410474358 2.648049696860122 0 0 1
2086 110 7 0.06 24.245602994528273 13.402763894585707 2.4793037386516845 0 0 1
1804 99 11 -0.8 4.598563349628374 16.414465937363268 2.442402735072067 0 0 0
396 29 3 0.35 4.566808173394468 19.7202899804787 2.227219618587857 0 0 0
792 57 5 0.08 7.028767958225006 17.3213850736946 6.974350712526769 0 0 0
786 57 2 0.2 7.836707305351718 17.132063012683936 6.267613413453874 0 0 0
393 29 1 -0.48 5.493232810728182 19.393453788708626 2.4617533046508084 0 0 0
1805 99 11 -0.8 5.047598956908722 17.48399013337139 4.3437863320285 0 0 0
1802 99 9 0.7 4.903544954727696 16.44127007477226 3.663822762438347 0 0 0
73 6 3 0.35 4.638033843236051 19.47145497160161 6.510278374651769 1 0 0
71 6 1 -0.48 3.8642786117858856 18.897140202244014 6.207699819091917 1 0 0
75 6 3 0.35 4.301052578780769 18.310539622818737 5.511124572134913 1 0 0
74 6 3 0.35 3.437356388634687 18.3940707923387 6.972387576297027 1 0 0
1479 86 11 -0.8 5.8377923409618475 20.767560221046907 7.129248738931558 0 0 0
788 57 3 0.35 6.62409263920482 17.837442862025767 4.832580655625078 0 0 0
1477 86 9 0.7 6.466523282671744 20.9201120245417 6.096909647062541 0 0 0
1480 86 11 -0.8 6.342857471707683 20.116353156807833 5.089426106064863 0 0 0
785 57 1 -0.48 7.591944250745667 17.886183693874173 5.117143746183986 0 0 0
395 29 3 0.35 5.865904244987403 19.807274876520363 3.3043424832665145 0 0 0
789 57 3 0.35 7.609133806352274 18.87303973299095 5.331405267664859 0 0 0
80 6 7 0.06 3.698263738232784 21.607369649296857 6.468979145148865 1 0 0
1478 86 10 -0.22 7.457302897159225 21.988248979433322 5.975769695535366 0 0 0
1483 86 7 0.06 8.389558417262789 21.783373460318856 6.5020890841462675 0 0 0
787 57 3 0.35 8.150507130108771 17.722425264610862 4.291746441738734 0 0 0
397 29 3 0.35 5.287207993860731 18.426980199669675 2.670489966447069 0 0 0
1482 86 7 0.06 7.859582782832093 22.04131386375221 4.964116869665499 0 0 0
76 6 4 -0.12 2.751257083463016 21.069119600513794 6.429587788054915 1 0 0
72 6 2 0.2 2.958374624714711 19.774777968925275 5.586027357721402 1 0 0
78 6 5 0.08 3.340857881485679 20.044523120415842 4.60163386867962 1 0 0
81 6 7 0.06 2.421769500260483 20.8847819526266 7.452106225385907 1 0 0
84 6 8 0.13 2.2136642458521543 22.22543385620794 4.710853125315561 1 0 0
1488 86 7 0.06 5.28638827134804 23.025652209541892 4.856774264223373 0 0 0
404 29 8 0.13 7.777506210673605 21.226343893066257 2.8588958175353802 0 0 0
1754 97 11 -0.8 8.868449424718488 17.234005701546707 3.0417129901159226 0 0 0
2205 115 11 -0.8 2.8568560104978027 17.30054854931503 8.077850242781835 0 0 0
747 54 3 0.35 6.15628327589416 20.19950058431506 8.74696845576165 0 0 0
2202 115 9 0.7 3.8603448060726446 16.820828387603704 8.613885608465246 0 0 0
2204 115 11 -0.8 4.805694731918663 17.58373403565986 8.772404865468975 0 0 0
425 31 3 0.35 2.473203662423801 16.604332550689108 2.2360239683407466 1 0 0
677 49 3 0.35 13.503976778856039 16.446848614353847 3.0521937160868227 0 0 0
1752 97 9 0.7 9.280937105560675 16.222583364384544 2.4259740273418946 0 0 0
795 57 7 0.06 9.137346601742234 18.594406601419614 7.147593925585934 0 0 0
790 57 4 -0.12 9.14100190799666 17.513353847610965 7.008317215762845 0 0 0
794 57 7 0.06 9.19036596629411 17.12679177173627 8.026265818899827 0 0 0
683 49 7 0.06 14.314368934360939 19.340214940930768 3.250694073826012 0 0 0
183 14 1 -0.48 15.767664164779818 16.320068089454754 5.497083242146158 0 0 0
797 57 8 0.13 11.325880904548587 16.907915709573004 6.962495844410704 0 0 0
796 57 8 0.13 10.872661053201536 18.005941277104128 5.647743857284957 0 0 0
676 49 3 0.35 11.893695535475482 16.547258241032665 3.4277118074226465 0 0 0
793 57 6 -0.32 10.523546616035713 17.190229464703926 6.28084711071087 0 0 0
798 57 8 0.13 10.396246175104919 16.370850098688038 5.573387968205586 0 0 0
1979 106 11 -0.8 13.884281148045174 18.30755264568866 5.476166173141495 0 0 0
1984 106 4 -0.12 12.40384987214014 22.467829777644532 5.627502538361787 0 0 0
675 49 3 0.35 13.205069343579803 17.24541387022947 4.282695617447699 0 0 0
1977 106 9 0.7 14.346737502137827 19.110852570321267 6.320717631621604 0 0 0
673 49 1 -0.48 12.768983349389172 17.049998780552485 3.392903214036348 0 0 0
1983 106 7 0.06 12.875151666357675 20.262507658961738 7.427258809969872 0 0 0
1978 106 10 -0.22 13.559039794458235 20.465667654532194 6.603177814373375 0 0 0
1981 106 4 -0.12 12.77015367221558 21.00122466694483 5.4568098291357074 0 0 0
1985 106 7 0.06 11.960691819804557 20.30260664583767 5.245171594856588 0 0 0
1986 106 7 0.06 13.4156369811308 21.0124797242337 4.578566690448894 0 0 0
1982 106 7 0.06 14.362967230749243 21.087018839390474 6.9977785151116905 0 0 0
1989 106 7 0.06 12.023544845866446 22.55973767159004 6.644855657842617 0 0 0
186 14 3 0.35 15.473441297460576 17.285811707847444 5.526419616335994 0 0 0
1980 106 11 -0.8 15.479330330768764 19.0055362646467 6.79964182741994 0 0 0
679 49 5 0.08 11.99307261769871 18.866906849105487 3.2049698915701708 0 0 0
1991 106 7 0.06 10.3699856728353 22.25090034510579 4.645769695382135 0 0 0
1292 78 7 0.06 15.416494925261786 22.176715675117016 3.8119231964583995 0 0 0
1987 106 4 -0.12 11.276313533469661 22.853120164235055 4.582622849428104 0 0 0
251 18 8 0.13 14.301403652741842 17.46061181866409 9.073725724352174 0 0 0
1288 78 7 0.06 15.702370985459494 22.879651742364448 6.134014359117959 0 0 0
1992 106 7 0.06 11.7064988135541 22.93438538576433 3.584412951590842 0 0 0
1398 82 7 0.06 9.331322009040601 22.64622770026157 8.852827300205057 0 0 0
678 49 4 -0.12 13.967447928575833 18.894511539822812 2.318449134488887 0 0 0
674 49 2 0.2 12.581317793224445 18.22023467832654 2.5539176049695778 0 0 0
1395 82 7 0.06 11.540217399303263 21.66277705903402 8.989958275345014 0 0 0
682 49 7 0.06 14.825740158331785 18.234243894549255 2.1940807086189054 0 0 0
1299 78 7 0.06 19.04298812083949 19.078617938022973 2.1011719911228646 0 0 0
184 14 2 0.2 17.185982379305482 16.37901814455178 5.823138682549706 0 0 0
1314 79 7 0.06 20.088204314261162 16.569526997776364 7.889456767055808 0 0 0
1309 79 4 -0.12 21.017763083007132 16.155081413073635 8.279638495255021 0 0 0
189 14 5 0.08 17.25316671491853 16.761872871627677 6.841468179850408 0 0 0
1300 78 7 0.06 19.44586502105098 19.511960230327567 3.827206793089723 0 0 0
353 26 3 0.35 16.653711047564435 19.029783407205645 8.02707410243308 0 0 0
1287 78 4 -0.12 16.418408254514304 22.507580424780464 4.085390989019102 0 0 0
1294 78 7 0.06 16.762402859668597 20.579655412507226 4.930546895706543 0 0 0
190 14 5 0.08 17.656063159048507 17.187471374054546 5.26321559257037 0 0 0
1313 79 7 0.06 21.82340878733954 16.88845772855705 8.24527895497006 0 0 0
1296 78 12 -0.18 18.66645437404311 19.26143105389658 3.1075954179534833 0 0 0
1293 78 4 -0.12 17.68403712289252 20.422066561020674 3.0183392837237317 0 0 0
1290 78 4 -0.12 17.36736373592347 21.23813893585439 4.307242646695576 0 0 0
359 26 6 -0.32 20.616623018131897 20.54087358393981 6.645769567385786 0 0 0
1295 78 7 0.06 18.268163424656944 21.611966652576772 4.793965569661144 0 0 0
364 26 8 0.13 20.86547417946353 19.845506825469553 5.844130860774893 0 0 0
363 26 8 0.13 21.50861079420383 21.143535390782638 6.81677531872475 0 0 0
352 26 2 0.2 18.446495384816153 19.532999741277226 7.320949611523986 0 0 0
357 26 5 0.08 18.1134415445343 20.466976583364797 6.868347312961906 0 0 0
351 26 1 -0.48 17.602972100585962 19.096244842200054 8.365563628051408 0 0 0
358 26 5 0.08 18.465790341700856 18.734615985574212 6.579129288277588 0 0 0
362 26 8 0.13 20.02423338475518 21.293220821572945 6.12506379005398 0 0 0
356 26 4 -0.12 19.851327411809425 19.88403524632664 7.793983382522616 0 0 0
610 44 5 0.08 18.235364202342577 22.654829591634194 8.330312799139666 0 0 0
361 26 7 0.06 19.643295733587422 20.709959472340312 8.474173362306837 0 0 0
1407 83 7 0.06 19.72618373462718 22.794247149107587 3.30811816869318 0 0 1
278 20 8 0.13 22.60413550312231 19.158467230593196 3.5168956627146084 0 0 0
360 26 7 0.06 20.43902598351468 19.16407809513252 8.363508115520473 0 0 0
354 26 3 0.35 17.897653950662473 18.208328949301706 8.746164872810114 0 0 0
1297 78 7 0.06 18.27020957994636 20.964065888959727 2.276230842823222 0 0 0
1411 83 7 0.06 21.8588228800854 22.21392328201151 2.629086792793076 0 0 1
1301 78 7 0.06 18.094940979263864 18.387402725434516 3.419898619527169 0 0 0
1298 78 7 0.06 16.83414453419997 20.026189703340535 2.462416215575578 0 0 0
77 6 5 0.08 29.968452264120305 19.246617093353393 5.431487974157754 0 0 0
79 6 6 -0.32 29.73009837030981 21.883176241354505 5.650074976990863 0 0 0
279 20 8 0.13 23.705647313977636 20.47413335922802 3.073906308574329 0 0 0
273 20 5 0.08 26.180609093476978 18.996552480210383 2.2729950124278187 0 0 0
275 20 6 -0.32 23.575532690513576 19.39195708045625 3.0810557949837145 0 0 0
2079 110 11 -0.8 27.43192711745656 16.253044389858324 3.3849990690531193 0 0 1
624 45 5 0.08 28.32230380379061 16.312609923978087 6.178764912302004 0 0 0
627 45 7 0.06 25.95816547361358 16.961792169509373 6.368585745428342 0 0 0
274 20 5 0.08 26.255613031400323 20.396603003542786 3.2693865594565326 0 0 0
619 45 3 0.35 29.10704907012108 16.993405581246908 8.086141530158532 0 0 0
271 20 3 0.35 28.02613666823913 19.24624881994476 3.5995815423737065 0 0 0
617 45 1 -0.48 28.09751307219567 17.02339731755888 8.081036203975708 0 0 0
620 45 3 0.35 27.76430546607421 17.96590917315546 7.937048032930834 0 0 0
930 64 11 -0.8 28.049722363894578 19.87106336915094 8.179399219023821 0 0 0
270 20 3 0.35 27.327235062256868 17.786670951300792 3.7750074705602557 0 0 0
929 64 11 -0.8 26.877375071692146 19.316488622059918 6.470967983696824 0 0 0
927 64 9 0.7 27.18291328555635 20.149405527351956 7.398716030763725 0 0 0
269 20 3 0.35 27.145760651583522 18.943991543732583 4.982751417402282 0 0 0
267 20 1 -0.48 27.2274837436976 18.7681231441239 3.9915492661639638 0 0 0
272 20 4 -0.12 24.720075070627868 18.966193349351162 3.925107735359874 0 0 0
928 64 10 -0.22 26.286799589707883 21.340057453996955 7.579575127620796 0 0 0
932 64 7 0.06 25.63310683010922 21.484714383856257 6.719431774676766 0 0 0
933 64 7 0.06 26.92012423309603 22.21530422593522 7.434905129286685 0 0 0
268 20 2 0.2 26.08288266996399 19.32110985705257 3.3089479480192883 0 0 0
276 20 7 0.06 24.68707296131158 19.594259054664064 4.81534965223258 0 0 0
82 6 8 0.13 28.798298738610917 21.359723656824617 5.435987976736702 0 0 0
277 20 7 0.06 24.69438209317584 17.9095988884772 4.191630523666247 0 0 0
1004 67 11 -0.8 29.090098023270283 19.969446527369946 2.81166285518695 0 0 0
83 6 8 0.13 29.477498426822113 22.799801263744904 6.183064857609446 0 0 0
630 45 8 0.13 25.2282150097702 16.592326645070067 8.888728027812345 0 0 0
939 64 7 0.06 23.52058159960369 21.047395966282956 7.912278207529412 0 0 0
931 64 4 -0.12 25.492513109796633 21.20063020534609 8.928790502868448 0 0 0
934 64 4 -0.12 24.160326289143534 20.514367058383076 8.615622533773985 0 0 0
938 64 7 0.06 24.398562306839217 19.559244767240127 8.147571902985199 0 0 0
621 45 3 0.35 27.728731654247916 16.816254451711647 8.998195894359966 0 0 0
423 31 3 0.35 29.818224762403666 18.136903936454452 2.449526802097063 0 0 0
1002 67 9 0.7 29.953427128165348 20.594795020895052 2.1123163511814873 0 0 0
1184 74 4 -0.12 6.5598855617092635 29.978162224360904 2.801038524829949 0 -1 0
1486 86 7 0.06 6.517552970293847 23.397080467362315 7.2372239503533375 0 0 0
1481 86 4 -0.12 6.918462189044313 23.44680775042823 6.224857692168337 0 0 0
1189 74 7 0.06 6.3214395357562125 29.925462518815593 3.863325050024525 0 -1 0
2155 113 11 -0.8 5.230527003387357 29.552502868373168 7.600157687483676 0 -1 0
2158 113 7 0.06 7.518356765827445 28.986119444346087 6.894964968616047 0 -1 0
1493 86 4 -0.12 3.5404478832034636 26.8596150339131 4.521175914828776 0 0 0
1489 86 7 0.06 6.463850121786102 23.981573358004198 4.085114467059842 0 0 0
1485 86 7 0.06 7.747614784022144 24.153749731576475 6.253586698861405 0 0 0
1487 86 4 -0.12 5.032566027537131 24.92813976423868 5.494327028982662 0 0 0
1484 86 4 -0.12 5.994498963180517 23.829728525800974 5.057091344061721 0 0 0
1490 86 4 -0.12 4.41563024470964 25.645594180738026 4.264113654423952 0 0 0
1492 86 7 0.06 4.330368632657011 24.540582507961958 6.232435815217452 0 0 0
1491 86 7 0.06 5.704242893055435 25.637038814498254 5.978474470745562 0 0 0
867 61 7 0.06 3.3002684564733547 25.538356563067257 8.081177443340554 1 0 0
1497 86 7 0.06 4.170538225583483 27.46058047458378 5.176853537411173 0 0 0
1495 86 7 0.06 5.20792985567971 26.035772554524847 3.6252799345220224 0 0 0
1494 86 7 0.06 3.8215646991176895 24.980996206908326 3.63683215139036 0 0 0
866 61 7 0.06 2.7056994905762766 23.849472026727582 8.059792044764706 1 0 0
862 61 4 -0.12 2.748705283861516 24.77632520401806 8.631788656899303 1 0 0
1498 86 7 0.06 2.6607313625805213 26.623497351006502 5.119869196687028 0 0 0
1496 86 12 -0.18 3.164921089116601 27.522457785306514 3.13557083737498 0 0 0
1500 86 7 0.06 2.5692459927164433 26.87457228774689 2.4925296323287056 0 0 0
1501 86 7 0.06 2.4067633306525678 28.291457233834613 3.283635130472253 0 0 0
2001 106 7 0.06 8.961956739900387 25.93041771765877 5.58820438363504 0 0 0
1195 74 7 0.06 8.94163604426653 29.78574361890163 4.547746591770636 0 -1 0
2000 106 7 0.06 8.313041468597568 26.45880904956669 4.016684293887668 0 0 0
1499 86 7 0.06 4.018062274129672 28.009832434007865 2.663657206191302 0 0 0
1190 74 4 -0.12 9.053923333560125 29.596454948615637 3.480203718539578 0 -1 0
1997 106 7 0.06 8.970060910832732 24.097486527816624 3.8369816995039736 0 0 0
568 41 5 0.08 2.1235323646670743 29.166173968958343 8.590701108319902 1 -1 0
1188 74 7 0.06 6.405508047952367 28.930245222115165 2.543892688346844 0 -1 0
1194 74 7 0.06 8.968598546391066 28.5432929511403 3.2125178268491332 0 -1 0
1792 98 7 0.06 16.006697014541736 29.92998727853176 4.569334822492709 0 0 1
726 52 8 0.13 13.392264625131327 25.60071498783271 2.560154034798898 0 0 1
1201 74 7 0.06 12.121164648255846 28.746198248394947 3.6337001981176593 0 -1 0
723 52 6 -0.32 14.227653680917951 26.230543736258372 2.2543318467352376 0 0 1
1988 106 7 0.06 13.194951007051133 23.21218278474169 5.537036969453835 0 0 0
1401 82 7 0.06 9.866225402094413 24.972411213972123 8.410951646145223 0 0 0
1125 71 7 0.06 10.867732023625104 28.017366171603275 6.682346693075482 0 -1 0
2160 113 7 0.06 9.561836570107484 29.760503234563956 7.300766564852135 0 -1 0
1400 82 7 0.06 11.275123069627798 24.148013120332127 8.170246510824903 0 0 0
1996 106 12 -0.18 9.197633033191867 26.09026418289897 4.536067414734192 0 0 0
1999 106 7 0.06 9.92885960935564 26.8875478806385 4.402902694422308 0 0 0
1286 78 7 0.06 14.707631489260967 24.36566449190766 4.475438012583819 0 0 0
1200 74 7 0.06 11.358408716346204 29.58890163377551 5.0023520289176915 0 -1 0
1196 74 12 -0.18 11.660224524090538 29.67888170047138 3.9588496406861045 0 -1 0
1998 106 7 0.06 10.160896263785734 24.910609372414005 2.8824424352779943 0 0 0
1283 78 7 0.06 14.71419374760397 25.002232898734224 6.8842795098168645 0 0 0
1994 106 7 0.06 11.779485560402144 24.88696889906602 4.7012058684474205 0 0 0
1990 106 4 -0.12 10.84927199399167 24.338796810438133 4.850525989238179 0 0 0
1995 106 7 0.06 10.599469780063417 24.3234989477101 5.911398824947469 0 0 0
1993 106 4 -0.12 9.795508218870403 24.806165469153186 3.904043855803128 0 0 0
1282 78 7 0.06 14.68475905145255 26.38473270504222 5.689838881377018 0 0 0
1124 71 7 0.06 11.080634413575307 26.24925308191982 7.30524445852684 0 -1 0
1121 71 12 -0.18 11.468421551118196 27.26112524974555 7.187676474392719 0 -1 0
1126 71 7 0.06 12.155110718313935 27.15887683062794 6.347385071441236 0 -1 0
1278 78 10 -0.22 15.26047827803409 25.571933257216273 6.132547430568167 0 0 0
1118 71 4 -0.12 12.279890196114659 27.77399481864695 8.394680270492092 0 -1 0
1123 71 7 0.06 13.055828295752535 28.4201916307517 7.9842705120532536 0 -1 0
1122 71 7 0.06 12.837498530159436 26.91430392673852 8.766286108176336 0 -1 0
1281 78 4 -0.12 15.667174669650738 24.609564668865897 4.931372151554783 0 0 0
727 52 8 0.13 14.550628492602046 26.626101285918292 3.217300130903134 0 0 1
1396 82 12 -0.18 10.554421499384667 24.33515601416312 8.966269845470247 0 0 0
1786 98 7 0.06 14.798630905913775 29.225237343692086 2.1698859328390085 0 0 1
1403 83 10 -0.22 20.224027891496 23.573095394355573 2.7305084594874325 0 0 1
613 44 7 0.06 20.834567635691595 23.168674954474486 8.296945706268609 0 0 0
1291 78 7 0.06 16.756767227506373 23.07472348597026 3.2182414155803825 0 0 0
1284 78 4 -0.12 16.33230456997837 23.331566652559367 5.3678270738076925 0 0 0
1289 78 7 0.06 17.32435054596001 23.514584916074334 5.780665440741309 0 0 0
1285 78 7 0.06 16.285467703614124 25.036268645916408 4.141610234415287 0 0 0
224 16 8 0.13 21.180842267440966 29.722384012939468 4.272672094078718 0 0 1
222 16 8 0.13 22.158510514301675 29.246626164636915 2.899994619612938 0 0 1
1082 70 7 0.06 23.006830913394225 24.618029008051067 7.335441392231459 0 0 1
1277 78 9 0.7 16.410360479581822 26.34140806296473 6.764522070130163 0 0 0
1408 83 7 0.06 20.55759436351674 24.37223044787033 3.39247748906582 0 0 1
1280 78 11 -0.8 16.611124229180696 26.155868214662085 7.988514521161395 0 0 0
221 16 7 0.06 21.415279380842865 27.30541400017122 4.191593112541297 0 0 1
609 44 5 0.08 18.825805615795776 24.048416257886824 7.475016955243458 0 0 0
1279 78 11 -0.8 16.938348977060798 27.178213514433672 6.039451531409729 0 0 0
218 16 5 0.08 18.548254199567314 28.244122132719937 3.6300693038228435 0 0 1
214 16 3 0.35 18.89506530832403 25.921296820006514 3.82888756941595 0 0 1
213 16 3 0.35 18.16726642455203 26.473285621892426 5.105287999716325 0 0 1
211 16 1 -0.48 19.076903409948645 26.455169699235274 4.666743956963949 0 0 1
212 16 2 0.2 19.343217894072772 27.800752943758962 4.229688276432087 0 0 1
217 16 5 0.08 19.464235448472987 28.378911724956925 5.145752430978219 0 0 1
215 16 3 0.35 19.819438415291344 26.035684455037305 5.207819315792681 0 0 1
1079 70 11 -0.8 21.186258716957234 27.264111030763 6.660205372060382 0 0 1
1077 70 9 0.7 21.551416751083284 26.07771766283863 6.638147091591168 0 0 1
1080 70 11 -0.8 20.7816208208795 25.13353429669688 6.454343117749101 0 0 1
144 11 3 0.35 19.757177198841163 27.302951740587798 7.82151315990901 0 0 0
143 11 3 0.35 18.20439237242581 26.95360003507205 7.881734477698585 0 0 0
219 16 6 -0.32 21.144838442239717 29.23101267171186 3.3003838844987863 0 0 1
216 16 4 -0.12 20.692561690322055 27.791798023446734 3.536462478532165 0 0 1
147 11 5 0.08 18.39741446883618 29.404905580565902 7.826713851692074 0 0 0
142 11 2 0.2 18.692532154202794 28.820129149344755 8.697936259193764 0 0 0
141 11 1 -0.48 18.93736883163053 27.415868786985982 8.400523086184783 0 0 0
1078 70 10 -0.22 22.96316695789632 25.6522962768824 6.99416283007307 0 0 1
220 16 7 0.06 20.65983943981738 27.297713471879742 2.5654340996448037 0 0 1
604 44 2 0.2 18.755152649750862 23.603051336885386 8.467359970041514 0 0 0
1088 70 7 0.06 22.751759601528615 24.954766979461144 4.321823601079783 0 0 1
607 44 3 0.35 17.326224559015234 25.088002689180147 8.866204075648593 0 0 0
1404 83 11 -0.8 18.47615679146464 25.1482285601283 2.4334966005200274 0 0 1
223 16 8 0.13 20.537010117813736 29.86758045041798 2.657412210605771 0 0 1
608 44 4 -0.12 20.142537052009644 23.58996403825323 9.026120302334334 0 0 0
612 44 7 0.06 20.47769559592948 24.626846439345226 9.051221489916156 0 0 0
1051 68 7 0.06 23.683644847917392 29.81996216048237 6.23131647523424 0 0 0
2121 111 12 -0.18 27.038673233328893 29.55608694345121 2.237350521934435 0 0 1
1099 70 7 0.06 29.093959194783192 23.949750583649788 2.6872642581934123 0 0 1
1098 70 7 0.06 26.731871446393946 23.814149333825895 2.3633250341207184 0 0 1
1041 68 7 0.06 23.19748486586399 28.46842416277456 8.67437910603613 0 0 0
1050 68 7 0.06 24.673743393121686 29.147943238811592 7.467882591138139 0 0 0
1083 70 7 0.06 23.13704189495973 26.278141199675325 7.869475372133472 0 0 1
2125 111 7 0.06 26.61871130719292 29.26011039083092 3.1986601897377547 0 0 1
873 61 7 0.06 29.40493880190543 26.562021830464563 7.108579433234685 0 0 0
868 61 4 -0.12 28.64357017684493 25.899486339648476 7.520223605844283 0 0 0
872 61 7 0.06 28.46112834064642 25.110991244622905 6.790102447416165 0 0 0
1100 70 7 0.06 29.04425490979527 25.37389962923657 3.5860231031271965 0 0 1
1084 70 4 -0.12 23.77142958399148 24.793243120575188 4.6714941455005725 0 0 1
1089 70 7 0.06 23.882657535175184 23.753492396571552 4.979119181051393 0 0 1
1081 70 4 -0.12 23.951281787982317 25.796096666506465 5.7874723489603195 0 0 1
1086 70 7 0.06 23.809208551367583 26.768721032844123 5.316406028625835 0 0 1
874 61 7 0.06 26.5490250497872 26.00158631001471 8.137882200182814 0 0 0
1096 70 12 -0.18 28.440152632970875 24.49278927951362 3.3697100911695923 0 0 1
1085 70 7 0.06 24.978839177628863 25.873402858094416 6.142769392222181 0 0 1
1091 70 7 0.06 24.33074532655208 26.297812002647234 3.312616274013145 0 0 1
1094 70 7 0.06 26.32713835143874 24.6871061325403 4.730043527709948 0 0 1
1092 70 7 0.06 24.532053454359776 24.708625852231833 2.659281216999653 0 0 1
1087 70 4 -0.12 24.69672404919375 25.301150541911564 3.5592170572190396 0 0 1
1090 70 4 -0.12 26.163021531600435 25.312098409491306 3.8522413022664086 0 0 1
871 61 12 -0.18 27.374361815188074 26.641233087323787 7.825220012851355 0 0 0
1093 70 4 -0.12 27.03440433061298 24.77993291344035 2.768074747541524 0 0 1
876 61 7 0.06 27.108623197891614 27.17370384500671 6.9120145324714315 0 0 0
1095 70 7 0.06 26.519082707473768 26.32669559474752 4.030845341376657 0 0 1
875 61 7 0.06 27.31497380595593 27.353678145267544 8.648008889866478 0 0 0
1101 70 7 0.06 28.387459641667203 23.78092442730597 4.193456588476084 0 0 1
865 61 4 -0.12 29.290877921565585 25.270766935701385 8.78562789467345 0 0 0
2126 111 7 0.06 28.08595584569776 29.260133619973438 2.2981546350139372 0 0 1
476 34 8 0.13 4.137442421453728 3.0285642326885487 14.987640652297095 0 1 0
166 12 8 0.13 7.242251551606312 5.209086898253091 14.765434421267116 0 0 0
160 12 4 -0.12 7.48876626152807 7.251980179618003 15.479512486292684 0 0 0
456 33 5 0.08 5.2453839239249085 7.435627943965195 9.590427613115684 1 0 0
167 12 8 0.13 5.692475858192003 6.198274591716849 14.71082118919014 0 0 0
565 41 3 0.35 3.6130553169335338 3.521758602988344 9.911497443611388 1 0 0
449 33 1 -0.48 5.896989819989325 5.5835292553893785 9.6442638437746 1 0 0
453 33 3 0.35 5.069130992815498 5.320651042462105 10.159660326836352 1 0 0
1855 101 11 -0.8 3.76145416699695 4.711827492747525 10.892144877912623 0 0 0
1852 101 9 0.7 3.772880821488946 4.573195840355909 12.116720965453966 0 0 0
452 33 3 0.35 6.605048301597275 5.660457271849003 10.360381122213832 1 0 0
115 9 3 0.35 7.554237089064399 4.198926446450599 12.245195664164006 0 0 0
113 9 1 -0.48 7.257015151383611 3.2756568991532715 12.526835274980968 0 0 0
116 9 3 0.35 6.276127233237507 3.3312642740272986 12.761047053560622 0 0 0
1854 101 11 -0.8 4.5296990361833105 3.7926456098748718 12.69992982549863 0 0 0
1853 101 10 -0.22 2.806405651607057 5.4632658404497505 12.916338348586358 0 0 0
1857 101 7 0.06 3.4770010954369805 6.201381951739344 13.356307415627334 0 0 0
1860 101 7 0.06 2.281695647888949 6.55934923791209 11.355851299624565 0 0 0
163 12 6 -0.32 6.779940942984691 6.187836754153512 14.63735616300875 0 0 0
117 9 3 0.35 7.90462141017371 3.1409699070875763 13.290088415356047 0 0 0
2130 112 11 -0.8 7.895537693919588 5.825379405554322 11.463934309823584 0 0 0
1858 101 7 0.06 2.406222710055239 4.784106473614797 13.669121551211923 0 0 0
120 9 5 0.08 6.86640277405966 2.47179725016332 10.60114623717882 0 0 0
114 9 2 0.2 7.481907971756653 2.4013972966049835 11.497964798822954 0 0 0
168 12 8 0.13 6.8048345735999725 6.287722636622771 13.552234275414065 0 0 0
712 51 8 0.13 6.32440114784089 8.604843442261982 12.38848233548061 0 0 0
2129 112 11 -0.8 8.490394148723126 7.843607928532504 11.772034018392521 0 0 0
2127 112 9 0.7 8.765531909078135 6.706280634144648 11.458946262533303 0 0 0
119 9 5 0.08 8.524649585531197 2.4200932564222635 11.181063070957036 0 0 0
164 12 7 0.06 7.195692461649374 8.204527757960019 15.038097389701496 0 0 0
561 41 1 -0.48 3.4316467268013 2.596777252316703 9.54874415303539 1 0 0
713 51 8 0.13 4.919789887642985 8.714084444112004 13.445537058369258 0 0 0
156 12 2 0.2 9.033987639881381 7.146048906891509 15.21008407041237 0 0 0
2224 115 7 0.06 2.130148049896682 8.71773463039625 11.019112882925343 0 0 0
471 34 6 -0.32 4.203988833434895 3.1995785836310056 16.062076362426303 0 1 0
2174 113 7 0.06 13.26443432403176 3.7134356884885857 9.281697683116585 0 0 0
1827 100 9 0.7 13.065682931726075 8.483435468391692 15.926496180544595 0 0 0
155 12 1 -0.48 9.637175104366944 8.334198852681302 15.817262816677207 0 0 0
1104 71 11 -0.8 9.099147166670594 2.8664278245190795 14.237379564265968 0 0 0
162 12 5 0.08 9.275442062403254 7.055763808740228 14.151011461643723 0 0 0
1833 100 7 0.06 14.469004361209267 7.315470175689065 15.3341513462701 0 0 0
1836 100 7 0.06 12.161699823373695 6.162815575347834 15.273788916926248 0 0 0
2132 112 7 0.06 10.244431160932786 6.975798574878478 9.96423464813833 0 0 0
2128 112 10 -0.22 10.099209484395875 6.325873218275789 10.82713328322376 0 0 0
2133 112 7 0.06 10.106061649647597 5.276443959023283 10.532620621852914 0 0 0
2131 112 4 -0.12 11.224458176378631 6.573756202135297 11.817583948616809 0 0 0
2135 112 7 0.06 10.840919845975376 6.2275093327663305 12.77732240123625 0 0 0
2136 112 7 0.06 11.357941833124931 7.654230904375826 11.87090235453411 0 0 0
2134 112 4 -0.12 12.520244906899299 5.793550614500667 11.452695700238463 0 0 0
2139 112 7 0.06 12.308208440828825 4.731429143684013 11.330119597774909 0 0 0
2138 112 7 0.06 13.016146689666511 6.045317751501091 10.515262420317596 0 0 0
2142 112 7 0.06 13.460227006403372 6.89917905903376 13.203034576478789 0 0 0
2137 112 4 -0.12 13.436516076229028 5.92414974208746 12.716370364207403 0 0 0
2140 112 4 -0.12 14.832967155589703 5.4662317200435275 12.36457420850828 0 0 0
2141 112 7 0.06 12.979107021057684 5.240513572966665 13.431566037438046 0 0 0
1108 71 7 0.06 11.12470137132101 4.071589735776169 13.427948034769793 0 0 0
1103 71 10 -0.22 11.389181827276007 3.0962224701814423 13.83635363412978 0 0 0
1111 71 7 0.06 13.126035224932806 2.7083485608709106 12.482533112253158 0 0 0
2145 112 7 0.06 14.737040630576457 4.633167465729278 11.668234878477001 0 0 0
2144 112 7 0.06 15.242333488780528 6.146104644000479 11.617393877468356 0 0 0
1107 71 7 0.06 12.049729758931761 3.4075792133065548 14.645562978613903 0 0 0
179 13 7 0.06 14.554768812313378 8.448526116921109 10.300282031130655 0 0 0
1113 71 7 0.06 10.760664619190678 2.5361168471257445 11.320021042583985 0 0 0
1830 100 11 -0.8 12.197459594617692 8.569119568417685 14.992503323416766 0 0 0
2147 112 7 0.06 15.418668561785532 4.191878899455747 13.936034849324017 0 0 0
158 12 3 0.35 10.629469634529187 8.433273547436208 15.657186299233873 0 0 0
1102 71 9 0.7 10.244034735151699 2.365854818650743 14.546851698365911 0 0 0
1106 71 4 -0.12 12.197278247933344 2.265501984437277 12.842232712394004 0 0 0
161 12 5 0.08 9.464859012151171 6.2011205858005 15.541062446088933 0 0 0
2143 112 4 -0.12 15.825097287183691 5.08858900167783 13.468260300916516 0 0 0
2148 112 7 0.06 15.778449157394228 5.821495442803988 14.273715755197301 0 0 0
1557 89 7 0.06 15.212255084455153 2.6151149908115228 15.430458532627224 0 1 0
1835 100 7 0.06 13.418416701010996 5.224975433377154 16.038591967736124 0 0 0
153 11 8 0.13 16.709215784840204 3.0747523205076606 9.245322534217625 0 1 0
1595 90 7 0.06 21.07672751075879 6.847364748084525 9.129674263062238 0 0 0
1590 90 4 -0.12 21.993194181333976 7.433824256958841 9.194793616115216 0 0 0
38 3 7 0.06 22.7826443711003 3.575822220195071 15.93391053144219 0 0 0
152 11 8 0.13 18.077663370966025 2.881641677082709 10.44563404559977 0 1 0
154 11 8 0.13 16.354438491535422 2.4331091283455484 10.836911992026726 0 1 0
1600 90 7 0.06 22.101905486131212 6.75197034282344 11.826809356222986 0 0 0
1591 90 7 0.06 20.961448373050747 8.374105828785504 10.865916235350568 0 0 0
1601 90 7 0.06 21.895806600941405 5.249354446213912 11.068971671235417 0 0 0
1596 90 12 -0.18 22.637071334444748 6.037436509726009 11.201409205777562 0 0 0
149 11 6 -0.32 17.12765050469438 2.5000188601041997 10.071567182632858 0 1 0
1343 80 4 -0.12 20.19492387762964 7.316373530337036 15.514587632301568 0 0 0
2151 112 7 0.06 17.736156125954565 5.990868793098594 13.032685890505306 0 0 0
2149 112 7 0.06 17.93857086262024 4.480050701031493 13.748905774124838 0 0 0
2146 112 12 -0.18 17.342241289702844 4.975762893518116 12.98291170958484 0 0 0
2150 112 7 0.06 17.558986254376876 4.618673044637692 11.97613722412059 0 0 0
373 27 6 -0.32 20.83812171539964 3.27692311917677 13.44966893390316 0 0 0
377 27 8 0.13 21.560838443593834 3.0366723835535008 12.66989553614528 0 0 0
376 27 8 0.13 21.394345831981095 4.050052571967587 13.979736867102364 0 0 0
378 27 8 0.13 19.95957053898117 3.787023573454552 13.054660380638033 0 0 0
1350 80 7 0.06 21.798520691016712 6.496810046706729 14.279192053411798 0 0 0
1346 80 12 -0.18 20.883043917114716 7.077613193072931 14.166691711251422 0 0 0
1351 80 7 0.06 20.162587146937028 6.526438192362438 13.562345318015483 0 0 0
371 27 5 0.08 19.3872450257461 2.426939659353548 15.80548746691888 0 0 0
1349 80 7 0.06 21.19921049550082 7.961471437055344 13.612688334644552 0 0 0
1344 80 7 0.06 19.325013529105266 5.322752152850805 15.609759640995618 0 0 0
1549 88 7 0.06 16.90249248106541 8.5129265917633 14.44405553763467 0 0 0
1044 68 7 0.06 22.508060291306695 3.063839169789834 9.983593184469955 0 1 0
1348 80 7 0.06 19.261050786169644 7.873752029282581 15.587365392933453 0 0 0
1587 90 4 -0.12 21.568773473726466 8.683554251544372 10.015337420418861 0 0 0
1697 94 7 0.06 22.915620178523305 8.63750894181651 14.947420961605003 0 0 0
1593 90 4 -0.12 23.08053125580627 6.507971592169818 9.864143385315554 0 0 0
1598 90 7 0.06 23.28471222846123 5.563397047803901 9.359985230408558 0 0 0
847 60 7 0.06 27.96179221563383 6.064770204858956 15.744365501979686 -1 0 0
1856 101 4 -0.12 29.678111607614188 6.136741607929557 12.193691199859186 -1 0 0
1599 90 7 0.06 23.409871159327352 5.619369582795242 11.84645720279054 0 0 0
2226 115 7 0.06 28.654435629221886 8.580153625490237 10.07184442324015 -1 0 0
1597 90 7 0.06 24.045930084891303 6.999746083679186 9.98351402519905 0 0 0
1861 101 7 0.06 29.402172049125863 7.009170891788179 12.785984154390519 -1 0 0
1863 101 7 0.06 29.08612097550904 4.235179418030491 11.449999876879422 -1 0 0
1875 101 7 0.06 23.78257985335939 3.134777488407103 12.11446856532141 -1 0 0
1864 101 7 0.06 28.07311564960197 5.551674831460613 10.872663922009938 -1 0 0
1871 101 12 -0.18 24.333157964179424 2.5588682610244766 12.858295628480045 -1 0 0
1872 101 7 0.06 24.993726859125708 4.448736182962814 13.551506360591114 -1 0 0
1868 101 4 -0.12 25.47061054645068 3.497476651570887 13.315341843740276 -1 0 0
1873 101 7 0.06 25.924000953503487 3.1824485930808617 14.255172088732216 -1 0 0
1869 101 7 0.06 26.96200532645606 2.933077617197671 11.735407765683059 -1 0 0
1866 101 7 0.06 27.227473139781164 5.55172111561851 13.312797880479113 -1 0 0
1859 101 4 -0.12 28.581253364356733 5.1531812112330435 11.750778552100092 -1 0 0
1870 101 7 0.06 25.889888230276988 4.395100212752027 11.431613943191698 -1 0 0
1865 101 4 -0.12 26.473708117320864 3.8162593593245617 12.147284280392261 -1 0 0
1867 101 7 0.06 28.15354586069921 4.1054180603434185 13.527433158770284 -1 0 0
1862 101 4 -0.12 27.591036674664732 4.670510757125513 12.784237293498572 -1 0 0
1874 101 7 0.06 23.57561748103384 2.504272928332058 13.640112863254501 -1 0 0
1696 94 12 -0.18 24.568331736075685 7.60950932233661 14.268969789300535 0 0 0
1701 94 7 0.06 25.582646263694368 7.250160123278598 14.442522742385025 0 0 0
1699 94 7 0.06 23.980749125747323 6.70537637691288 14.10966916651784 0 0 0
1693 94 4 -0.12 23.967676183721956 8.524430585775857 15.20910359262267 0 0 0
2251 116 7 0.06 29.700231829883133 8.71017274294835 14.719936307450398 -1 0 0
2023 107 7 0.06 29.29113533670072 2.2331375532895072 12.498479775680112 -1 1 0
1700 94 7 0.06 24.610651680734264 8.027775508493802 13.263311412517917 0 0 0
562 41 2 0.2 30.00975739459122 2.174882947994509 9.1034794559911 0 0 0
973 65 7 0.06 7.208847833252705 11.91951602191036 9.156849914670282 0 0 0
972 65 7 0.06 5.608729406847123 12.608935135273406 9.476052800163636 0 0 0
1374 81 7 0.06 5.232266157875655 13.0759845061289 15.005025757588875 0 0 0
1375 81 7 0.06 3.5871950888643465 13.722121350653408 15.30322495947895 0 0 0
1371 81 12 -0.18 4.4365181704954715 13.713714944882955 14.620095337853066 0 0 0
962 65 4 -0.12 7.784539043541857 14.619269118761855 9.234270020690175 0 0 0
2207 115 7 0.06 4.926784724255793 15.431106502403589 9.82193904837824 0 0 0
714 51 8 0.13 4.920241393001795 9.589562309573608 11.961149771651016 0 0 0
709 51 6 -0.32 5.569324917484148 9.285223803637193 12.782219249685056 0 0 0
2216 115 7 0.06 2.8413845779997153 12.980089195565974 9.253260381823079 0 0 0
2203 115 10 -0.22 3.9592731773577396 15.515846445559232 9.327139124729431 0 0 0
1372 81 7 0.06 5.901081297181399 15.015409276620048 13.913960448577443 0 0 0
2214 115 7 0.06 3.946059097923036 13.724501113811774 11.327533353347764 0 0 0
2247 116 7 0.06 3.6447084236787886 9.935124258872651 14.77605566361626 0 0 0
2243 116 4 -0.12 2.990799667939072 10.317649860934806 15.559741768524093 0 0 0
2206 115 4 -0.12 2.8459163946460806 15.323185229218149 10.363682890831013 0 0 0
1368 81 4 -0.12 4.986500500265238 15.11137137075156 14.499126776431883 0 0 0
967 65 7 0.06 7.256966239473382 14.698304300467495 10.184799768082934 0 0 0
711 51 7 0.06 6.614884530708305 10.251103561719233 14.415256365649139 0 0 0
706 51 4 -0.12 6.23582814892045 10.492668388670877 13.422256320727225 0 0 0
710 51 7 0.06 5.607632739242675 11.318994403949333 13.754885675363788 0 0 0
707 51 5 0.08 7.0961964079602495 11.089284034553016 11.452158528592314 0 0 0
702 51 2 0.2 7.379460501012795 11.002420597465827 12.501111625794833 0 0 0
708 51 5 0.08 7.711433047700368 12.030895571230042 12.642956100279553 0 0 0
2209 115 4 -0.12 2.913315741539286 13.961927678874027 11.072276189929287 0 0 0
1513 87 7 0.06 8.448275161035896 14.879248717332711 13.910404210945764 0 0 0
2220 115 7 0.06 3.316373036160118 11.232184402757946 11.087868577000835 0 0 0
1376 81 7 0.06 4.157648721524639 13.265151217050763 13.666623344304071 0 0 0
704 51 3 0.35 8.54497019570876 9.380138550365475 12.317998321834828 0 0 0
701 51 1 -0.48 8.610089874053585 10.34902683563082 12.59567400102879 0 0 0
703 51 3 0.35 8.894574328967684 10.441361934555728 13.560366448841547 0 0 0
1504 87 11 -0.8 9.077338755301142 10.636198684285022 15.157183395641 0 0 0
1508 87 7 0.06 7.474471638395337 12.77499055118512 15.416385106281794 0 0 0
1373 81 7 0.06 4.309859918405281 15.821202547970342 14.023328889526956 0 0 0
2213 115 7 0.06 2.366503323797007 14.081859583469047 12.007529597116323 0 0 0
2212 115 4 -0.12 2.2866815820132484 12.941365736918575 10.190752527458514 0 0 0
2215 115 4 -0.12 2.277759853216711 11.508060480514583 10.905491280458733 0 0 0
1503 87 10 -0.22 8.418251668830974 12.81656439642369 15.960110463019436 0 0 0
1506 87 4 -0.12 8.89975092337238 14.282360475531513 15.922021073367695 0 0 0
2248 116 7 0.06 3.1132101195890733 11.39836097652389 15.487869834043526 0 0 0
1365 81 4 -0.12 5.337616704098504 15.767469437420585 15.805146109846248 0 0 0
513 37 6 -0.32 14.69752005239916 14.462855450065243 14.980198718092916 0 0 0
1502 87 9 0.7 9.459430481296504 11.6738802027235 15.711249756934862 0 0 0
516 37 8 0.13 15.129473983630243 14.65600545308314 15.962133176065286 0 0 0
514 37 7 0.06 12.91122796251609 13.747912672803373 15.984287540662725 0 0 0
963 65 7 0.06 9.106425977272908 12.926713945077667 9.473645002046784 0 0 0
959 65 4 -0.12 9.160644878385895 14.015348694236145 9.46904911715484 0 0 0
2274 117 7 0.06 9.243304608650636 10.816112617368738 9.086108484817682 0 0 0
171 13 3 0.35 13.924066787771874 12.458065556013135 9.226982007501798 0 0 0
2276 117 7 0.06 9.085734000615798 9.16379960012804 9.790280494212816 0 0 0
1509 87 4 -0.12 9.342479838995061 14.810095204996797 14.529841237775223 0 0 0
961 65 7 0.06 9.163586665158878 14.367975717751346 11.57899430449976 0 0 0
181 13 8 0.13 15.10685778909667 9.137813709292995 12.500943512461006 0 0 0
1548 88 7 0.06 15.483995748850589 9.978490878492448 15.4960582846941 0 0 0
159 12 3 0.35 9.248153179607698 9.202759397703549 15.479100069383419 0 0 0
176 13 5 0.08 13.007334439956292 10.302946335315273 9.716196961389105 0 0 0
170 13 2 0.2 14.076123158669654 10.46477871322812 9.576241986786187 0 0 0
174 13 4 -0.12 14.875056260218283 9.478922566177094 10.454507692195756 0 0 0
180 13 8 0.13 13.477494388606397 9.830614998615737 12.203771051903974 0 0 0
177 13 6 -0.32 14.515009221136417 9.801757436939766 11.870879729028418 0 0 0
960 65 7 0.06 9.84633560055938 15.5984039517425 10.712844304969721 0 0 0
956 65 4 -0.12 9.838684765259789 14.50865970982326 10.734875265011361 0 0 0
1514 87 7 0.06 10.072909944969116 14.156054162137064 14.053617952325494 0 0 0
705 51 3 0.35 9.388180828318635 10.797262976702179 12.133345564246252 0 0 0
957 65 7 0.06 11.946202623757198 13.909131345370184 10.116539805044638 0 0 0
958 65 7 0.06 11.906766035909108 14.884057547705375 11.417909434402352 0 0 0
953 65 10 -0.22 11.354421393721944 14.031042171045899 11.023743843989237 0 0 0
509 37 3 0.35 12.795972603928059 10.343478286581083 14.660977390913775 0 0 0
169 13 1 -0.48 14.31859223200782 11.85551457035537 9.935058195064135 0 0 0
954 65 11 -0.8 10.59464300158266 12.006140653989284 12.090540947636809 0 0 0
952 65 9 0.7 11.565275542597856 12.708691484857518 11.764835138600153 0 0 0
508 37 3 0.35 12.26332922729975 11.53760681828145 13.621473463364897 0 0 0
955 65 11 -0.8 12.772972765025267 12.366624047612701 11.998773389110726 0 0 0
505 37 1 -0.48 12.600312650705385 11.328134635064883 14.550264078615498 0 0 0
510 37 4 -0.12 13.409790761370264 13.566354283880857 15.032154082399337 0 0 0
515 37 7 0.06 12.688718180957052 13.947208270276043 14.308903774202033 0 0 0
511 37 5 0.08 14.471940677926375 12.108453463472664 13.965259806604621 0 0 0
172 13 3 0.35 13.854653721331642 12.017533543062658 10.817441084087443 0 0 0
173 13 3 0.35 15.283868626643786 12.138240641721728 10.026690725847402 0 0 0
506 37 2 0.2 13.793094187572233 12.082778088869762 14.817664973912112 0 0 0
246 18 5 0.08 14.165861591882374 14.538115500178879 10.492824762062709 0 0 0
507 37 3 0.35 11.862358631867277 11.53299470066915 15.208705519430476 0 0 0
182 13 8 0.13 14.859055286416197 10.807740087775397 12.111124563977938 0 0 0
240 18 2 0.2 14.983625936351045 15.177742780322372 10.824826064328425 0 0 0
245 18 5 0.08 15.462440736421128 14.81449376217023 11.734151625369575 0 0 0
239 18 1 -0.48 15.897701756653003 15.16895849409525 9.736480683828592 0 0 0
518 37 8 0.13 14.421243398428897 15.399516554898598 14.496025581498555 0 0 0
178 13 7 0.06 15.949316296542232 9.606022097138741 10.32072620915525 0 0 0
512 37 5 0.08 14.304000081457232 11.827978673448452 15.746179273045014 0 0 0
517 37 8 0.13 15.45640264242701 14.074814844392405 14.300781237335173 0 0 0
236 17 8 0.13 20.83316783945272 12.753511023543764 15.741931753895246 0 0 0
1584 90 4 -0.12 20.725272799211815 9.717297787115484 9.232959830614185 0 0 0
1547 88 7 0.06 16.723470660771618 11.273433764002185 15.708399553110928 0 0 0
1311 79 7 0.06 21.98944853353913 15.692302413245166 10.089320406171343 0 0 0
242 18 3 0.35 16.320570547437143 14.284111334803626 9.494993547878146 0 0 0
1605 91 11 -0.8 18.197498779486864 14.33739286877789 15.680836311776634 0 0 0
1592 90 7 0.06 22.461996384796308 9.122142940687219 10.46017360813498 0 0 0
237 17 8 0.13 19.326464453916184 12.11519119149661 15.429335839902402 0 0 0
1310 79 7 0.06 20.59600856103587 14.748649023871165 9.888727878518061 0 0 0
1551 88 7 0.06 18.312673664023706 9.609770266309896 14.456851293110688 0 0 0
1579 90 11 -0.8 16.779521947885904 12.589976180434075 9.605632301050802 0 0 0
1586 90 7 0.06 20.545295628999323 11.065854155053579 10.879643740068618 0 0 0
1550 88 7 0.06 16.89530316440121 9.982198344022565 13.429264537814339 0 0 0
1585 90 7 0.06 19.30064006762002 9.97414550874915 10.789263351807492 0 0 0
1546 88 12 -0.18 17.227454662500826 9.550965248260292 14.373616067984308 0 0 0
1581 90 4 -0.12 19.884577797179155 10.621659957034108 10.135177622306442 0 0 0
234 17 7 0.06 21.57400475924714 11.846095919031704 13.374395692304299 0 0 0
230 17 4 -0.12 20.555130838725283 12.109570163983545 13.658233088050531 0 0 0
227 17 3 0.35 18.75247012477219 13.901277506926585 14.168646858452043 0 0 0
231 17 5 0.08 20.744146773806865 14.24312933321393 13.762398595227701 0 0 0
1580 90 11 -0.8 17.728705580111054 12.058202549369229 11.424631650211904 0 0 0
1577 90 9 0.7 17.78099899544891 12.053982783033014 10.170839176427522 0 0 0
229 17 3 0.35 18.427357824414745 13.129078336793615 12.707465540406863 0 0 0
1578 90 10 -0.22 18.923974965565588 11.497302708140092 9.359478837643316 0 0 0
225 17 1 -0.48 18.960405938284637 13.843781638947094 13.181962506321844 0 0 0
226 17 2 0.2 20.333501372015597 13.529703870073245 13.04791915646633 0 0 0
232 17 5 0.08 20.68297957407916 13.561505885686053 12.015959833076526 0 0 0
228 17 3 0.35 18.68723638339136 14.679846801372765 12.685512709213423 0 0 0
235 17 7 0.06 19.877505184549005 11.471364005730234 13.091132785457674 0 0 0
233 17 6 -0.32 20.3705103066156 11.957103494366782 15.159034275330225 0 0 0
238 17 8 0.13 20.589951260542392 10.931478354240378 15.455724662139597 0 0 0
1543 88 4 -0.12 16.547701205103536 10.208315950684787 15.557682760592614 0 0 0
1073 69 7 0.06 22.642285276252817 12.450244889346736 9.565831132453763 0 0 0
241 18 3 0.35 16.71443674753963 15.760045040862638 9.796888459598401 0 0 0
1306 79 4 -0.12 20.956602675952062 15.767773998790648 9.749291144166973 0 0 0
1304 79 11 -0.8 18.23435943417427 15.954870292549051 11.703132553643583 0 0 0
2249 116 7 0.06 28.751613643463408 9.74332201938185 15.83157626789752 -1 0 0
1076 69 7 0.06 23.869393975079397 10.590553443327485 9.294752173164921 0 0 0
1683 94 7 0.06 24.507649818773096 14.796187852264802 16.041165751057985 0 0 0
2221 115 12 -0.18 29.158554756250197 9.24402497230398 10.774144270356883 -1 0 0
2225 115 7 0.06 28.488662772811608 9.225099767810754 11.633779661179608 -1 0 0
2210 115 7 0.06 29.83417697882104 15.481177269571399 9.877530111605303 -1 0 0
2222 115 7 0.06 29.972725310308512 10.391377302691748 9.16059894727315 -1 0 0
2218 115 4 -0.12 29.387851186890174 10.549316265148283 10.066724753357501 -1 0 0
1688 94 7 0.06 23.68635342848155 12.651749310542497 15.147627769294614 0 0 0
1686 94 7 0.06 25.9920416080679 12.723802226224574 15.67072482839774 0 0 0
2219 115 7 0.06 29.667148855559454 11.565759356544312 11.83790800613468 -1 0 0
1068 69 4 -0.12 23.709781479013 12.562700684225469 9.755282961697368 0 0 0
2246 116 12 -0.18 29.545235054708012 9.725586433689898 15.08462449971151 -1 0 0
1070 69 7 0.06 23.860274929319612 11.336938823951778 11.598956161839933 0 0 0
2217 115 7 0.06 29.24582363400175 13.199250760435008 9.819418524882977 -1 0 0
2250 116 7 0.06 29.217122661106888 10.318196328564063 14.230667723774834 -1 0 0
1072 69 7 0.06 24.080922878517672 13.515930510868088 9.378861271844048 0 0 0
1695 94 7 0.06 24.668201115212554 10.377174965381185 14.224741208069318 0 0 0
2223 115 7 0.06 28.39106921366289 10.873065432757711 9.76722764782549 -1 0 0
1694 94 7 0.06 25.638715308617023 9.914786108951336 15.560610258372453 0 0 0
1069 69 7 0.06 23.23184103108808 12.887867224015919 11.838581056444195 0 0 0
1065 69 4 -0.12 23.967971363996863 12.358289571559533 11.233811623757617 0 0 0
1067 69 7 0.06 26.172159749007793 12.634089371838447 10.875881786364682 0 0 0
1062 69 4 -0.12 25.38417447111991 12.729547662780124 11.622911418259156 0 0 0
1064 69 7 0.06 25.00799140049355 14.386973502504643 12.868417425416206 0 0 0
1061 69 7 0.06 27.79993213042067 14.069940176369869 11.528779160570359 0 0 0
1066 69 7 0.06 25.68725724015137 12.057533974401137 12.42579674980614 0 0 0
1059 69 4 -0.12 25.605087092459794 14.19031987082503 11.977973429377657 0 0 0
1056 69 4 -0.12 27.169304471813586 14.317907152934335 12.382539991426992 0 0 0
1060 69 7 0.06 27.245223194565458 13.586375652929426 13.187017647819228 0 0 0
1690 94 4 -0.12 24.605325349558182 9.923951599839103 15.214044819613157 0 0 0
1063 69 7 0.06 25.444074549678568 14.884517227354161 11.153199864947979 0 0 0
1058 69 7 0.06 28.37696891858825 15.749023444000002 13.531533137445784 0 0 0
1053 69 10 -0.22 27.515390118467387 15.718538578880624 12.864570573655675 0 0 0
1366 81 7 0.06 7.231318160614929 16.734036264663736 15.128316676574004 0 0 0
1362 81 4 -0.12 6.286579995489159 17.04397192167137 15.574966490673898 0 0 0
28 2 8 0.13 3.4627123598076155 18.31570537460544 15.594107458664839 1 0 0
860 61 7 0.06 5.033042266420218 23.029581051549037 9.09762106789517 1 0 0
2211 115 7 0.06 3.0043408574281156 16.157273564019242 11.047265193682694 0 0 0
21 2 5 0.08 2.718942069493513 21.539124572844088 15.02439134868627 1 0 0
15 2 1 -0.48 4.584018306563346 22.300997058930083 15.597269009128148 1 0 0
1367 81 7 0.06 5.944592947843511 17.784667175228734 14.852123643392922 0 0 0
25 2 7 0.06 4.1977500095025775 20.469596327623936 13.624658295515898 1 0 0
750 54 5 0.08 7.7677482882104 18.77478027290803 9.461405538944877 0 0 0
745 54 3 0.35 5.515764116379435 18.836414979353297 9.298132374823481 0 0 0
743 54 1 -0.48 5.989056323199694 19.67767644294082 9.595392437553935 0 0 0
749 54 5 0.08 7.783356927577534 20.370368438170765 10.147211559166806 0 0 0
756 54 8 0.13 5.248273070196452 17.629064109864252 11.477263089383333 0 0 0
744 54 2 0.2 7.291315201481723 19.400212776363837 10.216343865659134 0 0 0
752 54 7 0.06 6.439138904762422 19.57748539897209 12.124439671991325 0 0 0
746 54 3 0.35 5.36965635703431 20.28828749965693 10.108799167985302 0 0 0
748 54 4 -0.12 7.027982352813788 18.817069918792285 11.611489265680321 0 0 0
855 61 11 -0.8 4.743289748495776 21.49616319350512 11.2233691387038 1 0 0
753 54 7 0.06 7.9345337625638 18.879246010958813 12.213473543159157 0 0 0
751 54 6 -0.32 6.307102207795256 17.443187162862557 11.657310395999307 0 0 0
754 54 8 0.13 6.672749784635697 16.774613829903885 10.8779529791935 0 0 0
755 54 8 0.13 6.486930658495905 16.906446777747554 12.588791962784978 0 0 0
595 43 5 0.08 2.830863172805827 20.91233079410412 9.988209957008563 1 0 0
20 2 4 -0.12 4.061197398402774 20.13138750491295 14.651816742900394 1 0 0
263 19 7 0.06 7.203586950008588 21.704313441436646 14.778516547913009 0 0 0
258 19 4 -0.12 8.014879297109184 22.398471473008513 14.559345963741468 0 0 0
596 43 5 0.08 2.9071519267834636 20.13723926492448 11.577356280835808 1 0 0
19 2 3 0.35 4.77320258234684 22.476582889597708 14.62081189684894 1 0 0
27 2 8 0.13 3.3863234399129 18.28763238230954 13.810745182477325 1 0 0
23 2 6 -0.32 3.2227352779440923 18.893799471118466 14.701748432208065 1 0 0
16 2 2 0.2 3.6028027634498043 21.226019392882442 15.580126664874332 1 0 0
266 19 8 0.13 7.82210361661831 21.571127280810543 12.570799656802377 0 0 0
852 61 9 0.7 5.148962660556226 22.551001974208866 11.774951496862547 1 0 0
593 43 3 0.35 2.431155513809806 18.777611365548132 9.623616190262746 1 0 0
261 19 6 -0.32 8.6118507801107 21.887412176552896 13.25223169327931 0 0 0
854 61 11 -0.8 5.216364925407198 22.688826285878108 13.005999545431134 1 0 0
24 2 7 0.06 5.051604453552594 19.81220864775146 14.976324294432287 1 0 0
254 19 2 0.2 9.063776778204783 22.581073207813038 15.686389267837978 0 0 0
590 43 2 0.2 2.2384982190452254 20.438682362330432 10.77105564321408 1 0 0
26 2 8 0.13 2.148939308893439 19.078223645998026 14.733941024685278 1 0 0
1388 82 7 0.06 12.921133673202307 20.30430975417955 10.668921741756963 0 0 0
1394 82 7 0.06 10.554406429249882 21.009531495744216 10.21048193910618 0 0 0
1516 87 7 0.06 10.876077930984728 16.104406082858624 15.527064168993537 0 0 0
1512 87 4 -0.12 10.0573687036676 16.21840329928854 14.816566971370625 0 0 0
1520 87 7 0.06 11.462518527402974 16.65396775775246 13.188487472741809 0 0 0
769 55 8 0.13 11.703728964472676 22.324884217191862 15.802735395554697 0 0 0
265 19 8 0.13 9.324905032681512 21.090607735358862 13.46375641949044 0 0 0
1517 87 7 0.06 9.314109840973114 16.85731724010561 15.293475381813439 0 0 0
1519 87 7 0.06 9.80051894870866 16.982260735842633 12.842287718194505 0 0 0
252 18 8 0.13 12.71640424196549 16.836612809486677 9.65449291077895 0 0 0
247 18 6 -0.32 13.67312270887764 17.27126443258176 9.94406878521167 0 0 0
244 18 4 -0.12 14.352397809038122 16.55734442596143 11.152690547118345 0 0 0
249 18 7 0.06 13.635768112015755 16.53026192042833 11.973540612695068 0 0 0
1515 87 4 -0.12 10.55374145236685 17.067760995880768 13.625506702847892 0 0 0
250 18 8 0.13 13.439486115957308 18.3137176469591 10.160382507661264 0 0 0
1522 87 7 0.06 11.712583574221068 18.193748184376336 14.875563152232779 0 0 0
264 19 8 0.13 9.232881247132987 22.611265390166345 12.724553694253547 0 0 0
1523 87 7 0.06 10.008819448079137 18.874065929912557 14.662308692262583 0 0 0
1518 87 4 -0.12 10.89189056888984 18.43351924579699 14.19950157123856 0 0 0
1526 87 7 0.06 10.479608934858495 19.3803051219095 12.33156386540084 0 0 0
1525 87 7 0.06 12.19895628583304 18.989688039267893 12.62729815893027 0 0 0
1524 87 7 0.06 11.571524853812255 20.350539032959336 13.451396250380943 0 0 0
1521 87 12 -0.18 11.279755451227912 19.3713696170363 13.071680163394992 0 0 0
1386 82 7 0.06 13.889738167003738 21.066672520179264 12.743903460938784 0 0 0
1381 82 4 -0.12 14.329810472150884 21.45504524774196 11.825432215960742 0 0 0
765 55 6 -0.32 12.487083292494026 22.36023089227214 15.045640363041555 0 0 0
248 18 7 0.06 15.125852311092025 17.190842233769434 11.586896719038752 0 0 0
768 55 8 0.13 12.97297601072041 21.398223712700624 14.882739227601888 0 0 0
770 55 8 0.13 11.915398864271081 22.715064831044156 14.188111233254737 0 0 0
1383 82 7 0.06 15.463510026917858 19.8211895771848 11.317089879020257 0 0 0
1378 82 10 -0.22 15.681638923378008 20.851009584222037 11.599891893699041 0 0 0
1385 82 7 0.06 14.408922177575855 22.485561649211284 12.171645608420015 0 0 0
1384 82 4 -0.12 13.31451150577654 21.320839730877946 10.666260046466215 0 0 0
1392 82 7 0.06 11.843904265727835 22.216309879010076 11.860799080823645 0 0 0
1389 82 7 0.06 13.859141096745848 21.38663728075474 9.72438122231736 0 0 0
1387 82 4 -0.12 12.198279293037771 22.247445630844453 10.83049070586734 0 0 0
1390 82 4 -0.12 11.041089272995755 21.940085713291545 9.918428735180454 0 0 0
1393 82 4 -0.12 10.03415455387449 23.00760542675323 9.603506281071706 0 0 0
259 19 5 0.08 9.560219967385915 21.647900652503022 15.952508702365837 0 0 0
1445 84 7 0.06 22.878826168666198 22.36853759046688 15.926796256380774 0 0 0
355 26 3 0.35 17.524113708973523 19.759638732403488 9.123046068626122 0 0 0
1382 82 7 0.06 16.158948000784175 20.759635054249866 12.575552243197253 0 0 0
826 59 8 0.13 16.403824382811152 18.137355259743003 15.307713077900694 0 0 0
1377 82 9 0.7 16.54670472362573 21.57616754198085 10.629078704274976 0 0 0
1444 84 7 0.06 22.642492872731104 20.994640846399893 14.920503841055421 0 0 0
821 59 6 -0.32 17.129252553264692 17.535839897410817 15.855453540123888 0 0 0
1307 79 7 0.06 20.679851890274744 16.747787478610874 11.70829030882126 0 0 0
1303 79 10 -0.22 20.231194129749714 16.76221287495526 10.715020711878326 0 0 0
824 59 8 0.13 17.875636843992627 17.19022582622557 15.140227835153905 0 0 0
1302 79 9 0.7 18.7243681099862 16.567402608335502 10.734203077833575 0 0 0
1379 82 11 -0.8 16.26205117985505 22.764615910809063 10.495413029603373 0 0 0
1308 79 7 0.06 20.384827619498502 17.783258087372843 10.36580752157916 0 0 0
1305 79 11 -0.8 18.104733350868933 16.89798140203861 9.677167631155367 0 0 0
1436 84 7 0.06 20.23521254558918 21.055460863765184 14.81228543405406 0 0 0
1380 82 11 -0.8 17.577242483541482 21.031068797669903 10.104814497778575 0 0 0
1435 84 7 0.06 20.271170865953657 21.235199180088937 13.040628956902639 0 0 0
1431 84 4 -0.12 20.011908157958757 21.7231629418111 13.980182372455987 0 0 0
611 44 6 -0.32 20.262080437359156 22.90941327540533 10.442707000443706 0 0 0
1428 84 10 -0.22 18.527890672197614 22.057400221750182 13.961518580063293 0 0 0
1433 84 7 0.06 17.966160710055412 21.186966837001105 13.622561944673615 0 0 0
614 44 8 0.13 21.30006527463621 22.829776450806893 10.76571137183964 0 0 0
947 64 7 0.06 22.405493471479573 18.80336613230887 12.146331886867063 0 0 0
941 64 7 0.06 22.435456236169063 19.921109153734776 9.812176990400639 0 0 0
1437 84 4 -0.12 22.407179168690725 22.75216268556577 13.8890826615568 0 0 0
1434 84 4 -0.12 20.900499210345195 23.008533752486088 14.116281699894857 0 0 0
616 44 8 0.13 19.914288800300053 21.876908861172 10.410118376959941 0 0 0
1442 84 7 0.06 22.522853601896593 22.359866218402768 12.878731654291846 0 0 0
1427 84 9 0.7 17.993910622674676 22.43924303456501 15.275825671875092 0 0 0
1432 84 7 0.06 18.385795748488896 22.875005061980424 13.254823647062342 0 0 0
741 53 8 0.13 22.59632186319601 18.77367577605257 15.43973771082873 0 0 0
935 64 7 0.06 25.313558218503967 22.221793586803958 9.265371704513806 0 0 0
1446 84 12 -0.18 25.40327286396433 21.0527562474979 15.608135584774942 0 0 0
1451 84 7 0.06 26.482338850402066 21.185968101084672 15.530950153706428 0 0 0
1450 84 7 0.06 25.16819054610013 20.015946168573713 15.367620287010412 0 0 0
943 64 4 -0.12 23.49526700448149 18.816049251796695 12.128465258297004 0 0 0
951 64 7 0.06 23.31908708746137 17.1752436005997 13.645485453282385 0 0 0
948 64 7 0.06 23.891100090763825 19.628488472896024 12.737846190666655 0 0 0
942 64 7 0.06 23.498975551365554 21.128111933036642 10.63632881290131 0 0 0
1440 84 4 -0.12 23.13390779622509 21.967239523657568 14.945990633135954 0 0 0
1447 84 7 0.06 25.063281432262258 22.958588747556913 14.87127060867729 0 0 0
949 64 7 0.06 24.283135476710566 16.706184934374505 12.215151859176508 0 0 0
946 64 12 -0.18 23.978007219828235 17.534256024015292 12.854902931348713 0 0 0
936 64 7 0.06 26.099735725276236 20.761423652063133 9.720285747911923 0 0 0
1443 84 4 -0.12 24.64160247901285 21.962883087131395 14.73399902090541 0 0 0
599 43 7 0.06 29.48684710054928 22.19826506163384 11.896145853814382 0 0 0
950 64 7 0.06 24.795690458014725 17.910738637363835 13.469509606923312 0 0 0
945 64 7 0.06 23.55806487989691 18.18604340245866 10.165950568364057 0 0 0
937 64 4 -0.12 23.458643073989823 20.25399950868831 9.986415671980856 0 0 0
940 64 4 -0.12 23.9881092959797 19.015909880527147 10.726726677459858 0 0 0
594 43 4 -0.12 29.088372183475506 21.297421739000622 11.429470924548617 0 0 0
601 43 8 0.13 28.74780764453071 20.161190425134517 13.226542939129079 0 0 0
1057 69 7 0.06 26.744057424308807 16.28005608544586 13.391666748244177 0 0 0
592 43 3 0.35 28.94458964183305 19.509800494356114 9.410569205855435 0 0 0
1054 69 11 -0.8 27.456064672527866 16.57299661711204 10.528399188465812 0 0 0
1052 69 9 0.7 27.92851811116304 16.660685626041754 11.674798516916889 0 0 0
1055 69 11 -0.8 28.770794040564493 17.56765877543254 11.864826733963596 0 0 0
589 43 1 -0.48 29.638423364966293 19.265112960833164 10.102531681840565 0 0 0
944 64 7 0.06 25.052583671316782 18.821264978713707 10.595982270381311 0 0 0
591 43 3 0.35 29.11891723269433 18.635686367027432 10.697531683214907 0 0 0
597 43 6 -0.32 28.149678914688888 20.620922493759014 12.439793370277691 0 0 0
600 43 8 0.13 27.55774615514108 19.8879094585072 11.891711308962666 0 0 0
602 43 8 0.13 27.599491484607682 21.309485395499074 13.08108997383072 0 0 0
598 43 7 0.06 28.60162748676369 21.759103088810793 10.570392154387786 0 0 0
1448 84 7 0.06 24.94955750980734 21.643018921370093 13.738540810343768 0 0 0
2300 118 7 0.06 27.625751294361216 17.99345304612556 15.191605935785903 -1 0 0
17 2 3 0.35 4.073372992951337 23.06054774879705 16.024367370452467 1 0 0
861 61 7 0.06 5.348867866916174 24.69192863988853 9.09919467413835 1 0 0
563 41 3 0.35 3.7822425344428643 29.93287610047132 10.26924591031856 1 -1 0
2016 107 7 0.06 2.1650576687150886 26.704925471909775 13.517712058442228 0 0 0
2002 107 9 0.7 6.7774229983327405 26.290271953425634 15.805983357689696 0 0 0
2017 107 7 0.06 2.400800580299206 26.79660517134132 11.817159473103404 0 0 0
262 19 7 0.06 7.572849935629365 23.362101898395363 14.306140733358614 0 0 0
857 61 7 0.06 6.673847859206861 23.63975247557667 10.83796984273939 1 0 0
2015 107 4 -0.12 2.8079073433251334 28.678675002395984 12.893691902609845 0 0 0
2012 107 4 -0.12 2.8320461079633565 27.122709688301786 12.763610469248396 0 0 0
2019 107 7 0.06 3.419386651469545 29.076558905024413 12.08383521859363 0 0 0
2020 107 7 0.06 3.217707998086528 29.084270263212385 13.81870122586015 0 0 0
2010 107 7 0.06 5.073699908141435 27.899681146993224 14.409252793194238 0 0 0
864 61 7 0.06 2.9537324224540837 23.474054970459765 10.394931639710974 1 0 0
853 61 10 -0.22 5.600777971877044 23.740403864563834 11.000686309872027 1 0 0
2007 107 7 0.06 5.941911265280256 25.125750993513467 14.315017835852238 0 0 0
863 61 7 0.06 3.289273787530349 25.157524245573224 10.627220341219273 1 0 0
859 61 4 -0.12 3.398314147059594 24.3434685343387 9.910624319245052 1 0 0
2011 107 7 0.06 4.178510992222169 26.496256254434826 15.038798261366631 0 0 0
2006 107 4 -0.12 4.885673183650393 26.83370543830038 14.281080557994667 0 0 0
2014 107 7 0.06 4.8929347524454805 26.77499138859748 12.20483338249366 0 0 0
2013 107 7 0.06 4.081409533452628 25.376898762005247 13.047177762454764 0 0 0
2008 107 7 0.06 6.8813270520971495 26.67383475363396 13.739471177562349 0 0 0
856 61 4 -0.12 4.822451584618236 23.930220794999506 9.67432376475119 1 0 0
858 61 7 0.06 5.438022623161185 24.575592192437735 11.681904030893556 1 0 0
118 9 4 -0.12 7.2093725684053585 28.920603121234674 11.995775735236728 0 -1 0
121 9 6 -0.32 7.602437887759825 27.823709636271758 11.006011275061125 0 -1 0
122 9 7 0.06 6.133681097378802 28.8283224181545 12.145637515526678 0 -1 0
2009 107 4 -0.12 4.204881011126344 26.45829411421452 12.988651771143255 0 0 0
2003 107 10 -0.22 6.194623281044033 26.18010982248297 14.427046660248061 0 0 0
123 9 7 0.06 7.589881307070211 28.71736384689672 12.996771905995057 0 -1 0
125 9 8 0.13 8.686221822803574 27.710145191897023 10.981476940037764 0 -1 0
126 9 8 0.13 7.211700197134277 26.857639629070444 11.325572149180129 0 -1 0
124 9 8 0.13 7.2376852943162255 28.02705604238868 9.99918844144463 0 -1 0
2004 107 11 -0.8 7.906104935257095 25.760225361378755 15.971093873372334 0 0 0
762 55 4 -0.12 13.618020830281258 23.317109683053964 15.552348674439296 0 0 0
766 55 7 0.06 14.139149213749837 23.583961079443707 14.632945630555295 0 0 0
97 7 8 0.13 9.21014449707767 24.676432355887652 12.811456286206274 0 0 0
1119 71 7 0.06 10.867474404343966 29.218690086233543 9.14325409102547 0 -1 0
1120 71 7 0.06 10.780004279157179 27.6458165731419 9.947681713736293 0 -1 0
1117 71 7 0.06 12.89445264697185 29.770465086227674 10.23178523515363 0 -1 0
260 19 5 0.08 9.859521944730776 23.161472232767487 15.219470722012305 0 0 0
1391 82 7 0.06 12.537637065451468 23.259252725113416 10.608749721851165 0 0 0
88 7 3 0.35 13.060458627033938 27.522771533935646 15.249895032180072 0 0 0
1399 82 7 0.06 11.12861981812726 24.95375358759542 9.655994245456633 0 0 0
1109 71 4 -0.12 11.336655916213605 29.649249408684536 11.712925763705938 0 -1 0
98 7 8 0.13 10.285878481137196 25.641026719001548 11.839112784839775 0 0 0
96 7 8 0.13 10.854555151804222 24.219428496057933 12.6181804796095 0 0 0
1115 71 4 -0.12 11.458735461873605 28.385452304957493 9.523006093511022 0 -1 0
1110 71 7 0.06 12.66481546357511 29.367205000660626 13.340496261948568 0 -1 0
1397 82 7 0.06 9.503317826939345 23.327845234316143 10.500024696725367 0 0 0
1105 71 11 -0.8 10.343391129311401 29.234382494864025 15.249956557129002 0 -1 0
1112 71 4 -0.12 12.242164409623125 29.004740302536224 10.6516328598163 0 -1 0
94 7 7 0.06 9.768408544806913 26.728770241688885 14.054208128087254 0 0 0
1114 71 7 0.06 10.66303094299337 28.88805477288931 12.10649728375779 0 -1 0
1116 71 7 0.06 12.75978851295101 28.207053271132267 11.184405903164333 0 -1 0
95 7 7 0.06 10.198848581072829 25.368523171679932 14.927487930115737 0 0 0
90 7 4 -0.12 10.49400412314604 25.915682374903426 14.03217433178709 0 0 0
93 7 6 -0.32 10.218082037111396 25.08991261263394 12.777069767740937 0 0 0
92 7 5 0.08 12.32640884894184 26.847949988095472 13.219930149335257 0 0 0
86 7 2 0.2 11.919682407131905 26.44209293880265 14.146180690392569 0 0 0
91 7 5 0.08 12.622701928991692 25.63250970868589 14.342203486449137 0 0 0
504 36 8 0.13 14.020754293062167 25.328194314340525 11.133522554327536 0 0 0
499 36 6 -0.32 14.932005983567663 25.797277474595912 10.762486503849278 0 0 0
502 36 8 0.13 14.4565925829571 26.573223068920633 10.16250572202184 0 0 0
1555 89 11 -0.8 14.553300974184314 27.97994289846018 15.183546119085499 0 0 0
497 36 5 0.08 15.410057350308735 24.616220638596385 13.35930698853474 0 0 0
503 36 8 0.13 15.426115456662256 25.13431166068904 10.052262250322535 0 0 0
501 36 7 0.06 15.461289770840938 27.129570418163247 12.528977699894604 0 0 0
89 7 3 0.35 11.564510826519635 28.17531477637829 15.071491585947122 0 0 0
85 7 1 -0.48 12.070936619047137 27.32046622354508 15.252752721471486 0 0 0
1552 89 9 0.7 15.587030824130137 28.538742031704555 15.599200409794154 0 0 0
496 36 4 -0.12 15.79156464768099 26.28446508590815 11.924989357675306 0 0 0
767 55 7 0.06 13.1487991289324 24.28051169466384 15.751782779041518 0 0 0
148 11 5 0.08 19.524747736411197 29.30363758538836 9.209525085922587 0 0 0
145 11 3 0.35 19.067677616304785 26.972684079096744 9.298685648307298 0 0 0
615 44 8 0.13 19.747232904314938 23.543747020414497 11.164260267150219 0 0 0
1441 84 7 0.06 22.90688560580247 23.71421661285199 13.775803551713992 0 0 0
151 11 7 0.06 16.650187758359955 28.46880643901947 9.390535181251025 0 0 0
146 11 4 -0.12 17.566569506908678 28.95808609041726 9.72059015116055 0 0 0
500 36 7 0.06 16.732644279451534 26.615586956808695 11.485883623751103 0 0 0
370 27 4 -0.12 20.635853389467986 29.890893115791542 14.140778124172323 0 -1 0
1038 68 7 0.06 22.310688585544405 28.936849877998522 11.50089102145024 0 0 0
1429 84 11 -0.8 17.483352019817346 23.58171126132049 15.40934530634903 0 0 0
372 27 5 0.08 18.55209023715304 29.8707647076698 14.1994222384099 0 -1 0
366 27 2 0.2 19.37049875989043 29.756385030172606 14.910204356209478 0 -1 0
492 36 2 0.2 16.205414712394163 25.17523162347473 12.866356956679619 0 0 0
498 36 5 0.08 16.805238981349568 24.429247343951868 12.345008026496327 0 0 0
375 27 7 0.06 21.55756846948478 29.589461412439924 14.63843921951243 0 -1 0
1035 68 7 0.06 21.61830553205826 26.50950999680325 9.835111322332414 0 0 0
374 27 7 0.06 20.5721616489539 29.152105619040956 13.341889621157705 0 -1 0
605 44 3 0.35 17.35563434053453 23.73630191275325 9.734168538726566 0 0 0
150 11 7 0.06 17.807955874431443 28.40537282806619 10.62851467746808 0 0 0
1439 84 7 0.06 20.63640733953207 23.723361430510018 13.336946524895453 0 0 0
493 36 3 0.35 16.52566586815484 26.261389092928336 14.545966047801098 0 0 0
495 36 3 0.35 17.897465946264553 26.185426306156824 13.486378796079435 0 0 0
368 27 3 0.35 18.353391502037823 28.186927624810707 15.708658412166692 0 -1 0
1033 68 7 0.06 21.707620502559095 27.09495824939022 12.787627281987477 0 0 0
603 44 1 -0.48 17.952501967847283 24.43494557130063 9.314960854313995 0 0 0
1554 89 11 -0.8 16.636141622255828 27.914823902985365 15.486129878817103 0 0 0
1034 68 4 -0.12 22.08596165143482 28.460527214377333 10.546584506286925 0 0 0
494 36 3 0.35 17.454518736636984 25.00591083678374 14.511586732608137 0 0 0
606 44 3 0.35 18.477363385555766 24.968715570514355 9.992971580021088 0 0 0
1030 68 11 -0.8 19.175905037549317 26.339927670279916 10.783356445566886 0 0 0
1027 68 9 0.7 19.740303355169676 26.64642095088027 11.860926665012906 0 0 0
1031 68 4 -0.12 22.033352517622088 26.942157575151885 10.745407101461822 0 0 0
1032 68 7 0.06 21.47669204318604 25.43387593377154 12.085395830950963 0 0 0
1029 68 11 -0.8 19.112903367321717 27.071838971570084 12.825002200313312 0 0 0
369 27 3 0.35 19.34244584995619 27.70577001030555 14.539847895844279 0 -1 0
1039 68 7 0.06 21.115046366132553 28.855342680202256 10.247367850010182 0 0 0
1028 68 10 -0.22 21.260442792891677 26.498170934418766 11.992666029921173 0 0 0
365 27 1 -0.48 19.266286859645195 28.354359362593225 15.31031534865521 0 -1 0
491 36 1 -0.48 17.09862281511453 25.73101957158971 13.90525009476736 0 0 0
367 27 3 0.35 19.98298451985754 28.1228421230982 15.983244577803829 0 -1 0
1438 84 7 0.06 20.741622247027575 23.483886000271273 15.084209775319335 0 0 0
2064 109 7 0.06 24.6874510949633 27.982860320023185 15.212220628901465 0 -1 0
1932 104 7 0.06 29.288826252644338 23.80016920425316 15.270939835389088 0 0 0
2063 109 7 0.06 25.764870800579928 26.875100810382627 15.69979918411034 0 -1 0
869 61 7 0.06 29.30077808330152 25.931650140603757 9.652358415547539 0 0 0
1928 104 10 -0.22 29.165308765213233 24.7442412996671 15.801559921794661 0 0 0
2074 109 7 0.06 26.67563152718738 23.826894728738534 10.103000815177131 0 -1 0
2069 109 7 0.06 25.002992848966997 24.584944655876836 13.405832816937568 0 -1 0
2068 109 4 -0.12 25.969236825641346 25.303409238840413 11.64283123361932 0 -1 0
1037 68 4 -0.12 23.148894540462198 29.079694689811603 9.575530451678029 0 0 0
1042 68 7 0.06 24.11527413127089 28.96496076046614 10.066481628030939 0 0 0
1876 101 7 0.06 24.632414577399874 29.571203452795377 12.391899995906817 -1 -1 0
2025 107 7 0.06 29.255177840762787 29.84816285318346 14.916175517832656 -1 0 0
2066 109 7 0.06 26.29407306378561 27.362721444407615 13.369277387865635 0 -1 0
870 61 7 0.06 28.670623434299998 24.459446302698705 9.16658656195096 0 0 0
2073 109 7 0.06 25.0044441083995 25.321855154027155 11.135957329650234 0 -1 0
2061 109 7 0.06 24.338766658986305 25.008490308664 15.388945166768595 0 -1 0
2071 109 12 -0.18 26.796162558048945 24.045254165666375 11.1640747146065 0 -1 0
2024 107 7 0.06 28.83848224704256 28.135916298827617 14.683010066774862 -1 0 0
2062 109 4 -0.12 25.389396824079917 26.776369444729195 13.530021471416237 0 -1 0
1933 104 7 0.06 29.117686870472625 25.56889720878851 15.09039100598436 0 0 0
2076 109 7 0.06 26.473183061511094 23.25445445526772 11.841131925290533 0 -1 0
2056 109 4 -0.12 23.82932249408791 25.971440544373536 15.42472093978948 0 -1 0
2021 107 12 -0.18 28.736466268111663 29.139631311859166 14.27041419507708 -1 0 0
2067 109 7 0.06 24.662079925709957 27.174144003648703 12.82229838461314 0 -1 0
2072 109 7 0.06 26.439705561964207 26.229796387215824 11.313358266018385 0 -1 0
2059 109 4 -0.12 24.92449729955987 26.938631126760992 15.008552086942112 0 -1 0
567 41 5 0.08 29.36509810712896 29.974478910050223 9.969268865239478 0 -1 0
2075 109 7 0.06 27.82049776744592 24.36730008114726 11.351451699861926 0 -1 0
2026 107 7 0.06 27.6912175652073 29.40536904695747 14.428290415692143 -1 0 0
2060 109 7 0.06 23.06152238067443 26.015394296576545 14.652297822496601 0 -1 0
1036 68 7 0.06 23.06382685675035 26.613710004350004 10.880800030526936 0 0 0
2018 107 4 -0.12 29.338515531909064 29.151085527389117 12.843063826591104 -1 0 0
2065 109 4 -0.12 25.747309683600275 25.327173805433976 13.117432460477911 0 -1 0
2022 107 7 0.06 28.651447988568467 28.673966739141196 12.1442203565408 -1 0 0
2070 109 7 0.06 26.725249428209764 24.989486629414735 13.460488597066448 0 -1 0
1935 104 7 0.06 26.99301780358118 24.611654900198015 15.775164946461414 0 0 0
1849 100 7 0.06 6.994401818379282 5.051898461437579 17.699498343050067 0 0 0
2040 108 4 -0.12 4.0924595714742384 5.7254795786723855 20.719884430868404 0 0 0
2043 108 4 -0.12 2.5821335497023448 5.620521482110091 20.60202500894113 0 0 0
2233 116 7 0.06 7.301640324444915 7.516666983706326 19.089850634838605 0 0 0
1846 100 12 -0.18 7.890283782893456 4.443645144787018 17.824036784719212 0 0 0
1851 100 7 0.06 7.672053061228845 3.5815749344881116 18.454351578685177 0 0 0
2045 108 7 0.06 4.348964385543841 6.480621961460457 21.46288624812489 0 0 0
2044 108 7 0.06 4.545601275836053 6.087444405603176 19.796991980221964 0 0 0
2048 108 7 0.06 2.3086089635457436 6.017346880371952 19.624374592081683 0 0 0
2034 108 4 -0.12 6.334962932550625 4.418924615139344 21.043747254923485 0 0 0
2037 108 4 -0.12 4.797238178673512 4.4050505693158915 21.184086257441415 0 0 0
2042 108 7 0.06 4.541920541187597 3.5618068378233185 20.542339147244046 0 0 0
165 12 7 0.06 7.21314269819709 7.12522999167038 16.526437726388963 0 0 0
2041 108 7 0.06 4.4759828840738995 4.016240358442351 22.150371943135067 0 0 0
2033 108 7 0.06 8.921610539228986 3.0900159878745916 20.629182669403612 0 0 0
473 34 7 0.06 5.023183832682126 2.1987122466774442 17.700510451724405 0 1 0
2028 108 10 -0.22 8.487686479903683 3.0254033026991727 21.62699102237729 0 0 0
2239 116 7 0.06 4.9858773563885075 8.50637325165669 18.653031217874933 0 0 0
2039 108 7 0.06 6.770459100537633 5.30449649950536 21.506555996710055 0 0 0
2031 108 4 -0.12 6.928564077805973 3.1961583753106684 21.652334854818186 0 0 0
2038 108 7 0.06 6.536899918453037 4.473849941810251 19.974031891054153 0 0 0
2036 108 7 0.06 6.372839538856658 2.3120989996838968 21.339771777719644 0 0 0
2030 108 11 -0.8 8.855697617885824 5.09480674076465 22.714816706823118 0 0 0
474 34 8 0.13 3.35188252673435 3.7014236071702804 16.520500636841522 0 1 0
2047 108 7 0.06 2.1949224087564274 4.602086112975585 20.57131083830288 0 0 0
2051 108 7 0.06 2.2219731749637504 6.271174797388335 22.61960086295143 0 0 0
1850 100 7 0.06 8.171715218528607 4.046099480847038 16.84892644488741 0 0 0
1848 100 7 0.06 8.652206347197094 5.307330799105372 19.505690533983632 0 0 0
2228 116 10 -0.22 7.50281062393017 8.489669450605355 19.53805048904727 0 0 0
1843 100 4 -0.12 9.045544460374895 5.178628211912299 18.497321953829868 0 0 0
2227 116 9 0.7 9.04350431153564 8.577480294373041 19.589866832715774 0 0 0
2232 116 7 0.06 7.127299886154873 8.559545322279153 20.558930248247055 0 0 0
475 34 8 0.13 5.034184422629459 3.9029556618822236 16.12628231373411 0 1 0
2245 116 7 0.06 3.22536533004115 8.925461813536632 17.1835479870218 0 0 0
2035 108 7 0.06 6.635357786900824 3.2421781196329453 22.701143074093334 0 0 0
157 12 3 0.35 9.38437439904502 8.450916692067825 16.788116769590996 0 0 0
2229 116 11 -0.8 9.648896649264653 8.631562263598202 18.50514788595466 0 0 0
2027 108 9 0.7 9.208819172022576 3.9163084731902584 22.604923920724 0 0 0
1847 100 7 0.06 9.198107142241696 6.18558057156307 18.108917509109972 0 0 0
1844 100 7 0.06 10.921105357608663 4.682189336355327 19.549012344998115 0 0 0
1840 100 4 -0.12 10.394574972078956 4.366485647068953 18.64835516979762 0 0 0
1845 100 7 0.06 10.230071728988175 3.2969768470607645 18.779412610829457 0 0 0
521 38 3 0.35 9.87406477085322 7.6075474791742765 21.728326340275842 0 0 0
1837 100 4 -0.12 11.127304970235906 4.493915942878897 17.40665969127454 0 0 0
1841 100 7 0.06 11.842402410269786 3.6902892474188076 17.230858510200623 0 0 0
1838 100 7 0.06 11.226710779518688 6.578309877161763 17.70372685879577 0 0 0
525 38 5 0.08 11.552765384326682 5.67283259503739 21.508203644699716 0 0 0
1834 100 4 -0.12 11.933860946405224 5.79527643460694 17.430078174903308 0 0 0
1839 100 7 0.06 12.593125500412588 5.712488426298295 18.294139988623538 0 0 0
520 38 2 0.2 11.626400442057502 6.64072093110324 22.00404281055779 0 0 0
519 38 1 -0.48 10.348951932553668 7.124079119923975 22.4772118873216 0 0 0
522 38 3 0.35 9.720499196673927 6.3478197193343595 22.62740643906991 0 0 0
1572 89 7 0.06 12.34991362933696 3.4381406107065904 22.071110651494813 0 1 0
1567 89 7 0.06 12.95648762838389 3.9962590932546918 19.449729711706926 0 1 0
532 38 8 0.13 13.894035333141346 6.1795438511051 20.50920705410029 0 0 0
1832 100 7 0.06 14.349305420495408 7.317068336598458 17.110158735041992 0 0 0
1569 89 7 0.06 14.57409943222833 4.107345452771362 21.110482460063587 0 1 0
1568 89 4 -0.12 13.166412366622675 2.716176495687035 22.084677488141324 0 1 0
1563 89 7 0.06 14.578979648845618 4.154811238961379 18.020028101952335 0 1 0
1565 89 4 -0.12 14.182775461827589 3.1039420283774444 20.942751960529744 0 1 0
1559 89 4 -0.12 14.551184679604619 3.141349570319969 18.420289640159712 0 1 0
526 38 5 0.08 12.291921953089764 6.545486509123873 22.8620043220911 0 0 0
527 38 6 -0.32 13.754748863481435 7.231486520400778 20.75841046009029 0 0 0
524 38 4 -0.12 12.288802544336221 7.561735682437261 21.032494226765017 0 0 0
531 38 8 0.13 14.312552480728167 7.456546510458285 21.667415152211944 0 0 0
530 38 8 0.13 14.11434618418911 7.714231115816123 19.849711473932075 0 0 0
529 38 7 0.06 11.784296549827218 7.738079008930062 20.082513672747794 0 0 0
1562 89 4 -0.12 13.523130329309923 3.073776697158152 19.5763341180497 0 1 0
528 38 7 0.06 12.331792703990164 8.502906383608687 21.58061465045527 0 0 0
1842 100 7 0.06 10.418085462422248 4.546330368099575 16.58061682421264 0 0 0
2230 116 11 -0.8 9.585156921544364 8.809036313197296 20.69834416224421 0 0 0
1831 100 4 -0.12 12.774965095610659 6.0945598093288424 16.17230617625514 0 0 0
1570 89 7 0.06 15.011138937174941 2.4034374048074625 21.048552019907554 0 1 0
1566 89 7 0.06 12.921305145876577 2.174258790935268 19.446872089485762 0 1 0
1564 89 7 0.06 15.559420609861949 3.2133815955826597 18.82815985035255 0 1 0
1828 100 10 -0.22 13.78684423655626 7.233023957418497 16.180287627970323 0 0 0
1561 89 7 0.06 13.325679306541723 2.4840086561989065 16.77031994147962 0 1 0
1347 80 7 0.06 20.959344510046368 7.809207872735559 16.115305413969473 0 0 0
1334 80 4 -0.12 18.501716670749037 4.934235669543267 18.121325306724682 0 0 0
1336 80 7 0.06 17.005258826223525 5.5717281719678065 19.61335572649362 0 0 0
1335 80 7 0.06 18.580227625572622 5.9013135549069204 20.11350266714675 0 0 0
1331 80 4 -0.12 18.01256948828319 5.159977455760966 19.5511225681697 0 0 0
549 40 3 0.35 19.600451685145693 5.512685508679866 22.412042890256235 0 0 0
1339 80 7 0.06 19.389817810297558 4.311003785563319 18.225942489241053 0 0 0
1328 80 10 -0.22 17.982197884358975 3.811702747497426 20.43462568459837 0 0 0
548 40 2 0.2 21.57318028894196 6.135245310094866 21.874495330802105 0 0 0
556 40 7 0.06 20.542590805565773 7.099627921269231 20.37097077432524 0 0 0
557 40 7 0.06 21.062332212516626 5.479381710404702 19.80078561042572 0 0 0
1327 80 9 0.7 19.270159573630494 3.345961903699748 21.06463143362251 0 0 0
552 40 4 -0.12 21.34347988830259 6.3602935371805405 20.377878927261932 0 0 0
1332 80 7 0.06 17.224842327631777 3.8804863809763894 21.215501952152465 0 0 0
1533 88 7 0.06 17.166325321628292 8.125212914252156 21.731223910006605 0 0 0
1341 80 7 0.06 19.399438018479945 7.063913303811221 18.057751269724395 0 0 0
1338 80 7 0.06 17.94258651433462 4.328669529902394 17.40805848446059 0 0 0
1330 80 11 -0.8 19.378910221642787 3.6132573070028964 22.27627510581623 0 0 0
35 3 5 0.08 21.77372476721116 3.9967316846088763 18.315255909622888 0 0 0
30 3 2 0.2 21.982299407972697 3.001290754395688 17.92323499429109 0 0 0
553 40 5 0.08 22.080720004979035 5.173124795677198 21.943878264532625 0 0 0
1337 80 4 -0.12 18.884603344579986 6.285442370604253 17.49471069697952 0 0 0
1538 88 7 0.06 16.371949789279178 8.37206909851027 19.274467811080076 0 0 0
547 40 1 -0.48 20.317249589533425 6.163734161370458 22.69913997011179 0 0 0
36 3 5 0.08 21.07522316161758 2.5223961240054216 17.55450882264287 0 0 0
1333 80 7 0.06 17.468415542781255 3.0175971232834855 19.892859690998005 0 0 0
1342 80 7 0.06 17.98026703798851 6.734538997372004 17.08413249287704 0 0 0
693 50 5 0.08 22.15555172345875 2.83307911024676 22.302656687016135 0 1 0
551 40 3 0.35 20.01227727189417 7.125624546314651 22.656151455224904 0 0 0
1329 80 11 -0.8 20.1278713025796 2.8841621307105467 20.28715621242745 0 0 0
1529 88 11 -0.8 19.601824260640687 8.559809743587262 22.20218610533623 0 0 0
1544 88 7 0.06 16.861032001787876 8.419890713909563 16.689865313988882 0 0 0
29 3 1 -0.48 22.41851825380604 2.220772998983384 18.98229397645994 0 0 0
559 40 8 0.13 22.082655706929604 7.526410850756236 18.892257607391823 0 0 0
555 40 6 -0.32 22.5362084078842 7.004515795688502 19.734873730561212 0 0 0
1340 80 4 -0.12 19.81734110613285 6.027052848130865 16.280326919525134 0 0 0
1345 80 7 0.06 20.71689016627445 5.497664596881477 16.594406503869397 0 0 0
32 3 3 0.35 21.574035820127822 2.2286019819945277 19.53625842418401 0 0 0
554 40 5 0.08 22.209087711701336 6.9101414145670566 22.302565610168365 0 0 0
1539 88 7 0.06 17.966091050193434 8.958260796426643 19.283191462194942 0 0 0
1558 89 7 0.06 16.339472232591785 2.1795602725190797 16.785795807081673 0 1 0
2046 108 12 -0.18 29.758305485749673 6.461184590488406 21.62961562944983 -1 0 0
2049 108 7 0.06 29.896399644667262 7.540823436932384 21.571337044714852 -1 0 0
34 3 4 -0.12 23.113889821284154 3.085551910827185 16.84933279381312 0 0 0
31 3 3 0.35 23.098425255202006 2.6802251548422475 19.571122472432755 0 0 0
1641 92 7 0.06 29.308893051765157 2.720037952020601 22.76883936740311 0 0 -1
2050 108 7 0.06 28.69564008684187 6.240641362294195 21.730557542854076 -1 0 0
851 60 7 0.06 27.6615097083961 4.999819266425167 18.622318837346164 -1 0 0
846 60 12 -0.18 28.033538414981972 5.036146400550296 17.598423630124728 -1 0 0
844 60 7 0.06 28.86742205635007 7.309087336251483 17.523542198491945 -1 0 0
558 40 8 0.13 23.166599715595897 6.186147549045233 19.38707112702826 0 0 0
560 40 8 0.13 23.132581815342178 7.682231917439653 20.34571415438281 0 0 0
843 60 4 -0.12 27.492548976380412 6.137307872588521 16.72550539865653 -1 0 0
837 60 4 -0.12 27.0989278043145 7.779790614385067 18.663327005478692 -1 0 0
1627 92 9 0.7 24.75526756412785 4.039429253038846 21.443050249036045 0 0 -1
1632 92 7 0.06 26.13413985946493 5.383192231761896 20.74085235050177 0 0 -1
1628 92 10 -0.22 26.12627797760894 4.309370967623133 20.927754760734725 0 0 -1
840 60 4 -0.12 27.795197123657424 7.453079615454283 17.390552180856368 -1 0 0
1629 92 11 -0.8 23.944367853741422 3.7106643089348204 20.590472366980606 0 0 -1
1633 92 7 0.06 26.394459658666257 3.9031129217974483 19.95250125172655 0 0 -1
1636 92 7 0.06 28.190170993066264 3.8869179305224577 21.333648961676413 0 0 -1
1631 92 4 -0.12 27.26405276406497 3.8675161811260006 21.908118254536046 0 0 -1
1630 92 11 -0.8 24.482375633972765 4.388401146669134 22.590676865319374 0 0 -1
37 3 6 -0.32 24.28444336776922 3.972086799206377 17.21867242703561 0 0 0
841 60 7 0.06 26.04729670460063 7.527551666087322 18.527187458179544 -1 0 0
41 3 8 0.13 24.604856083569626 3.564921070717448 18.177650054114764 0 0 0
842 60 7 0.06 27.39788335193248 7.131890093904671 19.48730329803117 -1 0 0
1635 92 7 0.06 27.394015583406237 4.567329939808113 22.73362222740395 0 0 -1
40 3 8 0.13 24.011209550444914 5.009016796577236 17.414135500601642 0 0 0
850 60 7 0.06 29.101248503849853 4.872791595813297 17.4521471795943 -1 0 0
848 60 7 0.06 26.415655684541523 6.090280984521441 16.563716240537143 -1 0 0
1634 92 4 -0.12 27.244642780259557 2.442265923324195 22.346344616802075 0 0 -1
849 60 7 0.06 27.623046622303498 4.1154026974341775 17.18391916195997 -1 0 0
845 60 7 0.06 27.580569726913662 8.358731623742305 16.823263993619257 -1 0 0
836 60 7 0.06 26.983417288942693 8.299402231586807 21.157674868542085 -1 0 0
42 3 8 0.13 25.08266692600497 3.912918504406476 16.478790880451328 0 0 0
39 3 7 0.06 23.376389419342754 2.16474116592543 16.328479733632477 0 0 0
1698 94 7 0.06 23.825507709799183 8.071306929702956 16.190201701498168 0 0 0
2234 116 4 -0.12 5.38904814601926 9.51264453894053 18.539198672925572 0 0 0
2238 116 7 0.06 4.904305822484721 9.8972736530128 19.436512309969753 0 0 0
2244 116 7 0.06 2.9161840676690036 10.524706468626409 17.75512981921695 0 0 0
2240 116 4 -0.12 3.47675445219884 9.970477202110619 17.00235019259579 0 0 0
1370 81 7 0.06 5.716991410824873 14.927415385917113 16.38692819469356 0 0 0
2236 116 7 0.06 7.172195816270631 10.566104656907566 18.90719292761385 0 0 0
2231 116 4 -0.12 6.895327088462175 9.554361757561164 18.610871411596435 0 0 0
2242 116 7 0.06 5.2587076182233154 11.253556166261971 17.381581537624193 0 0 0
2237 116 4 -0.12 4.951850888963639 10.212014370317467 17.286103491322873 0 0 0
2235 116 7 0.06 7.359510386304852 9.480683607404146 17.627412334046774 0 0 0
1471 85 12 -0.18 8.49334643221054 13.370603595731676 19.990480152500204 0 0 0
203 15 5 0.08 5.2739043700287755 15.863370428613672 21.5320384090688 0 0 0
1472 85 7 0.06 8.894142872979941 14.715470187473437 21.648551695486603 0 0 0
1476 85 7 0.06 7.861847697260575 12.634159853015994 20.487417083074533 0 0 0
1883 102 7 0.06 5.68469930522453 11.429523925425734 21.47112698661983 0 0 0
445 32 7 0.06 2.9487524482132503 13.179848887053732 17.652803366411703 0 0 0
1880 102 11 -0.8 4.352935674297299 13.456152938782017 21.768175827905253 0 0 0
1474 85 7 0.06 7.784101415563334 14.080181503042718 19.564384954178287 0 0 0
1507 87 7 0.06 8.11148193335498 12.703540776280457 16.999920268434423 0 0 0
204 15 5 0.08 6.7101838914843315 15.514957793258406 22.362841089921588 0 0 0
1886 102 7 0.06 3.622604232523255 10.453501664900228 21.927007493793923 0 0 0
2241 116 7 0.06 5.482576135406723 9.786477857086577 16.434436993517437 0 0 0
441 32 5 0.08 2.718358657632578 14.32572457520504 20.043108511025103 0 0 0
1885 102 7 0.06 4.931544619899025 9.458814922073529 22.25846426694505 0 0 0
1878 102 10 -0.22 5.353501049563924 11.554062964162663 22.502089683109237 0 0 0
1511 87 7 0.06 8.230132029738147 14.97368301559787 16.4336557569178 0 0 0
308 22 8 0.13 8.441528448529336 10.797690278165227 22.766367912278024 0 0 0
442 32 5 0.08 2.24094267026069 15.331750262119632 18.72476199417385 0 0 0
440 32 4 -0.12 2.253172009570322 13.035746903407837 18.47953722135685 0 0 0
444 32 7 0.06 2.7478526891055592 12.34091071343854 19.15819777438339 0 0 0
634 46 3 0.35 2.842314742001438 13.570606432104878 22.692158744449447 1 0 0
1877 102 9 0.7 4.766163885441277 12.868693417214246 22.769667016119797 0 0 0
1881 102 4 -0.12 4.442960205564727 10.356177799686135 22.63808452525502 0 0 0
1369 81 7 0.06 4.42656305313496 15.998699993084461 16.357051965866937 0 0 0
1468 85 4 -0.12 9.466386488814337 14.096099548020538 20.957897200619165 0 0 0
1475 85 7 0.06 9.100832925198247 12.824042540594926 19.269149701493188 0 0 0
1473 85 7 0.06 9.97241659881755 13.31343274781888 21.523098541285364 0 0 0
1829 100 11 -0.8 13.352446683820402 9.502760472674437 16.59893520278517 0 0 0
1465 85 4 -0.12 10.56597053655117 14.81715440807478 20.066474051722412 0 0 0
1470 85 7 0.06 10.907918791722404 14.152722146868681 19.272945533197202 0 0 0
1469 85 7 0.06 11.415341606853271 15.111164466365118 20.683088433416874 0 0 0
129 10 3 0.35 12.254649354808505 9.986992221412983 17.61821011253929 0 0 0
130 10 3 0.35 10.976060712458832 9.597711497051732 18.514582576978917 0 0 0
136 10 7 0.06 12.581887124348988 12.736377251103855 18.113404252081857 0 0 0
132 10 4 -0.12 13.028614498724346 12.119164661700786 18.892871836985528 0 0 0
127 10 1 -0.48 11.530233585762232 10.381670250983246 18.200911020030443 0 0 0
137 10 7 0.06 13.880979923408708 11.686001260922163 18.3694894904409 0 0 0
131 10 3 0.35 11.04541626486684 11.023105435024375 17.589681300815236 0 0 0
128 10 2 0.2 12.093072999396115 10.981979647427096 19.330808325302282 0 0 0
134 10 5 0.08 11.360224248712923 11.347711733714018 20.05001563330831 0 0 0
133 10 5 0.08 12.557442367573405 10.180614191451111 19.905491633971735 0 0 0
138 10 8 0.13 14.042789640819564 12.286850147590343 20.89571042144037 0 0 0
139 10 8 0.13 14.543704549086057 13.523670702152367 19.900785481433097 0 0 0
135 10 6 -0.32 13.666619346832396 12.901156326478214 20.077657695360102 0 0 0
140 10 8 0.13 12.908696657783839 13.590653283424938 20.44945541062425 0 0 0
1542 88 7 0.06 15.400444139480104 10.071932677305831 18.12167491552382 0 0 0
1463 85 7 0.06 11.583162821984548 15.851511769971582 17.93014716308314 0 0 0
1536 88 7 0.06 15.531415514923458 10.050909713011695 20.743229700489767 0 0 0
2199 114 7 0.06 15.001443333218871 11.612386740520549 22.742893166149653 0 0 0
1505 87 11 -0.8 10.632577723017818 11.815420128197124 16.177802344984595 0 0 0
1510 87 7 0.06 9.755066133645776 14.21354943100138 16.594172197177386 0 0 0
1466 85 7 0.06 9.152001072998928 15.710051129087741 18.688847809132472 0 0 0
1462 85 4 -0.12 9.99521085524923 15.982040421712092 19.323753705075312 0 0 0
1527 88 9 0.7 18.795062989418636 9.500771829500946 22.076199593591777 0 0 0
1528 88 10 -0.22 17.26667326667042 9.193535256559175 21.92280704618121 0 0 0
1613 91 7 0.06 16.26225267367826 15.506818201831171 19.950389777792818 0 0 0
1534 88 4 -0.12 16.935136700128048 9.299764326518606 19.375899988718803 0 0 0
1608 91 7 0.06 16.56089911947671 14.18112980873854 17.658530233481237 0 0 0
1545 88 7 0.06 18.193202309055163 9.57417263551677 16.943255072439865 0 0 0
1532 88 7 0.06 16.821269683598437 9.290236242333748 22.912933776829153 0 0 0
581 42 5 0.08 21.971640065591174 9.894130377045355 20.773161255219243 0 0 0
1611 91 7 0.06 17.474913807970925 13.488789197267668 19.857425319155944 0 0 0
1607 91 7 0.06 17.728772799075557 12.863593530894244 17.563475397587126 0 0 0
1535 88 7 0.06 16.948938884958988 10.995165392919608 20.641835350076356 0 0 0
1541 88 7 0.06 16.799407714746483 11.0485969129033 18.19004105016518 0 0 0
1537 88 4 -0.12 16.48804659404909 10.009215802208123 18.085985392539403 0 0 0
578 42 3 0.35 20.815109402656113 11.307143620885308 22.07200981948751 0 0 0
1531 88 4 -0.12 16.617487359493914 9.960188470914218 20.725793781050356 0 0 0
1603 91 10 -0.22 17.604362179915434 13.91418525784426 17.825897619195366 0 0 0
575 42 1 -0.48 21.765585849576553 11.565105886671018 21.84809294627899 0 0 0
2177 114 9 0.7 21.33256368891445 15.040228845399536 22.203157162643954 0 0 0
2179 114 11 -0.8 22.114637811981687 14.043803742849878 22.096865858159415 0 0 0
577 42 3 0.35 21.85189196405575 12.568768642924141 21.920905088253733 0 0 0
1606 91 4 -0.12 17.95752269961267 14.259934398049358 19.257000432546537 0 0 0
588 42 8 0.13 20.275498016847376 10.398118192771276 18.951102446362224 0 0 0
583 42 6 -0.32 20.52868108583126 11.456930480797565 19.004966084423312 0 0 0
586 42 8 0.13 19.832321346028387 11.942528555051203 19.688606360326112 0 0 0
580 42 4 -0.12 22.024238229254173 11.52912476242269 19.383172107415223 0 0 0
587 42 8 0.13 20.35695106066229 11.695138932456556 17.955274729042173 0 0 0
731 53 3 0.35 22.337928771293754 15.373968080325307 18.69774065717917 0 0 0
579 42 3 0.35 22.353332943610948 11.180270607855908 22.573726725811166 0 0 0
2180 114 11 -0.8 21.303869060680345 16.01502972414452 21.470598665357254 0 0 0
732 53 3 0.35 21.292980887579148 15.753684082000063 19.77311487275254 0 0 0
585 42 7 0.06 22.31634155735549 12.577001750487051 19.314499836084856 0 0 0
733 53 3 0.35 20.639643517181664 15.458718930521654 18.31806658870398 0 0 0
1604 91 11 -0.8 19.313197003745227 15.409693007050022 17.20817518311472 0 0 0
1602 91 9 0.7 18.410172124365968 14.666113662752808 16.83791546340258 0 0 0
576 42 2 0.2 22.39845261810169 10.896098401379373 20.72869162978834 0 0 0
2186 114 7 0.06 18.76478156707882 13.770402505592203 22.33415020562109 0 0 0
1610 91 7 0.06 19.03948720776394 14.294079779114101 19.3845672963868 0 0 0
729 53 1 -0.48 21.44952459194857 15.847364328045302 18.779733357475497 0 0 0
584 42 7 0.06 22.462780625622912 11.061973688697504 18.50139158815433 0 0 0
1530 88 11 -0.8 19.232691823262154 10.665682552766679 22.261379510627247 0 0 0
1540 88 4 -0.12 17.11264392704709 9.468832393162732 16.846386937519917 0 0 0
1609 91 4 -0.12 17.314477036855738 15.602363851506318 19.68246937567651 0 0 0
1617 91 7 0.06 18.35654762265229 15.61187587297902 21.551775776150922 0 0 0
1691 94 7 0.06 22.779555816962382 10.456871603723005 16.13696261627547 0 0 0
1687 94 4 -0.12 23.82996368139085 10.737536889009997 16.214142311747104 0 0 0
1684 94 4 -0.12 23.93869574225542 12.230218826479598 16.120624066297147 0 0 0
1689 94 7 0.06 23.16033267764493 12.61961713730363 16.77683003205344 0 0 0
1685 94 7 0.06 25.789776446559927 12.29219568991699 17.306121505868155 0 0 0
835 60 7 0.06 25.85216674320351 9.571467188345796 20.68367077889409 -1 0 0
834 60 4 -0.12 27.404479122645274 9.202075995477253 19.216368263476404 -1 0 0
838 60 7 0.06 28.48194072740479 9.34059894257101 19.12706928074007 -1 0 0
839 60 7 0.06 26.899733453004778 9.908727208670669 18.55761015803298 -1 0 0
775 56 3 0.35 23.60220096529489 14.088200295313868 21.60312629106791 0 0 0
831 60 4 -0.12 26.903667848125142 9.284741364675599 20.69850905131527 -1 0 0
448 32 8 0.13 28.450832236037584 13.224498580065408 17.153633348573237 -1 0 0
833 60 7 0.06 28.73682023642301 10.19367502932907 21.51017277848744 -1 0 0
582 42 5 0.08 23.471961727238707 10.993331941176965 20.890587509089507 0 0 0
443 32 6 -0.32 28.913576574337775 12.4676259448188 17.78695627911368 -1 0 0
447 32 8 0.13 28.185483186354542 12.051741475595076 18.48338039049419 -1 0 0
1680 94 11 -0.8 23.871433079902513 14.6927048479399 18.648705508176118 0 0 0
773 56 3 0.35 24.326216784377085 14.24139327499874 20.28657843663289 0 0 0
1677 94 9 0.7 25.036199318287437 14.760171984936145 18.16374185534966 0 0 0
771 56 1 -0.48 24.551989238930126 14.16312351613869 21.26789857524491 0 0 0
828 60 10 -0.22 27.65464178417799 10.285860410833868 21.6022491639379 -1 0 0
438 32 3 0.35 27.87118545937962 14.636049075687165 19.356313210803044 -1 0 0
774 56 3 0.35 25.055794163347212 13.311051431450597 21.468504084238834 0 0 0
830 60 11 -0.8 26.16192323528988 12.121259249862714 21.071181998443496 -1 0 0
439 32 3 0.35 28.418590013550048 13.664276050365087 20.350215647973315 -1 0 0
827 60 9 0.7 27.316191240529868 11.769556701885604 21.392352035586182 -1 0 0
435 32 1 -0.48 28.709904156495842 14.524211355672803 19.90779460509317 -1 0 0
437 32 3 0.35 28.785266894045918 15.279970975187128 20.57355457663537 -1 0 0
1679 94 11 -0.8 26.10750590975996 15.001566382639096 18.815025711592547 0 0 0
436 32 2 0.2 29.94738635579415 14.397168155596054 19.229595603095813 -1 0 0
446 32 8 0.13 29.199478605746872 11.666441971277344 17.105450101991245 -1 0 0
829 60 11 -0.8 28.32853592681818 12.503010084719032 21.437754512724712 -1 0 0
772 56 2 0.2 25.1439011979329 15.43513443450623 21.703672784472158 0 0 0
778 56 5 0.08 26.06265972727322 15.641084911772385 21.15453384758777 0 0 0
635 46 3 0.35 29.224423939158136 13.356828535525377 22.488523557485614 0 0 0
1692 94 7 0.06 24.147297647942967 10.329210917347803 17.17365018892807 0 0 0
1678 94 10 -0.22 25.295129278938386 14.385614030693494 16.67314015629512 0 0 0
1681 94 4 -0.12 25.292250489037855 12.830708070452625 16.499549282472433 0 0 0
832 60 7 0.06 27.45590181888768 10.038632816562577 22.645066200821926 -1 0 0
633 46 3 0.35 29.769098129893926 14.878932811733359 22.786531409262757 0 0 0
631 46 1 -0.48 29.894394565390563 13.902346243424471 23.01162828323467 0 0 0
1682 94 7 0.06 26.22942069273609 14.832522447552224 16.3333478789365 0 0 0
18 2 3 0.35 5.343261671789757 22.074621116050768 16.223681035751376 1 0 0
198 15 2 0.2 5.846002588031675 16.177913136439585 22.404880231530438 0 0 0
209 15 8 0.13 7.646676152454075 17.5195193689431 20.666737322601858 0 0 0
210 15 8 0.13 6.007352795700047 18.26889967186377 20.191878559195377 0 0 0
1364 81 7 0.06 6.882999144417511 17.027990806809143 17.722856590441886 0 0 0
208 15 8 0.13 7.149947453654555 19.189469671438765 20.96147027703561 0 0 0
205 15 6 -0.32 6.802307839597331 18.156905165460017 20.92916421808982 0 0 0
648 47 3 0.35 3.707054602008635 21.66508238734543 21.30233541006064 0 0 0
649 47 3 0.35 5.032918827683317 21.21054752014044 20.45749685183379 0 0 0
1355 81 11 -0.8 5.979168346471068 20.732016512209633 19.295962796740337 0 0 0
1352 81 9 0.7 6.659154483566981 20.882021542955513 18.29925971379203 0 0 0
645 47 1 -0.48 4.559960003105584 21.125875236599867 21.345883340157535 0 0 0
1353 81 10 -0.22 7.763296050991784 19.846477713223674 18.02910572880485 0 0 0
1354 81 11 -0.8 6.467040636252996 21.848483358268165 17.501105631710608 0 0 0
1357 81 7 0.06 7.951332615062771 19.242062614294507 18.916467540129272 0 0 0
202 15 4 -0.12 6.277368985463177 17.646702612825855 22.265104530389415 0 0 0
647 47 3 0.35 4.285490898669835 20.15731433405605 21.42739893254005 0 0 0
207 15 7 0.06 5.42764721140085 18.271440200248865 22.540353981793444 0 0 0
2289 118 7 0.06 3.4106332221555213 18.949347875458116 20.297793618282846 0 0 0
1359 81 4 -0.12 6.506995093455591 17.733481907895115 16.981918203530967 0 0 0
1363 81 7 0.06 5.617726476814761 18.182345751395548 17.424421330313073 0 0 0
256 19 3 0.35 7.773819131055252 22.975210606704046 17.22332641219917 0 0 0
646 47 2 0.2 5.480993503639667 21.452287646521842 22.46320276116388 0 0 0
652 47 5 0.08 6.44486280067075 20.946188638261034 22.517112055681384 0 0 0
651 47 5 0.08 5.79488532492033 22.49263001658854 22.378079020464565 0 0 0
2291 118 7 0.06 3.099261607909283 18.929327939769724 17.997722861863068 0 0 0
1356 81 4 -0.12 7.60136207790362 18.85260532119137 16.910019440141518 0 0 0
1358 81 7 0.06 8.625138637804287 20.481655083748223 17.824500008881934 0 0 0
2292 118 7 0.06 2.4569789331790153 20.420211131057343 18.659093626974897 0 0 0
2288 118 7 0.06 2.57705180451621 17.58738375328212 19.77610187083724 0 0 0
206 15 7 0.06 7.025695778737856 17.772755075226616 23.047539335979597 0 0 0
2287 118 4 -0.12 2.2727672983921203 19.349530182796467 18.57080546674008 0 0 0
2284 118 4 -0.12 2.4192261477808445 18.650557131959168 19.95731962561269 0 0 0
1360 81 7 0.06 8.60554378125869 18.436066032007883 16.83127591889282 0 0 0
926 63 7 0.06 8.309641311642327 22.23748876832447 21.46059852376136 0 0 0
925 63 7 0.06 8.629039007253812 21.071054529356562 22.65290067714146 0 0 0
22 2 5 0.08 3.1972873292652855 20.825550166636187 16.50924882117326 1 0 0
2282 118 7 0.06 2.6598558165946615 19.280245471153908 22.574042017120682 0 0 0
1361 81 7 0.06 7.312185655129492 19.49945482187858 16.081738622160227 0 0 0
924 63 7 0.06 9.314257063471416 20.877508154108078 21.029577845564596 0 0 0
921 63 12 -0.18 9.109599063508739 21.593371674752664 21.825656320959578 0 0 0
758 55 2 0.2 14.554195198934925 22.839494939211423 16.673131294579854 0 0 0
1673 93 7 0.06 11.894838479495942 16.883899464216235 22.489922287700313 0 0 0
1467 85 7 0.06 9.579496649967178 16.653922872435235 20.074647884356267 0 0 0
1461 85 7 0.06 12.395399342765725 17.229665779137456 19.964991619896313 0 0 0
1455 85 11 -0.8 14.023170940306 19.688011779120313 16.705692391332256 0 0 0
1464 85 7 0.06 10.554744953347043 17.12865630449398 17.573199986221482 0 0 0
1457 85 7 0.06 14.025979014853187 18.00983110714298 18.937245069424996 0 0 0
1459 85 4 -0.12 11.048097428663304 16.66164477068337 18.425602459519276 0 0 0
816 59 3 0.35 15.562947257369935 19.905314142203206 17.020458313556695 0 0 0
1453 85 10 -0.22 13.144244595158556 18.091007897788813 18.30160273593825 0 0 0
1452 85 9 0.7 13.14839714431763 19.36382776822972 17.499012062808877 0 0 0
1460 85 7 0.06 11.403344443176351 18.607874698739423 19.550036632710604 0 0 0
761 55 3 0.35 14.554207208641742 22.094524015830352 18.534133801699905 0 0 0
757 55 1 -0.48 13.84542596116477 22.32599696628423 17.852856993045155 0 0 0
760 55 3 0.35 13.265232370306986 21.53596989753007 17.609295517955857 0 0 0
1656 93 4 -0.12 14.959010851652128 20.724674366192033 21.47528818231219 0 0 0
1661 93 7 0.06 14.074367595189948 20.63984147110183 20.84418112402812 0 0 0
1456 85 4 -0.12 11.911066949191847 17.738777753866337 19.13173681558546 0 0 0
1454 85 11 -0.8 12.212923561361478 20.179501119884225 17.755047023115445 0 0 0
1665 93 4 -0.12 12.357945229946527 19.03287749000922 22.816812316615 0 0 0
1458 85 7 0.06 13.306311141107031 17.276846357701373 17.59523041692436 0 0 0
1669 93 7 0.06 12.212851035155772 19.308818309625817 21.772355169321962 0 0 0
1676 93 7 0.06 9.858945552322826 18.258224047116208 21.68375683837496 0 0 0
1660 93 7 0.06 15.632809917602568 19.951283272697257 21.10657766100547 0 0 0
1653 93 10 -0.22 15.563064124985557 22.109776164853955 21.430383003842895 0 0 0
918 63 4 -0.12 10.331408210739227 22.394123065824388 22.18243213336278 0 0 0
923 63 7 0.06 10.897662500213132 22.600281250594204 21.274169330008668 0 0 0
1654 93 11 -0.8 16.03122274900897 21.907851891645524 19.173708965248156 0 0 0
1657 93 7 0.06 14.920699420037911 22.989676364286876 21.395317035684247 0 0 0
1671 93 12 -0.18 10.04196672602597 18.06720226983225 22.74115945042004 0 0 0
1667 93 7 0.06 14.348313989106789 18.175674415288313 22.590638110830245 0 0 0
1659 93 4 -0.12 14.553843678615767 20.334624227669686 22.886212445328656 0 0 0
1674 93 7 0.06 9.428735356110103 17.184904838974248 22.924421477389465 0 0 0
922 63 7 0.06 11.094203190892754 21.88340966322708 22.770141313998277 0 0 0
763 55 5 0.08 15.166831640809932 22.041675737692895 16.253312817247473 0 0 0
825 59 8 0.13 16.66811597031029 16.637750877918243 16.266398272498993 0 0 0
1616 91 7 0.06 18.926978048587372 16.787787126613566 20.457198150212893 0 0 0
1612 91 4 -0.12 18.003411969621062 16.33063922810971 20.81234303990644 0 0 0
1614 91 7 0.06 17.219785683098408 16.252145807149116 18.812467476110424 0 0 0
737 53 6 -0.32 22.00326694062944 18.743793784175907 16.353783316751866 0 0 0
1658 93 7 0.06 16.109636933599873 22.19289628508665 22.36976341941067 0 0 0
1652 93 9 0.7 16.369112771514935 22.45364685705986 20.24609910380822 0 0 0
1619 91 7 0.06 16.197047913317014 16.670493139748807 21.811127903080557 0 0 0
817 59 3 0.35 16.27865385890525 20.856398534777846 18.206472045390733 0 0 0
819 59 5 0.08 16.138566289527112 18.201375536796682 18.321211968170296 0 0 0
815 59 3 0.35 17.055169600060175 20.51813221490265 16.816025698243237 0 0 0
820 59 5 0.08 17.56505343878864 19.030937280966803 19.00071312379673 0 0 0
813 59 1 -0.48 16.41699675960269 20.144226589393867 17.50378978549515 0 0 0
730 53 2 0.2 21.558450773146532 17.29766783713027 18.50574681831918 0 0 0
735 53 5 0.08 22.121728952679664 17.733549228818916 19.330859870201845 0 0 0
736 53 5 0.08 20.537347985381167 17.672358114321412 18.576758920706485 0 0 0
734 53 4 -0.12 22.291744728113017 17.43189089612796 17.109756398183844 0 0 0
1620 91 7 0.06 16.843240640705275 18.109471880286282 20.909010749754437 0 0 0
543 39 7 0.06 20.33687631558186 20.784896360280705 17.803381298492024 0 0 0
538 39 4 -0.12 20.803023165254405 21.45056919950232 18.529792441137896 0 0 0
541 39 6 -0.32 20.48587591149341 21.165281177729323 20.03949831077169 0 0 0
545 39 8 0.13 19.44786080364507 21.27862104549823 20.35217249753085 0 0 0
544 39 8 0.13 21.007761009215926 21.972706191090758 20.553100459402756 0 0 0
546 39 8 0.13 20.954395595447885 20.2663272133694 20.440069726347577 0 0 0
1615 91 4 -0.12 17.078302720687297 17.250974796841405 21.53814904919572 0 0 0
814 59 2 0.2 16.94130895069787 18.90934708892054 18.115136999358317 0 0 0
1239 76 7 0.06 22.840959431212546 21.370912990276373 22.319464323696188 0 0 0
542 39 7 0.06 21.854215796750793 21.37662669868193 18.25120133646132 0 0 0
1241 76 7 0.06 22.718028375771098 19.10976194057362 21.221318094384465 0 0 0
537 39 3 0.35 18.71139690024198 22.381410937278847 17.47915477587935 0 0 0
1655 93 11 -0.8 17.498255666872083 22.972641699185022 20.406863212947357 0 0 0
1618 91 4 -0.12 17.62885797584758 17.826530362074504 22.928819484755046 0 0 0
1625 91 7 0.06 18.71062800198839 19.30086475520956 21.773931734314466 0 0 0
1621 91 12 -0.18 18.856752813589413 18.665994764273297 22.647816140936534 0 0 0
1624 91 7 0.06 19.689469542326453 18.009497839576483 22.395465092009655 0 0 0
535 39 3 0.35 18.521666395668994 22.909147025245616 18.984669736211654 0 0 0
534 39 2 0.2 20.416108088899357 22.937578225498545 18.254890791833102 0 0 0
738 53 7 0.06 21.91644836892943 16.646701977538896 16.453465753435538 0 0 0
740 53 8 0.13 22.317538058903892 19.586215364427954 16.96993749703716 0 0 0
1430 84 11 -0.8 17.978119547594495 21.547250543534403 16.192839040023962 0 0 0
742 53 8 0.13 20.948763330400467 18.74333270922098 16.077905867531804 0 0 0
823 59 7 0.06 18.400413679772782 19.17556017115166 16.569550912814414 0 0 0
822 59 7 0.06 18.58928024959879 17.812547974846943 17.51569142249752 0 0 0
818 59 4 -0.12 17.805815996558895 18.372578935354326 17.00516669575435 0 0 0
739 53 7 0.06 23.364667636519727 17.26684043951334 17.20814949785523 0 0 0
1234 76 4 -0.12 23.35401227354525 20.46774526279287 22.649844758081272 0 0 0
1237 76 4 -0.12 23.69841607246012 19.5238663541999 21.456783404492597 0 0 0
777 56 5 0.08 24.511412463022666 16.271890831399933 21.407221927251776 0 0 0
1449 84 7 0.06 25.09264277425441 21.048123599343597 16.65291973561271 0 0 0
1245 76 7 0.06 23.920374784283016 20.307026211860634 19.470367791046627 0 0 0
2278 118 10 -0.22 29.76148692282788 18.612257882006904 22.43076635535389 -1 0 0
2285 118 7 0.06 29.047643095109592 19.983719117694346 20.947726338801672 -1 0 0
1242 76 7 0.06 24.230366662373402 18.701933648884655 21.9358884344871 0 0 0
1238 76 7 0.06 24.343846633649964 20.71494049740307 23.03352287657041 0 0 0
1244 76 7 0.06 24.69667727994484 21.28451604637806 20.613035204571037 0 0 0
2298 118 7 0.06 29.647786282171904 17.37489369315596 16.525661891119334 -1 0 0
2297 118 7 0.06 28.700638161586973 16.972858686035458 17.963479076540995 -1 0 0
2279 118 11 -0.8 29.39431376147393 16.232345724128002 21.973704911501127 -1 0 0
2293 118 4 -0.12 28.79314677204648 17.672804883789652 17.133055145810836 -1 0 0
2294 118 7 0.06 29.044123711060855 19.65931181693341 16.809007057045353 -1 0 0
2295 118 7 0.06 28.068463941205735 19.192383490822387 18.252586901611597 -1 0 0
1251 76 7 0.06 24.960589973571878 18.451989077626155 18.260668224296392 0 0 0
1240 76 4 -0.12 24.55231494589483 20.235250308378323 20.35557186959972 0 0 0
1249 76 7 0.06 26.56276087615557 17.892191196219493 18.789333554842123 0 0 0
2290 118 4 -0.12 28.998183375876575 19.03961715686537 17.704526145126614 -1 0 0
1248 76 7 0.06 26.169373993057366 20.27357077184874 19.081245191356288 0 0 0
1247 76 7 0.06 26.549120435011957 19.402565407190192 20.63094230272125 0 0 0
1243 76 4 -0.12 25.81854659780617 19.57466206611359 19.840543023157682 0 0 0
1246 76 12 -0.18 25.60832123260945 18.29869989319029 19.123821189071418 0 0 0
1250 76 7 0.06 24.970344158491844 17.642031001381895 19.715308839841487 0 0 0
2286 118 7 0.06 28.44625359536291 18.35315355362369 20.624646146361826 -1 0 0
2281 118 4 -0.12 29.281567263602337 18.922488553589034 21.032316551530307 -1 0 0
2277 118 9 0.7 30.006482272232613 17.151124267733678 22.62676558016057 -1 0 0
1939 104 7 0.06 27.073756120697595 22.640295310871018 17.01596387838336 0 0 0
2296 118 12 -0.18 27.514669463223537 17.618605663443297 16.209071736042098 -1 0 0
2299 118 7 0.06 26.583964271840347 18.116476210774948 16.481099552548486 -1 0 0
1942 104 7 0.06 27.267908168073397 22.957824358633918 19.444042183283365 0 0 0
1938 104 7 0.06 28.65828652668122 22.8613924403572 17.579666482904834 0 0 0
1738 96 7 0.06 26.505761274940934 21.22867924712281 22.98972901599848 -1 0 0
1733 96 7 0.06 29.299998150876423 21.79925207856418 22.54973597430974 -1 0 0
1728 96 10 -0.22 29.16901124076866 22.83150498152098 22.874363059240885 -1 0 0
2301 118 7 0.06 27.34059962676076 16.54485036121585 16.139533107487694 -1 0 0
468 34 4 -0.12 4.564738681340268 29.847865652192368 16.758793840628197 0 0 0
472 34 7 0.06 5.385838380423479 29.331981967950384 16.2610531916542 0 0 0
253 19 1 -0.48 8.609465421736633 23.369288993969814 16.815299452021215 0 0 0
336 24 8 0.13 7.94986490475732 23.505054717038217 19.398838401231348 1 0 0
1730 96 11 -0.8 3.219051324595862 23.461842739087984 21.736493060055597 0 0 0
330 24 5 0.08 5.196631850893998 23.36405578683484 18.92755251656043 1 0 0
340 25 3 0.35 8.42593746210236 27.33832227078092 16.950198271975975 0 0 0
2005 107 11 -0.8 6.267182569713804 26.88352042442085 16.744738940656415 0 0 0
469 34 5 0.08 2.8552706494974247 29.331961169665547 17.880248507986657 0 0 0
332 24 7 0.06 6.225184532099037 24.061950960014855 21.05223765042616 1 0 0
464 34 2 0.2 3.4114105298107216 28.84812827413421 17.077316009347605 0 0 0
1930 104 11 -0.8 3.2554214572304834 24.2261491009429 16.84021353433735 1 0 0
327 24 3 0.35 3.4969684686086153 24.777289830300063 18.77064517942807 1 0 0
325 24 3 0.35 3.7245106755658517 24.35365072999827 20.370740291668472 1 0 0
324 24 2 0.2 5.415783033024841 24.41834182386226 19.096490709828068 1 0 0
329 24 5 0.08 5.59732479652072 25.01954749285534 18.205603085154127 1 0 0
323 24 1 -0.48 4.126576924230038 24.802110173278287 19.559990251761743 1 0 0
326 24 3 0.35 4.207748466053344 25.728146446501935 19.954903461970886 1 0 0
328 24 4 -0.12 6.451398450975655 24.692884290099457 20.19268148157375 1 0 0
331 24 6 -0.32 7.860048550690828 24.54114873565386 19.725225604154403 1 0 0
467 34 3 0.35 4.0937811707505505 27.776332882419975 18.59108087330015 0 0 0
333 24 7 0.06 6.37776931714577 25.684821771611094 20.638467538267996 1 0 0
1127 72 9 0.7 3.5837109401666973 28.2596440174025 20.901812686238596 1 0 0
1130 72 11 -0.8 4.263012875485848 27.487427230530393 20.19957312335724 1 0 0
463 34 1 -0.48 3.956898773045796 27.678825248383845 17.595167039771994 0 0 0
466 34 3 0.35 4.828583286156533 27.46145644590576 17.133641407859546 0 0 0
465 34 3 0.35 3.361934288364498 26.864296663842246 17.54369976582955 0 0 0
334 24 8 0.13 8.127038993723742 25.10051939431373 18.82861699663685 1 0 0
1129 72 11 -0.8 2.594151588602223 28.845753193530626 20.42667530446075 1 0 0
345 25 6 -0.32 7.504335281843559 28.11555386325288 19.782387834829247 0 0 0
350 25 8 0.13 7.219629385230432 27.85106140618643 20.800755496140845 0 0 0
1927 104 9 0.7 2.2742453774755074 24.966750733443046 16.890831668721617 1 0 0
1128 72 10 -0.22 3.92510335743797 28.505812359838337 22.366971954917858 1 0 0
335 24 8 0.13 8.573134865431435 24.72848005067549 20.528033960211193 1 0 0
348 25 8 0.13 7.2162548751551325 29.161743927264382 19.679516813560546 0 0 0
349 25 8 0.13 6.843643404336035 27.498381242575743 19.173560576681002 0 0 0
1135 72 7 0.06 5.725714073444921 27.140197850297895 22.353731112110477 1 0 0
1132 72 7 0.06 2.9931243034526442 28.684944057006376 22.90308132676713 1 0 0
1133 72 7 0.06 4.511810648469235 29.423264315604225 22.320680790962246 1 0 0
1136 72 7 0.06 4.258572415830528 26.4497249369572 22.933627959388676 1 0 0
343 25 5 0.08 8.896218731364181 29.364989369271477 17.966054953179 0 0 0
255 19 3 0.35 8.299537471064408 24.268363359373744 16.475153954151487 0 0 0
342 25 4 -0.12 9.036920713833965 27.856286752071288 19.543360283162045 0 0 0
2032 108 7 0.06 8.760368607767052 30.030866925855598 22.09579489538434 0 -1 0
1131 72 4 -0.12 4.840674590057517 27.371178330950666 22.94655450155033 1 0 0
470 34 5 0.08 2.746619437363499 28.61917922635903 16.244416529122603 0 0 0
1553 89 10 -0.22 15.400358398247477 29.90834738943237 16.279048324966052 0 0 0
759 55 3 0.35 13.291194567563732 23.092833651285495 18.20623688622072 0 0 0
764 55 5 0.08 15.30442736663478 23.61037015505966 16.849169693635567 0 0 0
1571 89 12 -0.18 12.660665709826118 29.23004015097178 21.97484442445355 0 0 0
1575 89 7 0.06 11.905774615754003 29.164901833524706 21.191273889093136 0 0 0
1556 89 4 -0.12 14.219971507715417 30.044015073065687 17.255590041697594 0 0 0
919 63 7 0.06 9.61578472614083 24.344187264372586 22.398219118257856 0 0 0
337 25 1 -0.48 9.381088307242544 27.629628606010048 17.10157822357825 0 0 0
1576 89 7 0.06 13.44229023407479 28.47690639894002 21.875149497312762 0 0 0
257 19 3 0.35 9.429684888516453 23.563138271192035 17.37185272465028 0 0 0
346 25 7 0.06 9.7303701675573 28.18871092666307 20.315829292899856 0 0 0
338 25 2 0.2 9.563871701945814 28.53747699538574 18.205949095387425 0 0 0
347 25 7 0.06 9.166558198002708 26.778326245798738 19.44701908609346 0 0 0
344 25 5 0.08 10.542706308675957 29.01589620037204 18.17302051799915 0 0 0
1157 73 7 0.06 12.372008719871713 24.455613318128268 20.00229256693424 0 0 0
1154 73 11 -0.8 10.995912040634195 23.819048661781817 17.896236551770485 0 0 0
1163 73 7 0.06 14.132547412645492 25.822256688310215 17.832311333637783 0 0 0
1153 73 10 -0.22 11.914286773827031 25.33885422936616 19.556801296334225 0 0 0
1158 73 7 0.06 11.130278954327219 25.630111645839815 20.255791442979064 0 0 0
339 25 3 0.35 9.933053622091581 26.78825554074811 17.18826224002436 0 0 0
1155 73 11 -0.8 11.424814656440894 25.85315514181291 17.23995264283706 0 0 0
1156 73 4 -0.12 13.029634111176062 26.367933898835513 19.66831537385913 0 0 0
1160 73 7 0.06 13.33347985628015 26.529354701334967 20.702582034407378 0 0 0
1152 73 9 0.7 11.396867278234167 24.978333440232017 18.122403551870317 0 0 0
1161 73 7 0.06 12.634550352041137 27.358952280899455 19.444982320634338 0 0 0
1159 73 4 -0.12 14.302390645292544 26.021740022823202 18.890350096098867 0 0 0
1164 73 7 0.06 14.496717136662625 24.96754581654926 19.087829537019903 0 0 0
1162 73 4 -0.12 15.53574335229439 26.977706015926863 19.20021428031515 0 0 0
1167 73 7 0.06 15.621590260667984 27.90293131446604 18.63041179196733 0 0 0
1166 73 7 0.06 15.500245215194061 27.360373483615938 20.220210309679462 0 0 0
290 21 7 0.06 15.646547384163224 28.41270960952999 22.50260699070527 0 0 0
913 63 7 0.06 12.890992194613439 24.06593474999141 22.47424910239046 0 0 0
914 63 7 0.06 12.129915349758768 25.635210366611673 22.602906642086953 0 0 0
341 25 3 0.35 9.626979972785385 28.200681817274102 16.3056357126064 0 0 0
87 7 3 0.35 11.943765597783507 26.774509693400972 16.092900543655063 0 0 0
1560 89 7 0.06 13.96305401145883 29.09263350039691 17.721372107152682 0 0 0
1574 89 7 0.06 12.0959152825749 29.023308794313355 22.883912887625733 0 0 0
915 63 4 -0.12 10.077039747507287 23.60095256287739 23.048551563108184 0 0 0
533 39 1 -0.48 19.041074662577195 23.075525748470188 18.13459808424309 0 0 0
2057 109 7 0.06 22.39448271877575 25.233984471812477 16.88422512096374 0 -1 0
1169 73 7 0.06 16.97375719664712 25.938305171395484 18.054221198293817 0 0 0
381 28 3 0.35 18.277977886352094 23.451204045921568 21.982438730344853 0 0 0
540 39 5 0.08 20.846702966548307 23.212967309688256 17.29216793427917 0 0 0
539 39 5 0.08 20.78205181832471 23.58354191285839 19.05295250849896 0 0 0
1165 73 4 -0.12 16.888751263937237 26.299928236689563 19.07895979198375 0 0 0
1170 73 7 0.06 16.862523736644413 25.451906070051233 19.76325283313337 0 0 0
694 50 5 0.08 21.437547720171636 29.170372497216473 22.448210074988904 0 0 0
1172 73 7 0.06 17.83745458902488 27.581483926148156 20.501979953159637 0 0 0
536 39 3 0.35 18.709545522580854 23.997002891836246 17.887501659576944 0 0 0
1173 73 7 0.06 18.02935038246725 28.198167971860613 18.911254346695028 0 0 0
1168 73 4 -0.12 18.04276082284269 27.267542264137845 19.47856587796054 0 0 0
1175 73 7 0.06 19.716979536900826 26.513693666607754 18.283703754490517 0 0 0
1176 73 7 0.06 20.283159012877302 27.04988891436265 19.873401476818234 0 0 0
1171 73 12 -0.18 19.43658066946894 26.629413549848064 19.33063820981032 0 0 0
1174 73 7 0.06 19.351062806322254 25.59878860538048 19.675000437868697 0 0 0
388 28 7 0.06 20.480038859354817 24.909941236251566 21.713761599273596 0 0 0
2052 109 9 0.7 22.42575394605616 27.28681946448501 17.04753069683687 0 -1 0
384 28 4 -0.12 20.343965165174314 25.33898196876485 22.70648231166767 0 0 0
292 21 8 0.13 17.915045408298162 29.207251557210814 22.297380027651485 0 0 0
33 3 3 0.35 22.64158392341052 29.260335803699338 18.6085343014888 0 -1 0
391 28 8 0.13 19.984270730520077 27.5347771715162 22.191984249250343 0 0 0
387 28 6 -0.32 20.717485621319568 26.852484534945432 22.62205292675352 0 0 0
2055 109 11 -0.8 23.049181733185645 28.037368953775093 17.823868608117177 0 -1 0
688 50 2 0.2 21.958612511032936 29.960431302357215 22.98893641754085 0 0 0
2054 109 11 -0.8 21.31826251065527 27.49190535507333 16.508791893282734 0 -1 0
379 28 1 -0.48 18.563068866086176 23.713791552726782 22.91510126706675 0 0 0
386 28 5 0.08 18.24206021678652 25.733367602654784 22.686776623219185 0 0 0
390 28 8 0.13 21.54717667530468 26.841342035040082 21.915246702715006 0 0 0
1638 92 7 0.06 27.13455346450779 29.674014009908323 21.534736226630937 0 -1 -1
1948 104 7 0.06 25.254429820385592 23.359390573883225 20.678010224009643 0 0 0
1727 96 9 0.7 29.967418330457257 23.732281837265585 21.93849096385402 -1 0 0
1929 104 11 -0.8 30.03018129256794 25.753252180431623 17.81735552568016 0 0 0
1949 104 7 0.06 23.54599682610695 25.29408718887534 21.389117257699347 0 0 0
2053 109 10 -0.22 23.160304819477172 26.005725809557838 16.80664769793365 0 -1 0
1944 104 7 0.06 25.116634316444696 23.636548279372168 18.117459013457257 0 0 0
1951 104 7 0.06 23.281244543798703 24.706856557477813 19.840143103658495 0 0 0
1950 104 7 0.06 24.13019856192529 26.283132851883675 19.964009799170583 0 0 0
1946 104 12 -0.18 24.008686549545754 25.2925224454514 20.40220175186176 0 0 0
1729 96 11 -0.8 29.404921727863346 24.718187888364948 21.400200317836884 -1 0 0
2058 109 7 0.06 23.846969903624345 25.622289475978913 17.56133568029305 0 -1 0
1934 104 4 -0.12 27.730913975143586 23.411062353758556 17.41864010552043 0 0 0
1937 104 4 -0.12 27.197098531712875 23.80650793991645 18.763741887950932 0 0 0
411 30 3 0.35 29.734470895712104 27.524410833740365 20.2189103424562 0 0 0
418 30 8 0.13 25.619431613789413 29.08204806649135 19.60267699244324 0 0 0
1940 104 4 -0.12 25.732052880116367 24.224280831372162 18.79857345737298 0 0 0
419 30 8 0.13 26.056872448119787 29.778003430142693 18.06878148943764 0 0 0
409 30 3 0.35 29.0792907258868 26.08169254062117 20.704960528312657 0 0 0
1947 104 7 0.06 26.09100927880896 24.892800393307667 20.760546394831817 0 0 0
1941 104 7 0.06 27.817323872827046 24.568586002017284 19.23559349950508 0 0 0
417 30 7 0.06 28.306107054040016 29.241656336714513 19.107014502444375 0 0 0
410 30 3 0.35 29.38171431997766 26.315295921421093 19.117901015260884 0 0 0
1945 104 7 0.06 25.759141984048608 25.208154734131693 18.33023088638755 0 0 0
416 30 7 0.06 27.921588300170622 28.16545641969255 17.825525337066125 0 0 0
1943 104 4 -0.12 25.25283872958733 24.3782389681549 20.290670791483976 0 0 0
1931 104 4 -0.12 27.79451472879 24.664309034583777 16.51199366741008 0 0 0
1936 104 7 0.06 27.618079783603676 25.586115343313644 17.066277236544806 0 0 0
407 30 1 -0.48 29.102458836600793 26.776265153564395 19.972074773304637 0 0 0
420 30 8 0.13 25.59674809816224 28.183036977717535 18.079289308687542 0 0 0
415 30 6 -0.32 26.171205043255636 28.88518259088921 18.683505354371494 0 0 0
412 30 4 -0.12 27.636327887786784 28.422400112117845 18.84566889095613 0 0 0
408 30 2 0.2 27.769136450523078 27.34367314076528 19.906053152507923 0 0 0
414 30 5 0.08 27.210478599687335 26.43835030409517 19.66861196004083 0 0 0
413 30 5 0.08 27.39858074935864 27.8710596528776 20.785051622465726 0 0 0
700 50 8 0.13 23.809669095027076 27.760914013737548 22.15289278589337 0 0 0
698 50 8 0.13 24.309350879352213 29.35078819432794 21.68454771723293 0 0 0
695 50 6 -0.32 24.241358854221133 28.682608150630035 22.54303414431176 0 0 0
1735 96 7 0.06 27.318443494842533 23.079284924831573 21.82618567590922 -1 0 0
699 50 8 0.13 25.25467546959403 28.462957324774234 22.87923257063874 0 0 0
1731 96 4 -0.12 27.612922847759794 23.10917479057758 22.87522091827251 -1 0 0
1642 92 7 0.06 28.897532062009624 29.01332272935831 22.836305380767197 0 -1 -1
1717 95 7 0.06 3.8505072848435553 6.009743913134534 29.231110938365646 0 0 0
67 5 7 0.06 4.7351113520591115 7.155461202615576 24.66666665979018 0 0 0
66 5 7 0.06 5.594918741329326 6.240369374888139 23.47206242030887 0 0 0
1709 95 4 -0.12 3.4859463879258796 8.17448276365532 29.155711560863363 0 0 0
1713 95 7 0.06 2.686385944634862 8.25732044534331 28.419554347246414 0 0 0
70 5 8 0.13 4.052427460385679 4.7482184371945255 24.260782344892984 0 0 0
62 5 4 -0.12 5.5136205639371045 6.402020065335486 24.546932684591663 0 0 0
1180 74 11 -0.8 7.35922790876051 4.086416310114472 26.993298859053773 0 0 -1
65 5 6 -0.32 4.844553781695382 5.060534458154917 24.941282921742435 0 0 0
68 5 8 0.13 5.558552224423218 4.250911224685174 25.09228914314897 0 0 0
58 5 2 0.2 6.905652311642819 6.796425208828642 25.209662108256836 0 0 0
69 5 8 0.13 4.437135556295355 5.1632835785399 25.94703607453148 0 0 0
64 5 5 0.08 6.7118726861725095 7.206667492130214 26.200740854571535 0 0 0
63 5 5 0.08 7.302863390210553 7.6207220632574435 24.61734088331261 0 0 0
59 5 3 0.35 7.649057827484816 5.058331660743185 25.839355278491617 0 0 0
57 5 1 -0.48 7.8996293412923 5.788158806643919 25.187698922114905 0 0 0
1711 95 7 0.06 4.853462249518176 7.425304962461856 27.78821625526095 0 0 0
1177 74 9 0.7 6.668816855028732 4.212642394398199 28.012831810547848 0 0 -1
60 5 3 0.35 8.102262621418012 5.429672203444934 24.265464916166724 0 0 0
1179 74 11 -0.8 6.876959394278057 5.240971931140496 28.62829992722688 0 0 -1
1178 74 10 -0.22 5.6502822671227655 3.15584724773747 28.504050982685023 0 0 -1
1183 74 7 0.06 4.753150433036852 3.4604270783948596 27.96509640971546 0 0 -1
1706 95 4 -0.12 4.886280198447906 8.226876230176227 28.526113840913183 0 0 0
1647 92 7 0.06 2.4930084047864036 2.525218587052368 25.143447352113867 1 0 -1
311 23 3 0.35 8.128804373600879 6.270724272684007 28.73982885694012 0 0 -1
312 23 3 0.35 8.20044783336564 7.7718351743126695 28.311929023419157 0 0 -1
1710 95 7 0.06 5.684103636721521 8.162722151288676 29.26601141404491 0 0 0
61 5 3 0.35 8.71629946825307 6.193987796312771 25.62179705471598 0 0 0
1895 102 7 0.06 2.6145377758662587 8.451892725830316 26.192111087084612 0 0 0
1182 74 7 0.06 5.927910801060291 2.1769844095845974 28.1131080917029 0 0 -1
1192 74 7 0.06 8.156962745646432 2.2705960580800437 29.557549341130457 0 0 -1
309 23 1 -0.48 8.777720220764468 7.04403307253349 28.70835013193635 0 0 -1
1891 102 7 0.06 2.83461928483252 8.262504177882295 23.942648813151166 0 0 0
1704 95 11 -0.8 7.389083065271262 8.964938624644883 27.539907431672344 0 0 0
1712 95 4 -0.12 3.4144136087992383 6.804610237286373 29.836169816449633 0 0 0
1714 95 7 0.06 3.4428024094496834 8.929114675500458 29.941049523675435 0 0 0
1573 89 7 0.06 13.504155880876382 2.682575021085599 23.120479933530323 0 1 0
523 38 3 0.35 10.389828399806394 7.661399116007891 23.331439434572946 0 0 0
2029 108 11 -0.8 10.208114316537102 3.4682812221545998 23.247315881345383 0 0 0
665 48 5 0.08 9.411538373728922 3.0414652562154454 26.121600474294922 0 1 0
316 23 5 0.08 10.153694849591462 8.17008446821874 29.67129813344215 0 0 -1
1267 77 7 0.06 14.515618664964359 8.738006366651575 29.24109746179265 0 0 0
310 23 2 0.2 9.382455937764117 7.443011454501058 29.925545655762914 0 0 -1
318 23 7 0.06 10.920692336554136 5.768436718545368 30.03930515702222 0 0 -1
1783 98 7 0.06 14.1945095333409 3.7394039999269326 28.487108006818097 0 1 0
1778 98 10 -0.22 13.884181288472776 2.7376421515020777 28.784187066277724 0 1 0
659 48 1 -0.48 11.255097171052256 3.655452209779113 25.644313772018148 0 1 0
663 48 3 0.35 11.077954714599532 4.538183052082707 26.102020324543997 0 1 0
662 48 3 0.35 11.055126935293059 3.628954628890382 24.65466805676575 0 1 0
661 48 3 0.35 12.189970295805983 3.275331502102208 25.6844260487587 0 1 0
1252 77 9 0.7 10.8002531933897 6.950595242836312 25.868658911868714 0 0 0
1254 77 11 -0.8 10.25887061883518 6.111129110507001 26.64621819068379 0 0 0
1259 77 4 -0.12 14.171337792195335 7.209830861524761 27.724932215782555 0 0 0
1258 77 7 0.06 12.753014723963394 6.336160402444199 25.53595670010339 0 0 0
1253 77 10 -0.22 12.25755638909762 7.190116230532439 25.997873275922526 0 0 0
1256 77 4 -0.12 12.63482692435564 7.269865764190785 27.47586103164311 0 0 0
1260 77 7 0.06 12.253970089560745 6.415409803827714 28.035271006836442 0 0 0
1262 77 4 -0.12 14.68966661819583 7.67013875028966 29.10898952108513 0 0 0
1261 77 7 0.06 12.24406282734878 8.168584266171855 27.953034896565065 0 0 0
666 48 5 0.08 10.584263852841199 2.596785078683401 27.333493192395462 0 1 0
660 48 2 0.2 10.416978361933914 2.6430516145370415 26.257407049559475 0 1 0
313 23 3 0.35 9.44571749186913 6.675972369094205 28.046232723301408 0 0 -1
1255 77 11 -0.8 10.067340511601667 7.732765538605916 25.20497402382198 0 0 0
1264 77 7 0.06 14.48667514355327 6.17887799167326 27.564355227827487 0 0 0
1266 77 7 0.06 14.054074704503646 7.147644372120429 29.823908364373658 0 0 0
1780 98 11 -0.8 13.636814477126649 2.4659450633626507 26.347585818282315 0 1 0
1782 98 7 0.06 12.900571232815624 2.6602799305713836 29.247450207868557 0 1 0
1263 77 7 0.06 14.648487998422079 7.780122277003315 26.927949310776807 0 0 0
1257 77 7 0.06 12.586698727862636 8.162883923465635 25.632531358849093 0 0 0
1781 98 4 -0.12 15.047979466159092 2.2283704276146197 29.65648348339305 0 1 0
999 66 7 0.06 14.869407730576016 6.462379895774606 24.57008785207917 0 0 0
996 66 12 -0.18 15.94166387980072 6.627951480624383 24.46549710931053 0 0 0
994 66 7 0.06 15.612180890694004 4.241032270107601 25.393924036973342 0 0 0
1198 74 7 0.06 10.676367291789477 2.1594854553309504 30.02262228288819 0 0 -1
293 21 8 0.13 17.412320402436897 2.1936480292656584 23.461793257913616 0 1 0
1001 66 7 0.06 16.151103054056037 6.149543749804873 23.50875906291317 0 0 0
1000 66 7 0.06 16.14862239980807 7.6797074327465 24.267850981423074 0 0 0
998 66 7 0.06 16.43986568096959 6.26549081128626 26.56303297152228 0 0 0
997 66 7 0.06 17.85056893150574 6.287358252921916 25.4078024955578 0 0 0
691 50 3 0.35 20.335261745496933 2.8442364381623086 23.573384826482602 0 1 0
995 66 7 0.06 17.169753269518672 4.199975087836654 24.683490069406474 0 0 0
990 66 4 -0.12 16.652118598416767 4.4981254073851 25.595217648141947 0 0 0
993 66 4 -0.12 16.821432967352727 5.974615410886108 25.584317334478598 0 0 0
1265 77 4 -0.12 16.087403296288556 7.36134161698337 29.280040324195646 0 0 0
1270 77 7 0.06 16.098255363834475 6.280399353971338 29.140281621983856 0 0 0
550 40 3 0.35 20.40233597877465 5.903274030035238 23.671255817146434 0 0 0
690 50 3 0.35 21.638080701980282 3.1340442132427624 24.597041010033386 0 1 0
988 66 7 0.06 19.21203219734328 3.0095374960010997 26.73615191139404 0 0 0
979 66 11 -0.8 22.246689619358676 4.456814845781825 25.361363592889955 0 0 0
989 66 7 0.06 19.058094678558888 4.2665029070785545 25.619316346049153 0 0 0
991 66 7 0.06 16.895139973406422 4.096565883442979 27.736322247437712 0 0 0
987 66 4 -0.12 17.303412865297986 3.792621233859379 26.772466813028576 0 0 0
984 66 4 -0.12 18.803325533754734 4.016252790324836 26.649148369138366 0 0 0
981 66 4 -0.12 19.530583966953937 4.925739094745039 27.661684540500254 0 0 0
986 66 7 0.06 19.20346321786575 4.612755048059048 28.65320828698127 0 0 0
985 66 7 0.06 19.044800259178885 5.9014410467451714 27.671993303501683 0 0 0
978 66 10 -0.22 21.090366926364865 5.0462203003351025 27.35744707453516 0 0 0
5 1 3 0.35 20.778390662703373 7.881181299926728 24.915307459072167 0 0 -1
980 66 11 -0.8 20.970326082630645 6.289697079139564 25.46000329393137 0 0 0
977 66 9 0.7 21.471995737188706 5.253176439415901 25.940321966455258 0 0 0
983 66 7 0.06 21.57497795318519 4.122609202831551 27.67396097601938 0 0 0
982 66 7 0.06 21.51951484522511 5.85869799229948 27.94379039934341 0 0 0
3 1 3 0.35 20.423276569209737 9.014612622995603 23.64595816493571 0 0 -1
1 1 1 -0.48 20.850783240766006 8.815708934568026 24.539134533766553 0 0 -1
10 1 7 0.06 19.0535876773573 8.421847445920804 26.313401418936312 0 0 -1
1269 77 7 0.06 16.73397657252869 7.948565871640036 28.627968915356092 0 0 0
687 50 1 -0.48 21.134600672163955 2.4509802045199276 24.04929998460679 0 1 0
2096 110 12 -0.18 22.917129731837115 8.558482394439071 29.87739601872271 0 0 0
2099 110 7 0.06 22.542329740452814 7.578477591095254 29.58209618898206 0 0 0
4 1 3 0.35 21.837367830255747 8.856412033362606 24.32680712279635 0 0 -1
992 66 7 0.06 17.032090479194014 2.738946791619875 26.837587956227587 0 0 0
1639 92 7 0.06 26.46869878570333 2.222480787516933 23.079619353309923 0 0 -1
2098 110 7 0.06 25.133708796370666 8.487058444221843 29.403863375334918 0 0 0
1649 92 7 0.06 28.85596223639949 2.715883188837496 27.183562593482325 0 0 -1
1720 95 7 0.06 29.271850872394655 6.510513819777721 29.390268140282714 -1 0 0
1899 102 7 0.06 28.434886286805302 8.744112297869417 27.882858543013178 -1 0 0
102 8 3 0.35 24.728900629082712 5.273256387242981 23.869056583498107 0 0 -1
1640 92 4 -0.12 28.326212420516725 2.242376369465878 24.668953898658668 0 0 -1
103 8 3 0.35 23.37951929299391 5.384541748586967 24.73838607035195 0 0 -1
108 8 7 0.06 25.95207771274877 4.008471706785437 25.50635738672677 0 0 -1
109 8 7 0.06 24.544693599129502 3.9804767201907456 26.587155572958743 0 0 -1
111 8 8 0.13 25.80110511184408 5.04903200887065 28.417094222412363 0 0 -1
112 8 8 0.13 26.709065578836857 3.6017621842593828 27.943011229510038 0 0 -1
110 8 8 0.13 27.259125681460706 5.144279252222107 27.4189282373801 0 0 -1
106 8 5 0.08 25.923997903090818 6.510585356852132 25.658599581352 0 0 -1
104 8 4 -0.12 25.45667172059437 4.5199855399177915 26.33159246573478 0 0 -1
100 8 2 0.2 25.02601805868737 5.9063011990724235 25.787281831255093 0 0 -1
99 8 1 -0.48 24.271277209149996 5.83023501845839 24.57647768295022 0 0 -1
105 8 5 0.08 24.417459863121646 6.432846720512636 26.522464237151233 0 0 -1
101 8 3 0.35 24.06797912418065 6.766164428206355 24.255861557787213 0 0 -1
107 8 6 -0.32 26.349326403091485 4.573222860358047 27.603985698517377 0 0 -1
1645 92 7 0.06 28.080747004795025 3.2765308800052324 24.910527103336694 0 0 -1
880 62 11 -0.8 23.51958439985534 8.31724047649707 24.069405071960293 0 0 0
1901 102 7 0.06 26.992922880273003 8.244821104149244 27.070639931677828 -1 0 0
1897 102 7 0.06 28.496115508124923 7.7512899331226395 25.262745453485582 -1 0 0
1893 102 4 -0.12 28.5984854780919 8.778582910096844 25.612424977888807 -1 0 0
1896 102 12 -0.18 27.847797373364255 8.915011548531545 26.980524650372978 -1 0 0
697 50 7 0.06 23.913125826202194 2.386074794801562 24.008004513292914 0 1 0
490 35 8 0.13 2.637087221495747 14.507947968200172 28.37832781761918 0 0 0
1889 102 7 0.06 4.7403974609787785 9.458773997791845 24.533035292913073 0 0 0
1703 95 10 -0.22 5.13667147435735 9.64344375201728 27.933999532321973 0 0 0
1707 95 7 0.06 4.5278940035903705 9.857378634816595 27.055530243936424 0 0 0
1882 102 7 0.06 6.150614425163483 11.42293571953646 23.233869947363985 0 0 0
200 15 3 0.35 4.973113490356248 15.0302368142311 23.87759417923331 0 0 0
1879 102 11 -0.8 4.689399969665045 13.349336881800717 23.909508098020236 0 0 0
480 35 3 0.35 5.664085541892937 13.157083792508018 25.315049221624538 0 0 0
1702 95 9 0.7 6.541092282107764 9.88442070158698 27.509443895224887 0 0 0
484 35 5 0.08 5.712324306531457 14.472989733255538 27.86556546658179 0 0 0
477 35 1 -0.48 6.154861351225898 13.477156544646787 26.137716221844098 0 0 0
479 35 3 0.35 6.556817042879581 12.686961883751536 26.62156821679955 0 0 0
478 35 2 0.2 5.191837876911157 14.086898621525718 26.98914438910385 0 0 0
1705 95 11 -0.8 6.738546499825294 11.085973159581089 27.167457560873213 0 0 0
483 35 5 0.08 4.7837540806862755 14.955389449087335 26.47215529562562 0 0 0
481 35 3 0.35 6.884551134292433 14.146841261416585 25.93981589622504 0 0 0
486 35 7 0.06 4.526589172718577 12.179633806150727 27.898356431989388 0 0 0
482 35 4 -0.12 4.156356402498714 13.138356789479896 27.53522526869784 0 0 0
305 22 7 0.06 7.779280730633055 11.648483958958073 24.9304104105721 0 0 0
487 35 7 0.06 3.5976648044343085 12.803824393376043 26.661132492030355 0 0 0
1904 103 11 -0.8 7.983400994807785 15.306621026265454 25.807584170447242 0 0 0
1708 95 7 0.06 4.902469915723829 10.358669407630863 28.722471626800928 0 0 0
1884 102 4 -0.12 3.99419812327699 10.126992598220497 24.103201750448342 0 0 0
1888 102 7 0.06 3.965694540547201 11.012984316529945 24.737467197431116 0 0 0
485 35 6 -0.32 3.302365689114319 13.685828344955036 28.642165290761262 0 0 0
197 15 1 -0.48 5.2424080392183985 15.986583778448487 23.69601928229734 0 0 0
488 35 8 0.13 2.6052622314244376 13.010475162446236 29.138180707985622 0 0 0
304 22 7 0.06 8.711638342375823 12.629122028406437 24.03335787007255 0 0 0
300 22 4 -0.12 8.795729234354981 11.666238664017772 24.53721378385093 0 0 0
298 22 3 0.35 8.566960784945657 10.374854133650182 26.864110639604633 0 0 0
307 22 8 0.13 8.553256189069842 9.627681605077697 24.05148904777001 0 0 0
303 22 6 -0.32 9.015931056315095 10.530775634917893 23.653444348584888 0 0 0
1756 97 4 -0.12 8.52771795733154 13.83763266994278 29.559331494512477 0 0 -1
1753 97 10 -0.22 8.279644226901059 15.321493460155775 29.688586881934643 0 0 -1
1887 102 4 -0.12 2.729300273807681 9.313986408223597 24.209818159855676 0 0 0
489 35 8 0.13 3.9542369894767964 14.175088534732339 29.365888069358714 0 0 0
1894 102 7 0.06 2.1157481310217605 10.151573055936383 26.159076947976576 0 0 0
637 46 5 0.08 2.4604105219748664 14.141163318154181 25.034272408558294 1 0 0
1892 102 7 0.06 2.1182563914071735 9.743064378668304 23.41571242984845 0 0 0
1761 97 7 0.06 7.9024930465273915 13.541385115338539 28.7170621568208 0 0 -1
1767 97 7 0.06 7.666165425637931 11.24749906986596 29.720979623204464 0 0 -1
1757 97 7 0.06 8.254830813141144 15.800712880652808 28.709904360647894 0 0 -1
1203 75 10 -0.22 12.929180948797343 11.182843084550235 29.946337010985786 0 0 0
1952 105 9 0.7 15.204004901990796 15.439191775481625 29.812933842046885 0 0 0
306 22 8 0.13 10.047136451121087 10.252713419138354 23.435767669462347 0 0 0
2201 114 7 0.06 14.123105255000906 13.104382241587961 23.24804014712874 0 0 0
302 22 5 0.08 9.649018387229233 12.463509740363463 26.43342126922726 0 0 0
45 4 3 0.35 11.260527340597577 14.776373722438908 29.07737437195035 0 0 0
2200 114 7 0.06 13.407481886240197 11.560310861031494 23.51516083276523 0 0 0
2196 114 12 -0.18 14.369135426698845 12.073271798262383 23.501746324941735 0 0 0
2194 114 7 0.06 15.762874584759999 14.048366867681908 25.43247009134151 0 0 0
296 22 2 0.2 9.775825538111953 11.625966627783967 25.74747092174913 0 0 0
2197 114 7 0.06 14.205332566888314 12.132886589811939 25.63174982712933 0 0 0
2193 114 4 -0.12 14.978131678234165 12.000307687102032 24.8745901976939 0 0 0
46 4 3 0.35 12.087025623928847 13.694013812898664 28.24799183557744 0 0 0
297 22 3 0.35 10.091935465623576 10.545335068264517 27.447628346205615 0 0 0
295 22 1 -0.48 9.539834321057093 10.459283407538756 26.606278680886135 0 0 0
299 22 3 0.35 9.76852143650975 9.588829263024724 26.147911854213163 0 0 0
1202 75 9 0.7 11.92793006245943 11.252792172404126 28.83881801177151 0 0 0
301 22 5 0.08 10.796209938458821 11.735409946474336 25.380150524787283 0 0 0
1205 75 11 -0.8 10.92797875136563 10.49068805759911 28.839496031280763 0 0 0
1204 75 11 -0.8 12.127036917270251 12.025686667188994 27.90052604420136 0 0 0
43 4 1 -0.48 11.95025814623883 14.690027412235446 28.34463695283686 0 0 0
53 4 7 0.06 12.374636543864582 14.171081310038666 25.698210285469617 0 0 0
48 4 4 -0.12 12.205528357078405 15.228729029375646 25.900373881094076 0 0 0
47 4 3 0.35 12.83110492008235 15.100456056737034 28.619859531469796 0 0 0
50 4 5 0.08 10.398600415291499 15.225044274198165 26.988893680894545 0 0 0
44 4 2 0.2 11.453009509479266 15.392134639732166 27.208868030874495 0 0 0
2198 114 7 0.06 15.365986183684658 11.046866691839329 25.233206360704013 0 0 0
1208 75 7 0.06 13.96646918272155 11.224673018283665 29.614117527988643 0 0 0
52 4 7 0.06 11.567292216038046 15.525121534136689 25.067972243289066 0 0 0
1961 105 7 0.06 15.699019193015832 13.50354817116998 28.09210954937889 0 0 0
54 4 8 0.13 14.15752826091518 15.687347342997889 26.759387542126678 0 0 0
1760 97 7 0.06 9.454915698703932 13.502799162148763 29.09427527375905 0 0 -1
51 4 6 -0.32 13.59699308679193 15.98401710150057 25.8728923118871 0 0 0
1954 105 11 -0.8 14.158283675049278 15.580098125791846 29.09823058818928 0 0 0
55 4 8 0.13 14.213555009436364 15.853139028636111 24.983618032083786 0 0 0
2192 114 7 0.06 16.515413045571556 13.239432567281089 23.202450087597146 0 0 0
1963 105 7 0.06 16.652898146183865 11.5619179863932 29.118701962051183 0 0 0
1957 105 7 0.06 17.327012877184416 15.376529292757995 29.792186931454474 0 0 0
2101 110 7 0.06 22.476455246299306 9.113324144653815 29.04911886306834 0 0 0
11 1 7 0.06 18.343553649494346 9.47775844735903 25.121387533598007 0 0 -1
1967 105 7 0.06 18.968755649591092 12.501350157171391 29.51558933945711 0 0 0
6 1 4 -0.12 19.013665601208338 9.459106881064079 25.980857423544826 0 0 -1
2190 114 4 -0.12 16.07824401066277 13.023750047285443 25.235521140943458 0 0 0
2195 114 7 0.06 16.55024172327638 12.687219045235674 26.158587479166467 0 0 0
2181 114 4 -0.12 19.28753381486344 13.877687983737845 23.284574479480607 0 0 0
2185 114 7 0.06 19.831939336810116 12.9374821840821 23.37245008567217 0 0 0
1956 105 4 -0.12 16.638797544344676 13.687379008717665 28.612791133485803 0 0 0
2182 114 7 0.06 19.7812958487859 15.988762892516375 23.340478659279402 0 0 0
14 1 8 0.13 17.439492009326973 10.19382810197858 27.25159907884608 0 0 -1
1953 105 10 -0.22 16.494019980672633 15.112101522256966 29.140813625227167 0 0 0
2178 114 10 -0.22 20.28950612613568 15.026081494365767 23.285222669784403 0 0 0
2 1 2 0.2 20.380847167470968 9.840079480425318 25.456622013958977 0 0 -1
8 1 5 0.08 21.071577427265012 9.85369215569553 26.299707326880494 0 0 -1
7 1 5 0.08 20.424426213905594 10.861619845354069 25.07894161224191 0 0 -1
2191 114 7 0.06 17.340309994117064 11.975775315415621 23.963571205688687 0 0 0
2187 114 4 -0.12 17.045025403203788 13.012107691482715 24.127609800183183 0 0 0
2188 114 7 0.06 18.108639489852973 14.89980100971835 24.81634726671376 0 0 0
2183 114 7 0.06 20.858278724542828 14.918058888775484 24.20875679854148 0 0 0
2184 114 4 -0.12 18.267186077593525 13.897667546947622 24.418003265286963 0 0 0
2189 114 7 0.06 18.79122378024945 13.340125165135214 25.194287589826047 0 0 0
12 1 8 0.13 19.023775520832373 10.022822989530644 28.023412674945504 0 0 -1
13 1 8 0.13 18.698906168946284 11.420617700023323 26.996460026344845 0 0 -1
9 1 6 -0.32 18.509681641718615 10.354458210914675 27.121297467657485 0 0 -1
1960 105 7 0.06 17.44095118727644 13.491400417369494 27.901293866502584 0 0 0
893 62 4 -0.12 21.547470919658984 14.722038737370212 27.43617413558201 0 0 0
895 62 7 0.06 21.59202065547821 12.73365056319515 27.577232476916414 0 0 0
890 62 4 -0.12 22.3960811211447 13.468586498141528 27.539253894092234 0 0 0
894 62 7 0.06 22.880897692446617 13.296812197270215 28.500260097026548 0 0 0
891 62 7 0.06 22.85236056469245 13.502463012898382 25.405480550129074 0 0 0
900 62 7 0.06 20.47758095541782 14.232246852312645 29.259922022472896 0 0 0
1959 105 4 -0.12 16.83079546008316 12.526019985103234 29.59509078049466 0 0 0
897 62 7 0.06 20.81542909118926 14.726450234299595 26.628596434263553 0 0 0
896 62 12 -0.18 20.932697344775942 15.09692139351403 28.7769174755524 0 0 0
1958 105 7 0.06 16.612206608823705 15.747435137759876 28.263049696719342 0 0 0
901 62 7 0.06 21.717297350442742 15.470824766793855 29.43470577475543 0 0 0
899 62 7 0.06 20.17513186333023 15.876206542738784 28.69387770029037 0 0 0
898 62 7 0.06 22.237618558335363 15.489946257325023 27.086745003242985 0 0 0
1900 102 7 0.06 27.403627060617083 9.90330231197133 27.09918591098095 -1 0 0
1898 102 7 0.06 28.05185684398063 9.361554107920018 24.871190794057892 -1 0 0
1890 102 4 -0.12 30.00440001531602 9.199690941396998 25.631701203586626 -1 0 0
2092 110 7 0.06 25.92145314250751 11.243419141785187 29.12322046479031 0 0 0
889 62 7 0.06 23.200543848869565 11.180341313582357 26.408158109274762 0 0 0
879 62 11 -0.8 23.07076250240125 10.381861189202759 23.73609588426756 0 0 0
887 62 4 -0.12 23.421139494301926 13.340936244898153 26.32116940164155 0 0 0
776 56 4 -0.12 25.322688712244606 15.611063595386772 23.254268770196454 0 0 0
780 56 7 0.06 25.831634638361294 14.718611943764415 23.618398594920986 0 0 0
877 62 9 0.7 23.85823056145867 9.548497342219608 24.18771076445297 0 0 0
884 62 4 -0.12 24.047792558149247 11.865731793901716 26.38588862531375 0 0 0
781 56 7 0.06 24.36149762435867 15.59968277248322 23.768144736622755 0 0 0
2085 110 7 0.06 25.68757039643002 13.55061971885928 29.27126757281052 0 0 0
883 62 7 0.06 25.37600060476431 9.422573243105587 25.793068756747957 0 0 0
888 62 7 0.06 24.479858538640194 11.742136800714787 27.378929264316515 0 0 0
885 62 7 0.06 24.729600135038414 11.997361049680947 24.35878651690466 0 0 0
640 46 7 0.06 27.697135732190887 12.924484840436216 24.35816365152798 0 0 0
643 46 8 0.13 28.504525950762446 12.944629828084071 26.808853305145526 0 0 0
892 62 7 0.06 24.186595768037492 14.11167383766577 26.41131746981198 0 0 0
886 62 7 0.06 26.090197954339494 11.81217188594959 25.44338282773373 0 0 0
638 46 5 0.08 30.01877176187512 12.552655817195 24.530164727041264 0 0 0
882 62 7 0.06 25.94692582048878 9.920526417499715 24.26792819734709 0 0 0
878 62 10 -0.22 25.105283563707737 10.054768082074716 24.947416106458714 0 0 0
632 46 2 0.2 29.71090428711855 13.590878656708584 24.406078689055445 0 0 0
641 46 7 0.06 27.843782663301802 14.661402057712724 24.308052553990837 0 0 0
636 46 4 -0.12 28.25708468298397 13.764441739212714 24.76927921517053 0 0 0
644 46 8 0.13 28.429657235143992 14.692148319725215 26.77251069761963 0 0 0
642 46 8 0.13 26.987948245842976 13.955376802243089 26.538654237234166 0 0 0
881 62 4 -0.12 25.05545332603838 11.511764360758079 25.278624526552452 0 0 0
639 46 6 -0.32 28.038990731887356 13.78988489804453 26.30199310125249 0 0 0
2080 110 11 -0.8 27.33618483524081 15.531578283903917 29.284539011136776 0 0 0
400 29 5 0.08 7.232071224251399 18.91330704740435 29.24878770517518 0 0 -1
406 29 8 0.13 7.57116273788871 22.66702259158676 29.801784368418787 0 0 -1
201 15 3 0.35 5.760604190610744 16.31721142909543 24.497422719761715 0 0 0
199 15 3 0.35 4.348597019634411 16.455539795040615 23.660366882995152 0 0 0
1902 103 9 0.7 7.71970970365237 16.562565623121564 25.759997429737975 0 0 0
402 29 7 0.06 5.62697526969724 21.493552172925824 29.288089542593276 0 0 -1
398 29 4 -0.12 6.556001277587301 20.985991088462814 29.02851515210817 0 0 -1
654 47 7 0.06 4.437926388910186 20.255672315585393 23.87172287223996 0 0 0
650 47 4 -0.12 4.778632179026879 21.2896580142333 23.81806122054809 0 0 0
1905 103 11 -0.8 6.562560611886198 16.959535121819105 25.70517795629699 0 0 0
399 29 5 0.08 5.754164974711992 18.98893876936173 28.46283244122276 0 0 -1
658 47 8 0.13 6.494606247587394 20.98021426392575 25.1102945758483 0 0 0
655 47 7 0.06 3.8179550070642527 21.80435264041679 23.834649978199494 0 0 0
653 47 6 -0.32 5.553340515129218 21.52726600533069 25.057006501909107 0 0 0
656 47 8 0.13 5.734413855888252 22.601116291160558 25.10331472952263 0 0 0
430 31 7 0.06 3.899307578771868 16.89096324748695 28.12988143599908 1 0 -1
403 29 7 0.06 6.62461159902442 21.317636052720083 27.992469461696714 0 0 -1
1906 103 4 -0.12 8.708822745592261 18.92415000928101 26.064106433603765 0 0 0
1911 103 7 0.06 8.368066913838188 19.315912497588823 25.105725476803105 0 0 0
434 31 8 0.13 2.6688803476980647 16.83741451017425 25.9567952663604 1 0 -1
429 31 6 -0.32 3.1599397740528286 17.75598883523473 26.27799340047339 1 0 -1
433 31 8 0.13 4.103468979330167 17.959598234847768 25.771651334020465 1 0 -1
657 47 8 0.13 4.98794834694504 21.25072640736086 25.946918827324705 0 0 0
426 31 4 -0.12 3.3301579138662243 17.781484302618296 27.86318433868326 1 0 -1
1903 103 10 -0.22 8.911860707562653 17.461537804051414 26.080500453904158 0 0 0
431 31 7 0.06 3.8391967269368155 18.691901592388824 28.179580028617952 1 0 -1
1010 67 7 0.06 3.3831594748767984 21.772656123313627 27.93709497250085 1 0 -1
1910 103 7 0.06 7.797139078530989 19.200986321746807 26.593522060699758 0 0 0
2280 118 11 -0.8 2.845305331832904 16.892756638517398 23.532435168243115 0 0 0
1908 103 7 0.06 9.00075097236926 17.12339869502793 27.112899047648114 0 0 0
1916 103 7 0.06 8.778735047923155 21.420598327973735 26.990691703402852 0 0 0
1006 67 4 -0.12 2.497303225800334 22.319464990740904 28.260120056998904 1 0 -1
401 29 6 -0.32 7.735917118171481 21.589715089925775 29.783050855774082 0 0 -1
432 31 8 0.13 2.4582043484398906 18.520289194685677 25.944079112386408 1 0 -1
394 29 2 0.2 6.321959940513685 19.512883835738183 29.23171267803709 0 0 -1
1011 67 7 0.06 2.954835794393355 22.958020898783616 29.015763313885145 1 0 -1
1005 67 11 -0.8 3.195395222906977 20.221323523879406 29.975014433643494 1 0 -1
405 29 8 0.13 8.69944538128222 21.310688045974352 29.35661962853812 0 0 -1
1668 93 4 -0.12 11.542959934333492 17.73647545600091 23.070768263916097 0 0 0
1662 93 4 -0.12 13.855112896575754 18.983358962723866 23.131456744880715 0 0 0
684 49 8 0.13 13.251312150046349 20.664139288179467 29.317036086878527 0 0 -1
1917 103 7 0.06 9.764740359407671 21.52981127076497 25.57083404119056 0 0 0
1907 103 7 0.06 9.758941813914998 17.08784597068359 25.505266298856107 0 0 0
1912 103 4 -0.12 9.786759569017818 21.234840886934098 26.619926051172357 0 0 0
1663 93 7 0.06 13.98365615677458 21.071781822836844 23.451518835106995 0 0 0
1670 93 7 0.06 12.006833279012792 19.90424839041299 23.369550563927298 0 0 0
1675 93 7 0.06 9.629692307197367 18.96574350501787 23.20022356868464 0 0 0
685 49 8 0.13 14.985875760491577 20.48145056931814 29.17965285112945 0 0 -1
56 4 8 0.13 13.30240003348036 17.03312485096098 25.89885773711056 0 0 0
1666 93 7 0.06 13.998173755354767 18.807110888611405 24.197550841450575 0 0 0
1664 93 7 0.06 15.497711154572135 20.108759460661506 23.38238349999006 0 0 0
686 49 8 0.13 13.874245866184282 19.569797638099878 28.167110931248793 0 0 -1
49 4 5 0.08 11.544027099476386 16.431961876218004 27.52281317879495 0 0 0
1672 93 7 0.06 11.659981070344937 17.500870744554817 24.12854085296262 0 0 0
680 49 5 0.08 12.197511505313553 18.124993288283896 29.48914214787928 0 0 -1
1913 103 7 0.06 10.86390955172557 19.37550769266109 26.18807271732374 0 0 0
1909 103 4 -0.12 9.943184005787936 19.679074721888625 26.686267400661677 0 0 0
1914 103 7 0.06 10.063552834050757 19.391847555443935 27.73082393001707 0 0 0
1920 103 7 0.06 10.949694851316844 21.522671861313217 28.493098276399397 0 0 0
1915 103 4 -0.12 10.757072691699085 22.007749529990235 27.5361851284382 0 0 0
1919 103 7 0.06 11.678765474471904 22.079755454271616 26.95879106998538 0 0 0
681 49 6 -0.32 14.045606894749797 19.930108939226265 29.181456800082106 0 0 -1
1623 91 7 0.06 16.811161590058525 18.44411861871237 23.300361946185873 0 0 0
1235 76 7 0.06 21.577035213882485 19.524526447925332 23.37516947255492 0 0 0
808 58 7 0.06 16.569633980284344 21.15248630505092 26.872559805360325 0 0 0
810 58 8 0.13 16.717996989923 18.589246905932637 27.54655073549544 0 0 0
811 58 8 0.13 17.067773981909134 18.990499141020667 25.896888278196016 0 0 0
807 58 6 -0.32 17.413807461507652 19.145850583501048 26.91875578380656 0 0 0
812 58 8 0.13 18.366270306785218 18.624275935987534 27.012887875250517 0 0 0
804 58 4 -0.12 17.515937022886096 20.667090981062213 27.111282067436534 0 0 0
1622 91 7 0.06 17.76411561136706 17.00686750724191 23.634471398015332 0 0 0
809 58 7 0.06 17.688348071316945 20.86874236226273 28.168494245618515 0 0 0
1231 76 4 -0.12 22.47453989744893 19.944615311698684 23.82914869396116 0 0 0
1406 83 4 -0.12 21.31174418066329 22.791638208757167 29.83503386228116 0 0 0
1230 76 11 -0.8 20.568145756485986 21.87436728069347 23.281311633334084 0 0 0
1626 91 7 0.06 19.06329864067017 19.304234517749236 23.506929209322497 0 0 0
805 58 5 0.08 19.6344954977253 20.965878107072744 26.58501278911051 0 0 0
800 58 2 0.2 18.644475657560836 21.29193031705661 26.266207034805852 0 0 0
806 58 5 0.08 18.62991009720802 21.00053672564731 25.21598608533859 0 0 0
1228 76 10 -0.22 22.185025440341082 20.9384388630788 24.821049267477697 0 0 0
1227 76 9 0.7 21.19335589938266 21.984065046568148 24.314740126353872 0 0 0
1232 76 7 0.06 21.643874893428368 20.3982249107998 25.59784477523624 0 0 0
799 58 1 -0.48 18.699011475879654 22.74581062013353 26.293102412658815 0 0 0
1410 83 7 0.06 20.784481592225685 22.097585830966224 29.18053263103999 0 0 0
803 58 3 0.35 19.54309640411123 22.98919714659465 25.794731552919973 0 0 0
1229 76 11 -0.8 20.938531741190527 22.994495848694797 25.081722695066038 0 0 0
382 28 3 0.35 19.199986940305237 23.04014491394166 23.315880859171283 0 0 0
1236 76 7 0.06 22.93271514052929 19.09476932449464 24.335037654806367 0 0 0
421 31 1 -0.48 29.747784092174495 17.282499050905876 29.86651661540884 0 0 -1
784 56 8 0.13 25.56096353197891 17.685166351498577 23.59253999094709 0 0 0
428 31 5 0.08 29.45656804076004 16.803272743483497 27.894692695903444 0 0 -1
422 31 2 0.2 29.922549872448347 17.60384385216048 28.46917789219687 0 0 -1
1233 76 7 0.06 23.14910573482455 21.39045552360996 25.054108423409776 0 0 0
1416 83 7 0.06 23.16868183924984 22.238324151642676 27.75480009209832 0 0 0
1412 83 4 -0.12 23.500383642616285 23.005141742666144 28.454836584633487 0 0 0
2283 118 7 0.06 28.97572906797454 18.79223595884458 23.16444130243612 -1 0 0
783 56 8 0.13 27.115386170549154 16.830515022249664 23.187245688459278 0 0 0
1739 96 7 0.06 25.785926955973213 22.62083052538338 23.875539928562787 -1 0 0
1734 96 4 -0.12 26.701301193430393 22.073895399101747 23.649623104686366 -1 0 0
1003 67 10 -0.22 29.35173149080182 21.507925000005624 28.944433902949267 0 0 -1
1417 83 7 0.06 24.106675885842687 22.517948823392913 29.218472045270055 0 0 0
1008 67 7 0.06 29.100649939828717 20.76846531542801 28.184010576444226 0 0 -1
782 56 8 0.13 26.461713965462028 16.713295922985136 24.72051252850213 0 0 0
779 56 6 -0.32 26.144653809053835 16.768708384859835 23.6791246362367 0 0 0
1741 96 7 0.06 27.618843351207197 22.203447135424376 25.69460502825317 -1 0 0
427 31 5 0.08 29.28352498118581 18.46022069329501 28.253882009722226 0 0 -1
1751 96 7 0.06 25.754201752023512 18.159603178971658 28.240309378084344 -1 0 0
1750 96 7 0.06 24.83425200467197 18.178772291408087 26.704105480453556 -1 0 0
1749 96 7 0.06 24.56383752025105 19.387389035112133 27.818974988886612 -1 0 0
1746 96 12 -0.18 25.38198109912554 18.78296370238588 27.427315004023633 -1 0 0
1747 96 7 0.06 26.8714683599485 20.32405372712066 27.650235913287496 -1 0 0
1748 96 7 0.06 27.28742810090409 19.024657909950882 26.40128795094929 -1 0 0
1743 96 4 -0.12 26.52872127881013 19.662635780061464 26.854536760600055 -1 0 0
1737 96 4 -0.12 27.228080693456423 21.483243408300652 24.97578829763551 -1 0 0
1745 96 7 0.06 25.253463862237876 21.22968990436059 26.013418341855466 -1 0 0
1740 96 4 -0.12 26.091884451483075 20.632131604653086 25.655561609248128 -1 0 0
1744 96 7 0.06 25.766379738798896 19.978190641408435 24.846553362942107 -1 0 0
1742 96 7 0.06 28.107804103041435 20.87121501277335 24.77680487698281 -1 0 0
1014 67 7 0.06 29.9745991433178 22.382409139932573 26.336097384641814 0 0 -1
1732 96 7 0.06 29.554148408619913 22.97610823358869 23.883741912275166 -1 0 0
1007 67 7 0.06 28.42682571391084 22.052057130828512 29.13562970736315 0 0 -1
424 31 3 0.35 28.847952863348638 16.858270353426676 30.04093677180739 0 0 -1
280 20 8 0.13 23.65944017249678 19.019824582195827 30.010950848045983 0 0 -1
1651 92 7 0.06 2.430476864646214 29.669859171187465 27.507838193588704 1 -1 -1
1151 72 7 0.06 7.640256518628664 26.4468739542388 28.99467264477142 1 0 0
1150 72 7 0.06 7.037832174895382 24.79237444261007 29.417059506806428 1 0 0
1149 72 7 0.06 5.941381303976819 26.05063340964998 29.25132697942078 1 0 0
1012 67 4 -0.12 2.7373593912233467 24.401156869924602 27.061003038920838 1 0 -1
1139 72 7 0.06 6.216801551583131 28.561885144714118 24.086959631641733 1 0 0
1142 72 7 0.06 5.528107829741845 25.651520657082038 24.897048815044826 1 0 0
1138 72 7 0.06 4.6976420153320815 28.037863797100762 24.955127626708002 1 0 0
1141 72 7 0.06 7.110968193089838 26.279496059409343 24.655709417338482 1 0 0
1145 72 7 0.06 6.854214262130467 27.5468515299557 26.76022947366256 1 0 0
1134 72 4 -0.12 5.520662403733299 27.75082952349466 24.30065442291699 1 0 0
1137 72 4 -0.12 6.136062069253954 26.539962618792902 25.067779378444307 1 0 0
1140 72 4 -0.12 6.2074874561076765 26.681029016826205 26.618165350347308 1 0 0
1147 72 7 0.06 7.909639370957881 25.5179297969095 26.95981105011313 1 0 0
1143 72 4 -0.12 6.866876031241757 25.514550229728705 27.277174628794864 1 0 0
1017 67 7 0.06 2.8900737116453286 24.90287788529946 28.016534717975425 1 0 -1
1148 72 7 0.06 6.382129929275818 24.58881810584337 26.96713005993755 1 0 0
1146 72 12 -0.18 6.875428831731688 25.690047845360287 28.82049094634162 1 0 0
1144 72 7 0.06 5.157459059516526 26.74160905740071 26.90427163696354 1 0 0
1016 67 7 0.06 3.734364547374864 24.125632844075852 26.717268243611297 1 0 -1
670 48 8 0.13 8.667998172331323 28.69525176541397 26.577559563259346 0 0 0
1020 67 7 0.06 2.681322288801045 26.29698601445836 25.94604754036689 1 0 -1
1019 67 7 0.06 2.449905969530216 24.960112944609023 24.922596119791102 1 0 -1
1015 67 4 -0.12 2.1773862019750476 25.331129477417793 25.910607327790352 1 0 -1
1777 98 9 0.7 13.685656709012356 29.859121637687338 27.522344319672655 0 0 0
1922 103 7 0.06 9.43421970779196 23.62857853390339 28.300562628067734 0 0 0
672 48 8 0.13 10.024655253854782 28.024928974660465 27.45883241750639 0 0 0
667 48 6 -0.32 9.685042862520728 28.319448398316066 26.465852980196278 0 0 0
724 52 7 0.06 15.685925082776544 24.66445897993171 29.980486537737733 0 0 0
908 63 7 0.06 14.561653788989945 23.37726472577311 23.971752428296988 0 0 0
1918 103 4 -0.12 10.335982342958733 23.510592547914715 27.69973829975197 0 0 0
920 63 7 0.06 9.307647069417797 23.29285381558726 23.756503832224666 0 0 0
728 52 8 0.13 13.801340682721163 27.00970886869661 29.57342812303092 0 0 0
1785 98 7 0.06 15.842706821708637 29.947940677017463 28.94728957966942 0 0 0
1925 103 7 0.06 11.655308122204028 23.925716004875078 29.408575994164508 0 0 0
917 63 7 0.06 11.534576227602887 23.586331073540148 24.7168314017031 0 0 0
1923 103 7 0.06 10.22166348253972 23.878462828525514 26.68008687140179 0 0 0
287 21 5 0.08 15.278197492572234 29.93073046492778 24.61625273020196 0 0 0
1779 98 11 -0.8 13.771599101801176 28.58109691920372 27.568185244167445 0 0 0
907 63 7 0.06 13.95148437863314 23.682744292215713 25.595018364438726 0 0 0
1926 103 7 0.06 12.505994298015052 23.96660271335412 27.944009116534566 0 0 0
916 63 7 0.06 10.79076241472237 25.084297160578803 24.460269151481608 0 0 0
912 63 4 -0.12 11.194855205528528 24.23497647008528 23.909406361511913 0 0 0
720 52 4 -0.12 15.346567495911161 25.484260807234364 29.34736110597455 0 0 0
911 63 7 0.06 13.001417864949634 25.719577482704157 24.989161748483717 0 0 0
909 63 4 -0.12 12.492835625847416 24.78893514846703 23.186167754658133 0 0 0
906 63 4 -0.12 13.577914852316404 25.300052269483526 24.164700589395405 0 0 0
671 48 8 0.13 9.661100269096533 27.413153735987652 25.86075533485886 0 0 0
910 63 7 0.06 14.123608588812404 26.124214609422367 23.705286613115565 0 0 0
1921 103 12 -0.18 11.531474234763085 24.21427133739326 28.364790864413663 0 0 0
664 48 4 -0.12 10.601695423575855 29.245546327409002 25.702903512972213 0 0 0
669 48 7 0.06 10.454032827132997 29.35585183185329 24.628606147184584 0 0 0
288 21 5 0.08 14.382420403905762 28.503120028634044 24.521762447346322 0 0 0
1924 103 7 0.06 11.550336168313752 25.30283341798639 28.31222442869165 0 0 0
668 48 7 0.06 11.602470942515426 28.84824106916937 25.872264819170965 0 0 0
903 63 10 -0.22 14.404237938382504 24.152362878537215 24.72177209752546 0 0 0
282 21 2 0.2 15.411102991179503 28.8488936735517 24.62344398268119 0 0 0
902 63 9 0.7 15.807936181781827 24.525259435859965 25.186914259214973 0 0 0
284 21 3 0.35 15.115263978139025 28.430114687231406 26.591455591691098 0 0 0
285 21 3 0.35 15.705204718543113 27.205255256580212 25.770821444796145 0 0 0
281 21 1 -0.48 15.783718417366106 28.20751444540833 25.86777979459574 0 0 0
725 52 7 0.06 14.89836143319401 25.051339907346673 28.453058443598664 0 0 0
721 52 5 0.08 16.052409377761983 27.371753765480154 28.489607261108645 0 0 0
286 21 4 -0.12 16.214380802254848 28.284108717327864 23.42408047253617 0 0 0
392 28 8 0.13 20.984672709910235 27.331448848006175 23.564014008579683 0 0 0
389 28 7 0.06 21.08465033498989 24.93281836187979 23.395324119282797 0 0 0
289 21 6 -0.32 17.54701085367855 29.073032871066548 23.314543873124578 0 0 0
802 58 3 0.35 18.827882816169282 23.134585952481576 27.216322226752578 0 0 0
801 58 3 0.35 17.860809745830238 23.08024255904716 25.839602610917172 0 0 0
291 21 7 0.06 16.470455235780946 27.231106013697616 23.541116841819647 0 0 0
722 52 5 0.08 17.051953268051655 26.79346920090559 29.80319942290854 0 0 0
905 63 11 -0.8 16.08714336107048 25.655970825623136 25.68311370355144 0 0 0
904 63 11 -0.8 16.63151677453589 23.6138711033979 24.993888849439188 0 0 0
716 52 2 0.2 16.43262707748501 26.46869703919657 28.96711059772381 0 0 0
1413 83 7 0.06 22.515352023871927 24.599220737288505 29.57742763937205 0 0 0
380 28 2 0.2 18.916622994276715 25.06462429686962 23.22141095603829 0 0 0
1409 83 4 -0.12 22.227600068216432 23.736532744705954 28.976549422176312 0 0 0
2111 111 7 0.06 22.342517512354306 27.461674419044186 28.592192788296593 0 0 0
294 21 8 0.13 18.325972745386732 28.778657655028802 24.01785605612553 0 0 0
2113 111 7 0.06 22.357893608481902 29.97702483667846 27.81746358373525 0 0 0
1402 83 9 0.7 19.085540141869515 24.21038451626078 29.836608697335883 0 0 0
1405 83 11 -0.8 18.865287556915664 23.922621729211333 28.658693864001513 0 0 0
2103 111 10 -0.22 20.343364896777366 28.045347513561826 27.8252230437659 0 0 0
2114 111 7 0.06 22.6562087487066 29.47960801982708 26.32561710216645 0 0 0
2110 111 7 0.06 22.13077421782463 27.136123435101457 26.82466132802906 0 0 0
2108 111 7 0.06 20.162253333668755 28.885586955693693 28.4955085956044 0 0 0
2109 111 4 -0.12 22.784526812523467 29.09611030173871 27.33781782958378 0 0 0
383 28 3 0.35 17.74462379160253 23.532847884870918 23.478568589990235 0 0 0
718 52 3 0.35 17.78747682931032 25.103197900850553 28.50156828982466 0 0 0
2102 111 9 0.7 19.49807137526196 28.142498807653674 26.55611032378098 0 0 0
2106 111 4 -0.12 21.88772278868686 27.794027888544793 27.659031831566605 0 0 0
715 52 1 -0.48 17.34084846223026 25.87925743322094 28.034295645252733 0 0 0
1414 83 7 0.06 21.769274328313607 24.211925163030138 28.109355090105208 0 0 0
2107 111 7 0.06 20.021836831867795 27.171495760563385 28.39187039551575 0 0 0
385 28 5 0.08 18.80719727923821 25.266392122384193 24.286963457846714 0 0 0
717 52 3 0.35 18.01407063908507 26.562273994891147 27.717517136539506 0 0 0
2104 111 11 -0.8 20.10416435063967 28.504006304321106 25.512224934116464 0 0 0
2105 111 11 -0.8 18.25435623491913 27.988746736302843 26.67845026612881 0 0 0
719 52 3 0.35 16.917673237010924 25.573062369347113 27.169856077296853 0 0 0
689 50 3 0.35 20.753613208853253 29.72159921643066 24.691235177881257 0 0 0
283 21 3 0.35 16.757286121040188 28.294437983321572 26.122140002362357 0 0 0
1736 96 7 0.06 27.400508022713527 24.149336575289734 23.12226308278922 -1 0 0
1637 92 4 -0.12 28.5262080325238 29.998239727855687 23.119401467221618 0 -1 -1
1018 67 4 -0.12 28.61314656697398 25.5527552895097 25.83547344514481 0 0 -1
2120 111 7 0.06 24.731706328570034 30.00931436091445 29.371578612808072 0 0 0
2118 111 4 -0.12 26.312349328887823 28.826605326887904 29.051732166018258 0 0 0
1009 67 4 -0.12 29.86601588163783 23.111843542366202 27.138731507939877 0 0 -1
692 50 4 -0.12 23.347545186121827 29.504573848129187 23.589409022143787 0 0 0
1643 92 4 -0.12 29.625328977806777 29.819742878193882 25.43844396222121 0 -1 -1
1646 92 12 -0.18 29.4478523673828 29.780244698820255 26.956176234945893 0 -1 -1
1648 92 7 0.06 29.97931589654577 28.83914300024704 25.120319156644257 0 -1 -1
2123 111 7 0.06 26.73472022158943 27.824972229185345 29.131859563038855 0 0 0
1021 67 12 -0.18 28.07416413927366 26.33422818052193 27.091266818111112 0 0 -1
1650 92 7 0.06 28.817722125032237 28.95716928067708 27.293176328973853 0 -1 -1
1644 92 7 0.06 27.61366833844041 29.482694264266748 25.08771680118596 0 -1 -1
1424 83 7 0.06 24.06600305001639 25.535997141854974 24.4615318081812 0 0 0
1421 83 12 -0.18 24.590118095087796 25.27312521366977 25.380383336122552 0 0 0
2122 111 7 0.06 26.74423062088388 29.218362273110312 28.13081337022591 0 0 0
1023 67 7 0.06 28.406095259454933 26.107010939496284 24.92004084945118 0 0 -1
2119 111 7 0.06 24.269918414445783 28.40491622413148 29.69995339364198 0 0 0
1024 67 7 0.06 28.8580527391734 26.948349591764284 27.534504872678124 0 0 -1
1026 67 7 0.06 27.79113452717015 25.732936233936428 27.955227854501242 0 0 -1
1425 83 7 0.06 25.105191228070993 26.086017384877653 25.892235283245633 0 0 0
696 50 7 0.06 23.07088294201418 28.838722483569175 24.406835713438333 0 0 0
1422 83 7 0.06 23.11999996026532 25.501580225621638 26.669476971843736 0 0 0
2116 111 7 0.06 24.78380090271831 29.440427219837424 26.822136080326736 0 0 0
2115 111 4 -0.12 24.85040326889323 28.994940902929077 28.990732234088494 0 0 0
1025 67 7 0.06 27.311733628448664 27.03772478304579 26.756784107694507 0 0 -1
1426 83 7 0.06 25.33795106338871 24.518669324919784 25.136193657036987 0 0 0
1418 83 4 -0.12 23.759914902363477 24.645478174370027 26.455738064279682 0 0 0
1423 83 7 0.06 23.116921033435794 23.889196105729877 26.005535097012775 0 0 0
1013 67 7 0.06 28.82603849709548 23.367738109576553 27.341343068549175 0 0 -1
2117 111 7 0.06 24.486607977851698 27.719561474614384 27.209005813133572 0 0 0
2112 111 4 -0.12 24.318406225051085 28.749173871881066 27.524747651597274 0 0 0
1419 83 7 0.06 25.322767457901072 23.457742178650307 27.577843141767353 0 0 0
1415 83 4 -0.12 24.401226626888523 24.01791717954279 27.73612400773546 0 0 0
1022 67 7 0.06 28.11206283274665 24.593349189570628 25.706860066794462 0 0 -1
1420 83 7 0.06 24.5959658515343 24.825322694432387 28.441998924551516 0 0 0
1097 70 7 0.06 27.122723053641522 25.48667048843543 29.89391866810392 0 0 0

Velocities

457 -0.00135963298986167 -0.0013370137667948025 -0.003949983423729266
461 0.009917806136264395 -0.004474277359774628 -0.016065621554632502
462 -0.009866764492838286 0.021168570674631588 0.0254930564569014
454 0.0021565644407421556 -0.00023112072023767324 -0.003241990114330714
460 0.011364898612590402 -0.0005890717050258792 0.03172004660375383
458 -0.0045143157230383086 -0.004263636485809151 0.0041592766790455255
2154 0.0034238145962161826 0.0008849528811629437 0.009396475342288378
573 0.014686560690795478 -0.0036309263434764595 0.009886563436313639
455 -0.011683247164738174 0.026408711149578108 0.010649335315338711
2163 -0.023851767561447558 -0.010890147329876343 -0.034120278876637045
2152 0.0014586361545285147 0.0032342832268169373 -0.0026643427965492043
1774 -0.01965514893454172 0.013367976444764515 -0.014054635828056909
2157 -0.011976327451570483 -0.010383736293533183 -0.00180107756060593
1716 0.01576425723090213 -0.009376965599187338 -0.016185906600733664
1191 -0.010857901450921156 -0.011742229398704396 0.007726078983017597
2156 -0.002893897817216526 -0.006119876364542677 0.0013350394149703928
2161 -0.0002804368981587981 0.008601678403979948 0.0036260657109634187
1185 -0.00016800421389682107 0.007916384296782925 0.01068952153060389
1187 0.002944090552900502 -0.01008326186245188 -0.003675790062010738
315 -0.0061190472873214165 -0.0028397878689712997 0.0017648078925941494
569 0.002976500814285076 -0.00043022495197306266 0.007551638275062496
2153 7.841552263695494e-05 -0.006771109888670653 -8.842387188505134e-05
572 0.001515988406919238 0.006955259529491298 0.009775895759761054
459 0.004740623258357891 0.0036342191384284017 0.012947015224042893
450 -0.0033065604768576983 -0.0011596379133642161 -0.005552405575165111
451 -0.010387788308318427 0.005483957835970181 0.0002647877762665994
564 0.00937765379859245 0.0025280467788170616 0.013647353196667267
1186 -0.014259990898905398 0.0006006273784039546 -0.0025709115302689333
1181 0.0052526181918374605 -0.003937920659311677 0.009870762232770692
2164 -0.024214258470111705 -0.013568084490774271 -0.0008561249099748392
2159 0.005764762643216258 -0.0033302156073143777 -0.002588583437456194
2273 0.0020833193704514284 0.002376924150539005 0.00817701542817542
321 -0.000168445715402513 0.0041466257587081425 0.007079007679216736
2162 0.0037848111630708254 -0.004084725559666521 -0.004987795219306577
2168 -0.00045033323372486414 -0.00328238818757389 0.004472058706014925
2166 -0.013742146194548976 -0.017667371211626277 -0.004552987617929068
2165 0.009033312453885322 -0.0028475635745710483 0.0013825280277605058
2169 -3.8920316444274925e-05 0.008300958360500332 0.002950715522270599
2171 -0.003532605528719084 -0.008695136888614839 -0.001905063733541004
2167 -0.012270638414907603 0.004017559434845162 0.018463249259400173
2172 0.006225288149138133 -0.0077517265071604 -0.014395849346722046
317 0.0018186756890921705 0.008862524592008153 0.007670383971878252
322 -0.0001325838735054662 -0.010826121273030516 -0.0254695649204325
2170 0.007986587610577757 -0.010006050583641804 -0.020368057482394064
2173 0.0056860438929252025 -0.024085769399615146 0.020769877926826906
2176 -0.004007597791311105 -0.004613331097856398 -0.014874858879512377
1216 0.02501874296251237 0.014453141689349372 -0.013918267037979114
1223 -0.01389079196726254 -0.015253065859643885 -0.007854314314310568
1788 -0.006182893937311579 -0.022040533752817906 0.01696677584122391
1197 0.001541945534308958 -0.00881118491673595 0.011503341905199516
1218 0.0020050055331938773 -0.003934522064382791 0.002624792886138744
1193 -7.132881525553544e-05 -0.006727953647744545 -0.0030702600149905383
2175 0.003046764163029206 -0.006671663005881706 -0.0026408796400163876
1217 0.006273248609206991 0.013207789310009094 0.01964979340774616
1222 0.005728271151149335 -0.003830337366654115 0.0006861170337198234
1794 -0.009104386442394776 -0.005277517356809519 -0.016696587697852525
1272 0.012292122100016328 -0.013628622798695082 -0.005268263220917492
1212 0.00032315528741047074 0.0018031179651169325 0.004290819168395811
1215 -0.0028392655796203132 0.00021228326606888634 0.0009119396370676851
1784 -0.0017877205369776067 0.006300635278021906 0.0039169282145150785
1220 0.0002627572016306887 0.011714241702907016 0.0028180428411285065
320 0.007950380207080748 0.001824529205108035 -0.015249191566737716
1199 0.016742038985648498 -0.02527488014862352 0.0004862951936358631
314 -0.0008454411528891027 0.0012806866961739996 0.0037151046180356802
319 -0.013622542940969862 0.009926258253087855 -0.022515892883987414
1789 0.004574957256259165 0.006505030641443583 0.008286771536054924
1271 0.001971160725438058 0.0034572278659430605 -0.0004573352874620314
1787 0.0034963528792557874 0.007010506856839822 0.005217347327003767
1276 -0.01209084680805135 -0.0008892148828768913 0.0029874716585334476
1793 0.0027832946686373373 -0.005650884748300214 0.001334509478637969
1796 0.0022260300361875885 7.584469781224297e-05 -0.0017918022561334555
1801 0.009528663026145672 -0.02031600089505294 -0.026567529995740316
1790 -0.0024195279908001558 -0.009815949792239393 -0.0032867089853640327
1800 0.0021213116234275816 -0.0005986860875817089 -0.0014720833543365056
1798 -0.004205408014890868 0.010479774933666211 0.011821618427275679
1795 0.012053637813938655 -0.011227739920562167 0.01135302161844829
1799 -0.02012549916965029 0.017994474642420762 0.0059365589629478315
1225 0.001322270544498778 -0.003493630369898276 -0.00477334409531029
1221 -0.005887724941412962 -5.7495173928446906e-05 -0.002843699133414965
1226 -0.014453904427854533 -0.01696134942854474 -0.004050248005467852
1224 -0.024314415337281087 0.009478104511696716 -0.021531191101544073
1797 0.019790137607099096 0.01806819236694009 0.0027080362175059417
1040 0.00018425100969353834 -0.0014852724929345744 -0.010362044050320228
1045 -0.0011959712302067106 -0.01920241562557442 0.0007483322339598554
1594 0.0012279161765065532 0.01984116138887176 0.0014498996440895934
1268 0.004479798276046876 0.0028271404550216845 -0.006729571582808355
1274 -0.02880682867693325 -0.0016780293662244108 -0.0020574690460859126
1791 0.006264891929041898 0.003863586372952947 0.013571730022415506
1273 -0.007539728573434601 0.003172206517222089 -0.010056732811369184
1275 0.012315569722322348 -0.0015771630925808997 0.01470515366339667
2100 0.001698450205553879 -0.02103612469012038 0.013124250891072027
574 0.002941054306065897 -0.0014813002173576669 0.00509312258658965
1723 -0.003165510139128442 -0.006614504032114943 0.003150792012017088
1718 0.0016128127984600428 -0.0008696872296498085 0.0037118449292281894
570 -0.004689611149096295 -0.003356481299364506 -0.0015705499321166008
566 -0.0005693209943559401 -0.0035428519500657917 -0.00040583601629334305
1715 -0.0030353861879322047 -0.007400018008049242 0.003312925855609269
1719 0.011161183211608654 -0.006858411525672998 0.004964791119007059
1048 -0.0027647502320767474 -0.0041724262871826 -0.0083332824975375
1046 0.00659825485362369 -0.0014595654661551753 0.00598949099402622
1049 -0.007440391033059029 0.010073092837920817 -0.01212926173045188
1721 0.0029179652503581724 -0.0029351862963044218 -0.000846955214001204
1724 -0.0061482214112542405 -0.0037537580676175546 0.01314469031937716
1725 0.0016144369981410038 0.002310524411392648 -0.0037076798366112032
1043 0.0012269738640248743 0.0015732860165057869 -0.0006595541727605264
1047 0.004908164162966808 0.010338695139190826 -0.009593714619186558
1726 0.0018079366989277614 0.0213275691341195 0.014183100753420564
2124 -0.015084339170004782 0.0007482593570852784 -0.008368786456337145
2097 -0.023466294855710664 0.0025370862173142044 0.015850380846038382
571 -0.009051676529456838 0.018539669883140836 0.018284089272918663
1722 0.009194942598986133 -0.005187303186402525 -0.0331929957150495
2093 0.0029078978786905457 0.003114775197338226 0.0029342095040062943
1776 -0.01097403828914405 -0.01262524329029644 -0.0018199688369723126
1771 -0.005598662164227977 0.004165726913269022 0.005662744809388318
1770 0.023568050166094284 0.006729117015204322 0.000526321034279575
1772 -0.0013900632304751873 0.012477759811002955 -0.0022480090999103886
1762 0.005098708830014774 -0.004020172171893178 -0.0020560806809411442
1775 -0.013941290623481437 -0.008131910384156655 0.009512100761617856
1768 -0.0025934352087603266 -0.0029756835630186194 0.0015853359893078255
1759 -0.0012566364040868124 -0.00731716819160347 -0.011880474078196333
970 -0.014142163656024987 -0.015298581019344289 0.004098905292759031
965 0.0012983692959554786 0.006451978378717099 0.001399988207501401
1765 -0.0019486844280671516 -0.001148244847801592 0.0041099595366766535
1803 -0.010951037169549172 -0.007857998693865702 -0.0029934833871386353
968 -0.0006318424863720402 -0.0019294883697013503 -0.001454569169360921
1769 -0.013527036023811303 0.00629575360510342 0.004248725736859867
969 -0.005213208919525917 -0.005223999145129856 -0.0009619364808418561
976 -0.008252634304454836 0.01202258202312321 3.7796490924874613e-05
1763 0.004399417992287271 0.008734178001228011 -0.014011544985482547
1773 0.010862801858259092 0.00447717318614011 -0.001105234646343748
1806 0.005152480609160342 -0.0014078013312328794 -0.009990099610262877
1764 -0.024209353071672733 0.004708401489728157 0.00994764225077156
1808 0.009306344291789266 0.004307585016608659 -0.01816482752272112
2208 -0.004712167195664789 0.012258075003495607 -0.021033008139702335
1810 -0.0019520583334698685 0.008543768566034565 -0.04001162910467512
1813 -0.004075997892254457 0.0046498602287620774 0.00714480670091787
1809 -0.003102008313457207 -0.0013938533151641793 0.009286847753001471
1807 -0.013241463050288026 -0.015547219289002654 0.0032152182520873897
966 0.016858598377459982 -0.005909721132417273 -0.014961859727212415
1758 -0.00038106082539433016 -0.012555103802054957 -0.0090971889133581
791 0.010444936126245858 -0.00456881298044056 0.02193479665194481
1811 -0.0038049746358944144 0.008165372611277087 0.002738390615500605
2275 0.00091145784799869 0.017169272626618104 -0.018252030830741457
2271 -0.005082964872766216 0.003062185718764374 0.0004743180455853792
1766 0.008309316754415192 0.006661124416740003 -0.017881723798951296
1817 0.006430599963505482 0.0068500139855884505 -0.00864653936227381
1812 0.0009909311110261761 -0.003142839013231414 0.0035378867486469856
1816 -0.0006602119467849591 -0.011885262639697209 0.0074848367075518426
971 0.00021197547287493977 -0.0031888614129247646 0.0012200627606639696
974 0.019384007888408387 -0.01122209397864571 -0.021233511712258995
975 -0.013997445498577793 -0.012850400598711181 0.04362047446040628
1210 0.0020035914741981585 0.0019664161918954014 -0.014784050827947481
2272 -0.020313847886620207 -0.004024302929406938 0.038292429439690516
2268 -0.007200762314240546 0.0037780106953608883 0.009245336633640595
2269 -0.004776245337689638 0.011054357046681382 -0.0093333507187278
2270 0.008515517923332546 0.002285219972569373 -0.022883684794724687
964 -0.01383506964235927 0.030862987310950402 -0.01625933118456259
1213 -0.009470079704637369 0.006596504703384535 -0.00773507852749587
2264 0.008536481362068278 -0.003561458902630694 0.03233443142358062
2263 0.011134332088420209 -0.017409149134187864 0.009138521612555196
2267 -0.008372603876829544 -0.032876621683073856 -0.01989198284324557
2265 0.00016669891655149912 0.004833012675379028 -0.0012136653934600367
2262 -0.007529925483374459 0.007425087401173081 0.004324918118559162
2266 0.014567845931194945 -0.0008062356819222178 0.024203002744170806
2258 -0.004284182035567865 -0.007993869101443415 0.007767779749724937
2259 0.0036564839909008296 -0.001937285879560426 0.0003476186777755145
2256 0.0008267266804956005 -0.0038567627623987094 0.005371421371040273
2253 -0.0034033834299187506 -0.0018014496305711351 0.0073800211755390656
2260 0.004957317075785729 0.0012270045301275405 0.039313675109008774
2254 -0.0009094258023679724 0.0021551919263594578 0.007799887600567502
185 0.0036754818629896172 -0.028061503154898075 -0.016761626617783146
2252 -0.0031980717096821757 0.0020826746115506505 -0.0036204147434632013
1209 0.0008792967721315757 0.00020467098619753296 0.00396040348300463
2261 -0.014940261381808921 -0.019367687743497525 0.0025788904826016825
2255 0.002910251617739188 0.0009189477465601831 -0.0012496640060895019
2257 -0.013777545304157727 -0.005140729967963579 0.0017478886542063765
1211 0.010101226970880237 -0.0076391174801326706 0.02066260495037772
1206 -4.433173387667379e-05 -0.0062571572555104185 -0.0005387786365307473
1214 -0.015203741797357577 -0.015212641595022575 -0.019818786045311648
175 -0.0009622784969024546 0.0006340620232202446 -0.010306510509502485
187 0.011985356742976391 -0.02424996223283579 0.0007858249018851447
1219 -0.01159475124773217 -0.0010467166631477362 0.0034501170947835343
1955 0.004100667325413233 0.000694132349807936 0.0016963462203639925
243 -0.00943990445250799 -0.025442397152147366 -0.011492664323409885
1755 0.001289943417828101 -0.0039871630425405155 -0.0060781796726475336
1207 -0.01770590120544104 0.014670694858628576 -0.021315866109680268
1969 0.007817573091279754 -0.020760889918183773 0.018315339915424934
194 0.007459647133395968 -0.009552026203020435 0.011374539783053588
1966 0.005313700695828881 -0.018022835220227726 0.03273144321570893
1975 0.0018127684460117546 -0.006477791465411812 0.009566655752139271
193 0.010585472630324255 0.0028491098422444815 0.007538181393276975
196 -0.004764078905725298 0.005424622612730631 -0.0031290603894764805
1976 -0.0018796430581939124 -0.009456989598998511 -0.0031118416185050065
195 0.00017058780319567236 -0.003311854069921814 -0.0031727861816945907
192 0.00630165944253115 0.008676372560052872 0.011866320231073053
188 0.007560346858426277 0.002520755867657979 0.008141315733595104
191 0.004213302255570504 -0.0016194120323704036 -0.006211222681173012
1316 -0.007303909575463357 -0.0023111448043555494 -0.02284303502082438
1971 -0.004385168352489475 0.005500135482989137 -0.003100125904528548
1968 0.001512186934578564 -0.0007562558625889729 -0.004377339877700535
1970 0.01886970583432796 -0.013259943396521165 0.023718460824044354
1972 -0.000282301568558195 0.003729809117747933 -0.009605043227345842
1312 -0.01028174139575834 -0.0010761146104383509 0.003487349818616083
1317 -0.006718138163191423 0.006201236536998167 0.0046209607946570384
1965 0.00026292273683987597 -0.003434446517182795 -0.004281808540248563
1974 -0.0028743348489860348 -0.0020130424342021994 -0.013260014965153662
1323 0.006409610689812974 -0.0050147124152573955 -0.0038324381257132476
1589 -0.0007833760555114095 -0.011625666094001053 0.007935183522812502
1315 0.003920085410299897 -0.003994235690598897 0.0010734058558340364
1973 0.018375440574910976 -0.013676425204620807 0.013415590784239118
1325 -0.007016061012711537 0.009599598787587038 0.011009950877427578
1583 0.015957156370234867 0.012742332997302576 -0.02005791772183169
1318 0.0010181384426502756 0.0016986747403662352 0.005968364745545193
1319 -0.0004482183276650038 0.0006685174646350485 -0.021821477541843333
1322 0.0033372647371512263 -0.00873795367473623 0.0015011024966697449
1964 -0.016514634034917656 -0.02798949195571085 -0.011694271766657452
1588 -0.01588415147590966 0.019242086287138305 -0.002440523649268507
1582 -0.009378018628738398 -0.001900413228714938 -0.008401025973942332
1962 -0.0029540892209126996 0.0055337159911155375 -0.0011397507880548767
1320 -0.00608215224735205 -0.00960989185749893 0.007090556232549583
2082 0.002958552864291219 0.0071017354092772975 0.011069339130110075
2091 -0.0042156318881633485 0.004110351815549998 -0.022184151894474716
1824 -0.009357976374924682 -0.01117921564237544 -0.010944195412587069
1826 0.017720265013704804 -0.015358625170615795 -0.020990850804271752
1821 -0.003543854565905063 -0.0014123021392066651 0.0005697408525008385
1825 -0.02038828671346151 -0.014331822098519732 0.0011377010916763784
1814 -0.0023872233778690585 0.00095157138094098 0.01785799673729632
2089 -0.00483318283139788 0.010353362561036075 0.0032547930514549945
1820 0.025801286706602887 0.016539637142178324 0.022594066121697984
2088 -0.005616765206337837 -0.011198025160457158 -0.004692553628903556
1321 -0.005945440047219273 -0.004325891262676244 0.0033449969149340103
1326 -0.018485552124446678 -0.0002121419716959992 -0.003645147998139971
1819 -0.010015315214925264 0.02095872901394875 -0.0031547989561445168
1815 0.003590189321430964 0.0015800265072398068 -0.0007928332970565544
1818 0.0032017037903448848 -0.001140830792050842 -0.0037610417083813836
2083 0.03626038321863448 -0.016028105574218184 0.0007274622758627921
2078 0.002155921003217363 -0.005619038862909773 -0.005324881854193523
1823 0.00887740103378741 0.007950073065905523 -0.0012945271730476484
1822 -0.0054391201571946084 -0.010889226866030687 -0.00441887085431338
2077 -0.004424795060195923 -0.0035930873498945417 -0.002585184558281166
1324 -0.005590237006713251 -0.0014667098425802322 -0.009218054368431943
623 0.014526946329941396 0.007484154608614768 -0.007742924165105176
626 0.008088360618568484 -0.0041660792012715555 0.0036250688955884007
1074 0.018397570993029338 0.025660509786504523 -0.006730979359330609
628 0.0008218527084091238 -0.02583354637222906 -0.0024479211693393117
625 -0.003626313165974183 -0.0005975391834820533 0.002234869540161449
2084 -0.001617615502458738 0.00047215791926867796 -0.00029743478383023885
629 0.000505430084644339 0.0048529907152774394 0.008646300193543012
1071 0.0004279599512439072 -0.003827286240756588 -0.0033929484966108837
1075 0.0044662459357865765 0.019871804233483375 -0.010745548541314022
622 0.0013399114763697933 0.00036790322778160986 -0.002449703351802185
618 -0.003396585080346809 0.004215555499693256 0.0017766260116685545
2095 0.012587941622819466 -0.008949925366576416 -5.113611694051401e-05
2094 0.007499306624167427 0.002820836687709756 -0.019967695638064976
2087 -0.008501705221543414 0.0025538916234294396 0.0006093154069766336
2081 -0.0021817605222840025 0.0018151992762369495 0.003313942446484124
2090 8.264725079665076e-05 -0.0017432140212039979 0.001223315000800977
2086 0.002099190365306074 -0.011679434033837244 0.021737065205293966
1804 -7.809037685873127e-05 0.005233832327064355 0.0008517188813378307
396 -0.010229612905058518 -0.015577973778505668 0.00534010762164253
792 0.003500952577131448 -0.00598102487918514 0.010129266825654635
786 0.0017716627467816895 -0.001696389563816103 0.006988558392270621
393 -0.0048701497808434835 -0.007852285586375045 -0.005045325795673885
1805 0.00029394937937029397 0.0033288712453867055 -0.0011024098378626544
1802 -0.005294910592686884 0.004006522303629577 -0.004074608642210704
73 -0.000763865807110544 0.0045635758668567455 -0.006847570272853588
71 -0.00010976182834216111 -0.0015875403149414413 0.003087560928848507
75 -0.02015252357658876 0.006029901981529182 -0.015880493700423305
74 -0.0040475433125849135 0.014889736414235877 0.011774288185788892
1479 8.701773313641248e-05 0.005312838177542879 -0.0031375239479198526
788 -0.0006040613737033269 0.0003924598604866711 -0.023639624875138467
1477 0.008069003362504618 0.0067023384995573655 -0.002503983104876742
1480 0.0057633426012421276 -0.0038204579867396836 0.00547209596886404
785 -0.006864233017912984 0.006062230841863908 -0.0033674282392964685
395 -0.00681493511304631 -0.010632289421512358 -0.0028140983569512478
789 0.005326025578177852 0.0014523461222551404 0.016974987572054914
80 -0.001043672848777239 0.005644717735026457 0.026395814237782877
1478 -0.001256332587967713 0.0021912735946136444 0.0014750161123068296
1483 -0.0035933564151795104 -0.012570373787843467 -0.00016349110564112777
787 0.004646541749748202 0.0012192085105252942 0.005420949265438592
397 -0.008224218544183466 -0.011541545065047277 -0.025302870723258982
1482 0.007599651722172909 0.0025438105064006346 0.00498995401996278
76 0.005604888431927217 -0.00409773959774323 0.0006911084796121333
72 0.003354169097006344 0.0004550544637140641 -0.0022986468627747194
78 0.0066044819138661535 -0.015150649527292769 -0.0053061556522800936
81 -0.004263211078722089 0.021889545151083035 0.002195215329491883
84 -0.02693013023556538 0.018442186028599067 -0.01026989756364597
1488 -0.00663013094262731 0.010366046698320487 0.009479838210501754
404 0.0387939781815745 -0.01433402019352747 -0.013063712088854757
1754 0.00401482389405757 -0.0009663476793867044 0.004008536662695931
2205 -0.005075887252150468 0.00041321958722667775 2.7261037268641985e-05
747 0.006877490537946257 -0.0037966616775584527 0.0006924439232623032
2202 -0.004077687091122037 -0.008423433385512002 -0.001036170063258357
2204 -0.003767057734819244 -0.00014074054559661556 0.00480250166262093
425 0.00859238245148543 0.0013390173374748901 -0.014375780904606058
677 0.008633801547798466 0.023183157375647405 -0.032624094440603275
1752 0.004082846205853943 -0.003825913428577887 0.0056445310856592205
795 -0.019760968863608293 0.00833914806497263 0.014479486326636011
790 -0.0019673512501645575 0.009908532977056869 0.0029297755401119347
794 0.002588150918315295 -0.012158733527967851 -0.005686894215547375
683 0.03138648868921881 0.00571654690548179 -0.014554667681911822
183 -0.004584180114551636 0.00038536847956106553 -0.004948344098637107
797 -0.021569633123721513 -0.013004322450325352 0.018346904485698413
796 0.00728517729769749 0.017260686742164685 0.024610015009515346
676 -0.006623639927521736 -0.009675403223999781 0.005988930835520238
793 -0.00038278251925706375 0.0007726677495146484 -0.0009094091390453985
798 0.024913542309097966 0.005355224448385306 -0.010784626518833874
1979 0.004532829076174026 -0.0038541514833807036 0.0007414489935325614
1984 0.0011004674696652738 -0.0042571481529369145 0.005987828699141385
675 -0.02094655627069212 0.0023700048791656663 0.009154480116125113
1977 -0.0010999584081651968 -0.004783245490639988 0.006719967497621093
673 -0.004292080739280734 -0.013810094083064663 0.004690039059267908
1983 0.002912865036695493 0.009227832196317785 -0.002694125419261049
1978 -0.000951121713640974 0.003983544071017373 -0.007195255181172465
1981 0.0016167165328934874 -0.0025905252504920162 -0.004308393345333071
1985 -0.01574952530999697 0.009351268991741555 0.02293376326613046
1986 -0.013002561630976708 -0.025898499004893275 -0.01531009308225027
1982 0.011772844844580755 -0.0196634703205138 0.00450164897889562
1989 -0.00469888718471702 0.033223395548315535 0.00041243510507173734
186 -0.015522704309577922 -0.002964003803127887 -0.005361822176045669
1980 0.00045727682749445713 -0.0016260043694152882 0.006605682099358712
679 -0.005643296904503459 -0.028989794082483134 0.010240172262621765
1991 -0.0028367357058594676 -0.004780762345947253 -0.01899564870351728
1292 0.007070967765094968 -0.0015747264122155373 -0.009356173411543727
1987 -0.002632445327324758 -0.003027503799081938 0.0010412544998979962
251 0.0022073937536884526 -0.02175233351570033 -0.0018619018467742547
1288 0.024117633574253488 0.004286697949135719 0.01676513800910981
1992 0.007091186017716385 0.004108119903142894 0.005758293047381123
1398 0.013735890466636425 0.0064402024322566444 -0.01916309190145504
678 -0.0010877268667960148 0.0033719703112249076 -0.001412389205391724
674 0.006422808813717425 -0.0042991086457869025 -0.0034334379369858137
1395 -0.028056437846507406 -0.0022160228549315828 -0.010911175695731787
682 0.004107237572215343 0.012390172249096668 -0.013529114434794239
1299 -0.01783869095544587 0.011457632691478864 -0.009857298244025158
184 -0.0007117701912475312 -0.0012519273657340293 -0.00653139841948619
1314 -9.686740521015618e-06 -0.010462351713508455 0.016156835426731284
1309 0.006874081542113203 -0.01033230534594826 -0.00013277451213120295
189 0.005515703038529335 -0.01035661205743908 -0.0035325547346096806
1300 0.01817102394666002 -0.023991426890575034 -0.018912853027667816
353 -0.021566224945715876 -0.0022058717301459527 0.03535764951071922
1287 0.002528868761125822 0.005833039730965746 -0.0016362455817143524
1294 0.017388055624098207 0.004081923307526917 0.02177254167235232
190 0.010476454284444296 -0.012341978864098758 -0.013113124134571202
1313 -0.011475724652567352 0.009015616019133808 -0.01512650591008417
1296 -0.004724833417795498 0.002752662902794674 -0.003321551810975075
1293 -0.0039876916440860985 -0.0037999483114765373 0.004904472994155369
1290 -0.0030915480316022416 -0.00039691739852654813 -0.002663813053545021
359 0.0056910063951775055 0.001254879056190936 0.0029855021302791175
1295 0.0003194263153199911 -0.009759682343296034 -0.0018222618900193065
364 0.00846230875170945 -0.0008083627600909254 0.005636439663512944
363 0.007210478275615337 0.0022317301286375484 -0.008048465004395119
352 0.004134626419819035 -0.0013420209617196835 0.005501825672067502
357 -0.004810629121755957 -0.0013692553324227336 0.012099399233831977
351 -0.004976907935234842 -0.003323056291393985 -0.010555665405064566
358 0.012388295294328567 0.028495586126108717 -0.026333027615978426
362 0.001843118826467594 0.020382490563605478 0.035079245120549406
356 -0.001979296828842063 -0.006652683701663213 0.004777179605625775
610 0.01093688079458185 0.0034835833558629612 -0.016191903609793466
361 -0.013801746017844693 -0.002856882695943562 -0.0033851557100905965
1407 0.020748960839110243 0.0028562092365045327 0.033713567174815995
278 -0.004041986467001514 0.015423706832824959 0.012327127154759736
360 0.025914109436936412 0.015060019266344024 0.003583482872026764
354 0.03753538445689719 0.008270467875862119 -0.016338438754136167
1297 0.009710734250640948 -0.020676583645992556 0.003221590336137132
1411 0.019898137964459432 0.016635338330316697 0.009706355285159929
1301 -0.00976728894127184 0.015802356158457005 0.02402558161302261
1298 0.012870178984780411 -0.01759394036772177 -0.0112281366475742
77 0.006481396291934281 -0.009238175124152356 0.01176899012159233
79 0.010704881257766665 -0.001715325144061504 -0.00016624491579676775
279 -0.026350848456206433 -0.0017629367791792238 -0.004260510623718412
273 0.012223681730061936 -0.00641147159241959 0.00592715502748194
275 -0.006273137973175679 -0.0041287597839152115 -0.0031646435847838454
2079 -6.155225534477757e-05 -0.0022258726163555346 -0.002329030090109499
624 -0.006192046592635389 -0.010495202824080556 -0.00451824084075297
627 0.011186051461176056 0.032213524370277115 0.04436813480387547
274 0.026049990236613207 0.0013833873164026296 0.014190555583008175
619 -0.0008596411057781449 -0.02376723951674525 0.007004116424234823
271 0.013150427602125515 -0.014619673621620767 -0.01913969985195429
617 -5.582451902760068e-05 0.0036975333324878214 -0.00262163668689886
620 -0.03846421573152441 -0.008939255007544767 0.003088981114791459
930 -0.004426436107151491 0.0002013402312944284 0.0025393865860355923
270 -0.010955292494385177 -0.0010904625917293393 0.0050677172608264865
929 -0.00017012171900034762 0.0015755154710730373 -0.0037068293869351454
927 0.002259524103898599 4.113817028171198e-05 0.0073144320568386025
269 -0.035158936176350505 0.02723967270817823 -0.01586497829861376
267 0.007540877493325857 0.0036858046164084954 -0.008196395621000883
272 0.003582841971229989 0.00541160929120491 -0.004715234540339431
928 -0.00033295636516943254 -0.00246781342388248 0.001130613328006276
932 0.003909707829694453 -0.011334121777881796 -0.003581073247888612
933 -0.013504772310453253 0.008187077812462851 0.00806070415564805
268 0.004009254048569803 0.00444007776059407 0.0017603394641893923
276 0.024930540373454258 -0.022948002937905953 0.016015436262539207
82 0.016736856221252303 -0.003165865152788517 -0.022889495295984625
277 -0.028906194747084446 0.005420430079560095 -0.007964153798855865
1004 -0.005715248271735883 -0.006280255660168139 0.002349831342817461
83 0.0015590735767519442 0.009917428780415608 -0.024443298016961865
630 -0.00275375756204953 -0.006263170090256658 0.007995229701736078
939 -0.025611833727171456 -0.014102789653853963 0.024368690122075518
931 -4.6830334385987226e-05 0.0006881602744690903 0.005269023168272157
934 0.0065201720198372354 -0.0007756804391672146 0.00530873677351457
938 0.0007886462413391476 -0.013819852877921405 0.028960048108765353
621 0.0031131723201238185 0.0002848747964007591 -0.002124566309617161
423 0.02047835302158072 -0.010977594722780235 0.00733384351499455
1002 -0.0026732093933221953 0.0015989980433281357 -0.0011702181071054935
1184 0.0038501261814949924 0.004309359166482567 -0.00252166201363935
1486 -0.013306741751410655 2.906061068340109e-06 -0.004720676387534628
1481 -0.004374832835368591 -0.0023909239596482273 -0.0012719743777649352
1189 -0.005901288412717054 -0.003211083579497397 -0.005060582724150413
2155 -0.004892064811229789 0.001480824951639515 -0.0008450711547432211
2158 -0.003653739590841393 -0.005539166988982358 -0.024998204732372468
1493 0.001362378441129295 -0.0015985975049131076 -0.009236346014686153
1489 -0.009324833384487722 0.009547583042088366 -0.008104234404999052
1485 -0.019735439289297205 0.01670874272796027 -0.027666378728076483
1487 0.006045753269498031 0.0015268553994711362 0.0006834134100638784
1484 0.005916679428884659 0.0021917181369180507 -0.0018543124530034957
1490 0.0027561452250438327 0.004268018634017642 -0.006382949846251624
1492 0.024204873677074343 0.003812886585633506 0.019205488371317834
1491 0.011114769356270263 -0.010369534741743217 0.011099000671988251
867 0.006806111680930563 -0.00875437493839677 0.007189438397278262
1497 0.0019957036168206303 0.0012446621208371182 -0.012456599007407127
1495 0.02337802492593058 -0.027372915153328067 -2.99825779296584e-05
1494 -0.0027567132708572455 0.014730798251417253 -0.012299392960333482
866 0.0027313386626104095 0.008633059244688459 -0.004623728777348938
862 -0.005636646435828946 0.001041137310215036 0.008250545539583034
1498 0.0156640896013204 0.008751592687036045 0.015926793235026406
1496 -0.007235043744294638 0.002160504609088538 -0.007227655238857087
1500 -0.012533025677689597 0.006214529017007518 -0.0064541089127452935
1501 -0.009939179253067906 -0.006209622749971947 0.022395567709881038
2001 0.004229831302248002 0.02640009485135127 -0.00047514829477332066
1195 -0.0080293179733793 0.009581814112170569 -0.00505419225601909
2000 -0.006341381452546758 0.017124504320976036 0.01817564551201099
1499 0.007489673696797882 -0.015588215636728266 0.0010696288022516492
1190 -0.0004894804212429673 0.00030258109460374005 -0.002629348613877973
1997 -0.00023759100885551652 0.0022874002985883005 0.014981163685196815
568 -0.011273026509461213 0.00927953274752532 -0.015921161274383023
1188 -0.002236239270982796 0.005493723968499027 -0.003711928963873978
1194 0.028131171626785606 -0.013292294038667614 0.042018348341184876
1792 -0.03189049176757244 0.02874408131127612 0.011821233439163008
726 0.02848893831491814 -0.012207883108713687 0.016375496259171788
1201 -0.022165519406213488 -0.0013300327530787017 -0.023822779076722013
723 0.004494422012451353 0.01116663755040935 -0.0010413785751027993
1988 -0.005689704845675706 0.002846012658606117 0.004586319151070201
1401 0.0029338128467195105 0.020743742579430496 0.020595696653686154
1125 0.005486892274373415 0.008078515553427854 0.012198150946229188
2160 -0.00687134244531779 -0.013372078931079348 0.009539773590515414
1400 0.012265781003533122 -0.03253097474494147 0.01474720992916061
1996 0.000746320071453895 0.0014216072820179438 -0.005021627022752807
1999 -0.0024960895280701266 0.004406188374972721 -0.005008307197170345
1286 0.005750622146006617 0.019414401188955484 -0.02133315942870213
1200 0.002474498033461164 -0.016681585623580956 0.004146915860288631
1196 -0.004841320062021824 -0.0022635909760157025 0.003286007498350174
1998 0.018601739833812143 0.014087546576879186 0.00914456877090363
1283 0.0269746484417521 -0.01567428535100698 0.003923159966927746
1994 0.0028971779306586733 0.005845862251778974 0.01753439725098195
1990 0.005902779302646031 -0.005115752682385218 -0.004358234996914718
1995 0.03330611599035987 0.017978095404901695 0.002425609501564645
1993 -0.000356369443231228 0.0037244027047294136 0.0012835052093690775
1282 -0.004166067514855819 -0.007358068944456094 0.015010767808769485
1124 -0.013147366366397168 0.006171704799569409 -0.015915311990491808
1121 0.0013408023101513155 0.003650178394731561 0.010547653318169448
1126 -0.011360434161483409 -0.01975805269813188 0.003037322066016123
1278 0.010041137380326273 -0.005986928101763252 -0.001101924362167423
1118 -0.0027693453033490515 -0.0002631051523843337 0.0061919664054003905
1123 -0.016396053330553332 0.015461043509274937 0.0052702398674973104
1122 -0.025813336334525067 -0.0074657172371910135 0.024073250159472082
1281 0.0009033506347377545 -0.007807977222821769 0.0033692359522666327
727 -0.008852282389303813 0.010017982479069673 0.0039460201716543936
1396 0.00019764329453615998 -0.0029345610729581383 -0.00322385332993941
1786 -5.675018508903241e-05 0.0035433318839762523 0.014653964728718537
1403 -0.0030109495859130405 -0.0010489472813636756 0.008080808596574682
613 0.01874183230209169 0.010553760612998127 0.00041644003941021117
1291 -0.004609648526402983 -0.0008737392878851532 -0.008837326260470452
1284 0.00018268062388843655 -0.0020923262568384392 -0.006662024056159597
1289 0.0018150185150640392 0.012649849839759496 -0.017108695410425933
1285 0.0030553710817623537 -0.006479659924251055 0.005770551145312759
224 0.01058567746279951 0.0012179675520408698 -0.0005874464364093354
222 0.0005958242158635535 0.017165349616031122 0.010889591761672595
1082 0.021834690931582346 -0.00648551244921119 -0.01291398385511405
1277 0.00196902088880667 0.001665119374332587 0.0008423350948778399
1408 -0.011133616614693967 0.006694284827104898 0.0028984800533587295
1280 -0.005909527824101096 -0.0008624419491116108 -0.006718239178945831
221 -0.009286994699918501 -0.019349815648077324 -0.0034248105630641083
609 -0.011331387507813692 -0.006821626952955817 -0.01184107681945581
1279 -0.0022611373432528765 -0.0029436735360159677 -0.002373498435228938
218 -0.005498115139915429 -0.015256620553264925 0.0021904658268252592
214 0.0030568564846856394 0.007415200081278831 -0.0025064342079828147
213 0.0014402380720089838 -0.011678170793381468 0.011072664205910946
211 -8.886863002887174e-05 -0.007557611053506061 0.00774325559106905
212 0.004704376203312135 0.000178904554644389 6.252450980498034e-05
217 -0.021801164733465214 0.023583329299659884 -0.011275247026480934
215 0.011521439122723439 0.0046054448736736146 0.001287360170604843
1079 0.0025052724791694457 -0.00027030506635576526 0.004051733388488292
1077 -0.00455148442456044 -0.005340844616512703 -0.0017832261904539065
1080 0.003814096806984093 0.004002562534430555 0.004262524403197739
144 0.003163224952412986 0.024248074292799005 -0.004361777100043577
143 0.007158673574866029 -0.004187215611022794 -0.00522501275584014
219 -0.003656315738605907 0.0019519956513983415 -0.0004317064759638534
216 0.0007845712554637503 -0.009412710546327514 -0.00718081205343309
147 0.014845355040606795 0.012130232955475561 -0.0026304685228412026
142 -0.0010000580198361961 0.008926706334817394 0.000553501273208233
141 0.0017597136523590075 0.0005200181824904347 -0.0017210227175777494
1078 -0.000849633696690723 -0.0026966267338369536 0.001355985717378394
220 0.01950416142198371 -0.026977557466096976 0.0011638835298554292
604 0.005309670771975535 0.005002968265565003 -0.005351220596451685
1088 -0.017312731924290926 0.002744485920344783 0.03804332225144089
607 -0.0292382890247675 -0.015259000331142901 0.025624714331626774
1404 0.0007619731396492456 -0.0006571639777632626 0.0030836477828570337
223 -0.030182025877207544 -0.015419158700698847 0.007531388283075592
608 0.006612271835872617 -0.0011621461764179815 -0.0042792005334787615
612 0.006759506347602298 -0.0015945810888585638 0.011195932941728704
1051 0.009700205299303646 0.009968810388832064 -0.000562091609788089
2121 0.007119362232353669 0.004194553035699947 0.0014433903789304783
1099 0.01578524140804313 -0.00553959111446825 0.026191226206500794
1098 0.007769724531690908 0.007477930001609806 -0.01388215364041689
1041 0.022945374454100345 0.0034825938181163095 0.0007384579007017936
1050 -0.009649847915973585 -0.013554423018032159 -0.008899125069895559
1083 0.02813012898026093 -0.005368500137379033 -0.0025948547381820417
2125 -0.011260789317724318 0.007060757001684576 -0.0056975013457862805
873 0.017402635267538855 -0.012456031470799378 -0.00708224542716764
868 0.004183442388880353 0.007387118898548924 0.0005098493064459255
872 0.00850760723924735 0.007420649816047548 -0.0006185692552574031
1100 0.01384691638602868 -0.0038626256889845913 -0.02449014423976178
1084 -0.004451715282880685 0.0018360563973850003 0.0001688484765958986
1089 0.017986959062635952 -0.0016890575600016576 -0.019931842541561377
1081 0.0004938323417352237 -0.005744848280356023 -0.0028222879235154986
1086 0.00721081763105097 -0.0030823247110786474 0.000635227144246961
874 0.005382921840501729 -0.014624661449062666 -0.016965743111357724
1096 -0.002539837628343856 0.00022322409779962992 0.0041468714739092164
1085 0.003225826624500933 0.0028356718617637573 -0.012514256580182662
1091 0.0005328888691124395 -0.004333859869517402 0.0006389147585470561
1094 0.010364236491819712 -0.0007330817115262887 -0.008060605558710937
1092 -0.004845837627155221 -0.0018475536644872181 0.007288022103231025
1087 0.005738013986956633 -0.0013491495596089334 0.005027572603642847
1090 -0.006629266633435865 4.160161641574335e-06 -0.004364166543891988
871 -0.0013814908835922545 0.002407467959143562 0.0002594076582194657
1093 0.00010304118655039367 0.0014040279161822745 0.006409564807341759
876 0.01511576038624629 -0.01690654293836791 -0.01583235093045076
1095 -0.014343874729983929 0.00553601974316073 -0.02026404218163259
875 -0.0036029715444948402 -0.00043359092364023057 0.00258344894783254
1101 -0.008905518698811673 -0.011488610795313513 -0.0063277199917343395
865 -0.003224443883713737 0.005355196235457274 -0.0034523090085965664
2126 0.0028991719321437032 -0.015123933907413078 -0.01958621776394283
476 -0.013285273780890458 0.007641231657985111 -0.0024232957154161653
166 -0.015202893512967532 -0.0019490052673690544 0.015479670678031495
160 -0.0010660829925118129 0.0036552175006910863 -0.0005156108561492492
456 -0.0054597562032258525 -0.002733134547983019 -0.005343016816984245
167 0.0034223482700057135 0.0009261604229245273 0.03711428014578866
565 0.0005757401945196484 0.006757975639215498 0.005448436189655677
449 0.0029597052241704318 0.005917789588524344 0.004808796658905881
453 -0.007987106838691553 0.015131760548373091 -0.008106705734190778
1855 0.005480423271967917 -0.00596066384138765 -0.0016150151262148745
1852 0.002171769182400968 0.004910120448741993 0.0017094897365947258
452 0.01771854738878845 -0.017264865503515282 -0.007275939086082856
115 -0.0017931007766494751 0.002382893123015193 0.01876708691807972
113 -0.005034647231672603 7.26289838928768e-05 0.007894245310191396
116 -0.008051713959634315 0.024629038982801815 -0.010397671837848992
1854 -0.0005654112146061644 0.0018560040470165264 0.0005820199896522664
1853 0.0009095790520712899 0.0013792793618315044 -0.014212852188021988
1857 0.007840107546775405 0.002994503465576387 -0.02741386259115839
1860 -0.00025923274320353135 -0.02539586646847558 -0.005849402467563853
163 0.0007019375330969608 0.003273762613469911 -0.0016020869717583484
117 -0.005402041804473538 -0.025550535095763268 0.0035703752096975234
2130 0.00031080528404498934 -0.007449268807045817 -0.003756212579144994
1858 -0.010248364536173985 -0.012296024307509597 -0.0324167924057749
120 0.018657149857378125 -0.008584827043542983 -0.011886955539894831
114 -0.007240256577002639 -0.0034338942840596103 0.006378899060888861
168 -0.013662677227074838 -0.004982204247332104 -0.00276263385778855
712 0.0034599652210599284 -0.0198726142033239 0.032578518034370306
2129 -0.0007082506798224337 -0.0016690561143920036 0.0009019373262103508
2127 0.0018984565444361962 -0.0034167454808993946 0.0009181623246340459
119 -0.006908920088345535 0.0434231314177851 0.010670059382557051
164 -0.018982557859619793 -0.00037542251368829116 0.002768935462504905
561 0.0013638504092884948 0.006240843909070588 0.006362678317888237
713 -0.002882182737034865 0.005410963859139968 0.00020192500021794701
156 0.00026263319742680523 -0.002937784913708783 0.0072149501362614365
2224 -0.008370795852465657 -0.01624801170288343 0.017713228717701767
471 -0.0025355105708174492 -0.007633546666471785 -0.000686612488624213
2174 0.02946592678245788 -0.02402436952779705 0.029234891289735054
1827 0.0060111248909124546 -0.000583631257098216 -0.0016606519301251412
155 -0.002612226336080337 -0.006231008600712018 0.002564938262059469
1104 -0.00384897606801488 0.0017293402559343278 -0.003611615742249474
162 0.001576190128115666 0.017599797988850828 0.00580972257945648
1833 0.02329153342982589 -0.01531454698504523 0.0031212301533488623
1836 0.011262665036440382 0.005521400245853214 -0.015968693076793144
2132 -0.012817319831707648 0.016976204159476253 0.009784528954667266
2128 -0.0010947861425586558 -0.006022386477357718 -0.005494380227553405
2133 0.007155334723273588 -0.008586744086347166 0.0037692436124677825
2131 -0.0019339808623252653 -0.001040617533386569 -0.005197499998215804
2135 0.008332367357094753 -0.0011460470556939205 -0.0011485591800453954
2136 0.007114271525687037 -0.004398496156224231 0.03899806278183934
2134 0.0008344105219442008 0.0040806724647694526 0.000575295769962671
2139 0.026747117153252516 -2.7718907214474105e-05 -0.008850437160597708
2138 -0.00667957211689019 -0.007067018078683277 -0.006423334918653422
2142 0.011051603997484498 -0.0013408502445612252 0.005419267711267701
2137 -0.00018977985549846493 0.0003373130782207581 0.0025717265287108597
2140 -0.003914952770540207 -0.003554517970847528 0.0011146117649382594
2141 0.019358079775696268 -0.03187105333299829 -0.01569562612702715
1108 0.007156046834163882 0.013684624661958075 0.028684314979728842
1103 0.0005121514218586276 0.000603618057018616 0.0019480931872471628
1111 -0.00018077535209194213 -0.012226387206099325 0.005941620363369235
2145 0.004923819181098329 0.003501141086132947 -0.008613859871418085
2144 -0.004556919111173518 -0.006359879337372231 -0.001821238365264048
1107 -0.005691568401789899 0.03213796939976665 -0.005078538358857142
179 0.005413852637261356 -0.007668520042823139 -0.004735283668240234
1113 0.014811192867539204 0.008153284314092237 -0.0013378142947546052
1830 -0.0008102507795191031 0.00202494709085259 -0.001702716030480602
2147 -0.018360147368360048 -0.0074113407462368915 -0.02810950554847423
158 -0.0010812820927021986 -0.011156227617918837 0.008974404717246458
1102 -0.002190431041372577 -0.0018409559414560442 0.005000327622163907
1106 -0.006770323810218973 -0.005248322052090992 -0.0023457361990812556
161 0.003936242793109512 -0.010807538702170598 -0.019785871722049167
2143 0.0016163111055260884 -0.0016308271181122269 0.00029056655194611644
2148 -0.0035649964964441384 -0.02057001919844099 0.01724877159466418
1557 0.00647870306007681 -0.004223985632196463 -0.004663114787442237
1835 -0.0036321549389117954 -0.0012500818671491135 -0.008382266456651927
153 0.017366456692725577 0.02261795876384177 0.010254120621197625
1595 -0.004217474551490101 0.005175522493435715 -0.01115259597330408
1590 -0.0022273597992296446 0.0013634716334944544 -0.004868332860825824
38 -0.0017890104575894095 0.008444291494654489 -0.0004075119238044824
152 -0.010741126063720498 0.006321968057953076 0.01661650949123978
154 -0.01919273686585981 0.010893450200010814 -0.007880632086530904
1600 0.005377001490520888 0.017601029704350547 -0.004881846863854142
1591 0.0051116293644985576 -0.009449116642461718 -0.001558397092500273
1601 0.007546689200171506 0.005208338513691488 0.004406195763818085
1596 0.0038032441637775283 0.008831153224493687 0.003837722897038672
149 -0.004420122170437694 0.0009383604098455478 0.006166622973941136
1343 -0.004021881518121168 -0.0016407541519669157 -0.006110154686200613
2151 -0.013227417720097976 0.0020693086286102036 0.030092451080838686
2149 0.0036700850125668282 -0.0018053715412651547 0.003304376827398257
2146 0.0023106857859588365 -0.0027319512628698047 0.0037527355034376033
2150 -0.012818334462581607 -0.025967901690996935 0.008786387747571381
373 0.0025670618546836796 0.0034096283484807218 0.004655612424790715
377 -0.00431931112699352 0.014586939359971126 -0.005116582424581017
376 -0.00946371726047976 0.009066743792315432 0.009006455206216032
378 -0.01100165259175613 -0.022470799267746394 0.0015777031812723623
1350 0.015452698518729083 0.027415471231914842 0.010003631394158344
1346 -0.0011748311337066537 -0.0006796695217931168 -0.00010982623363223181
1351 -0.00678288281494626 0.01981291523660373 -0.01211410500086979
371 0.007580267132227939 0.0014730597731680132 -0.00771780544260258
1349 0.00274615136819334 0.001354295250263265 0.005364349885859779
1344 -0.0019941442199992243 0.012188386651481682 -0.029431402578738018
1549 0.029050319236573186 -0.00980543349200212 -0.002704581176210787
1044 -0.023096494956731745 0.008525131748207326 -0.021391773279838044
1348 -0.018555959160830617 -0.025879220948090136 -0.005620576356956353
1587 -0.005453784884472262 0.005504896446466737 -0.0036556645099649673
1697 -0.0075464457401608264 0.0008899528575390192 0.028453740645438878
1593 -0.00540741109241063 0.002139679760055526 0.0012997173576967647
1598 0.015298914753736143 0.016959349216396337 -0.01796267261028616
847 0.013277505748005618 0.0035050316437171833 0.001811174713446491
1856 -0.0012060535465974196 -9.183512697368838e-05 0.0062796992524134865
1599 0.003083072461224827 0.00875932120014734 0.004669170240453302
2226 -0.019317948065992987 0.025898550385085373 -0.010108944723779288
1597 -0.010843100295630551 0.0073901645513153764 0.023747361502572402
1861 -0.004287553422680058 0.0034624742284454853 -0.00039130075051292
1863 -0.0006119291441286919 -0.003003312134897646 0.012253411076150633
1875 -0.011612463506219174 -0.01699572933374129 -0.00891208524931792
1864 -0.020731327116929783 0.001485838284201051 0.007121340309663982
1871 0.005106975948837386 0.005450325861113715 -0.003953833636896868
1872 -0.009054293098519156 -0.009985626261416138 -0.0004237026573094101
1868 0.0049497142414875114 -0.001917710939517097 -0.004654102347554438
1873 0.020304219517115685 -0.007559083543999893 -0.0139742780623828
1869 -0.008197481979118794 0.006489972541735883 -0.019729915184351774
1866 -0.011379641251731588 -0.01645501094624343 -0.005311583515960558
1859 0.0005479735125910174 0.0031547191284567945 -0.004443426361741178
1870 0.0014045291581696383 0.00999793363702295 0.007829282899927133
1865 -0.004530013345931665 -0.0020965948737123787 0.0029219406495276466
1867 0.00025669318263612384 0.0013425309051336332 -0.005549792112851221
1862 -0.00044080237624808245 -0.007881445005496718 -0.012052869544296012
1874 0.014066146037345332 0.011406590815632636 0.005158587804809724
1696 0.003046771563789782 2.4907371149703992e-05 -0.0016629113765142855
1701 -0.0006076003578249329 -0.006094156732730691 0.00696256951017783
1699 -0.02021973706709264 0.012914658152194312 0.011356494190575104
1693 -0.0001515961755832981 0.0017766638920233564 -0.0005937863633490197
2251 -0.01100905305996655 -0.001292398555393346 0.002334992513307689
2023 -0.0023525062182334624 -0.005431641232973545 0.008005052721896715
1700 -0.010870269975644947 -0.025194624293912327 -0.012801691225918016
562 4.8541346220679243e-05 0.0007779816432440023 0.001350032239090376
973 0.005409627553289385 0.0015126385898345683 -0.008633893365008683
972 0.007584628236822296 0.01970600315475728 0.0023846743285288823
1374 0.001700994786427181 -0.0035632774641414914 -0.025480035120470257
1375 0.0002085426819235638 0.01100529243181669 -0.008468592029667852
1371 0.0017097056667492979 0.0079041086612094 -0.006576932050677546
962 -0.0062192972818963695 0.000629077462439443 -0.003725995270588466
2207 0.0014345154515941123 0.016058529206740665 0.0007563799936963815
714 -0.002520221702314654 0.007531287971625665 -0.0023248002863032213
709 -0.002147990222892409 -0.0033977012731077165 -0.006661045909299627
2216 0.010316713830703636 -0.007710708984699984 0.00456584352138695
2203 0.0013549857531679097 -0.004988102595553815 -0.002677855945877301
1372 0.008509044653736286 -0.0019562219417839075 0.02249427074682238
2214 0.00024022652164422382 -0.006608644286095187 -0.01732441958620741
2247 -0.007462423074950366 -0.008327620765068912 -0.009886735220111518
2243 0.005988313405864972 -0.001297811546560599 -0.002029009904381499
2206 0.0009177859434971165 -0.009327466137365525 0.0012269239370280138
1368 -0.004262401891671764 0.0034417258236881408 0.0017004512206895263
967 -0.021219373088509245 0.0050863218721282 -0.01242592828408255
711 0.0008888949897246086 0.00916227802587904 0.0051262755158691066
706 0.011272169174979007 -0.007442515936889219 -0.0029294686562232816
710 0.003070601484766481 -0.012175892896720488 -0.006766117754981628
707 -0.007529433850233761 0.018422260683458844 0.0030522171478857348
702 0.0040248984450649335 0.0033744869064255218 -0.0012786622912854303
708 -0.014406382666489238 0.005233951384118468 0.02734487811906496
2209 -0.0013386237140935622 -0.00012710276144278185 -0.004899608991304273
1513 0.002783565476058697 -0.0038291341885411836 0.0007625224154036487
2220 0.005774071788231964 -0.010295432554032433 0.007311907657175995
1376 0.0059991945210327935 0.021130355075638305 -0.014048109960894771
704 -0.019131590060966538 -0.0006351558437240375 0.0038668333517463574
701 -0.0064284593283203744 -0.0004566220589731915 0.0003117125853330836
703 0.0076932771504889304 0.010988202436110928 -0.004917913799843854
1504 -0.0011192754206753182 -0.004556651453475193 0.0009864471996536713
1508 0.0021161445502610454 0.02123862077276709 -0.001119985976296216
1373 0.00893135983194503 0.0020418878077138446 -0.01909835356908858
2213 0.012093132528494858 -0.013021154755384866 0.00459347345093082
2212 0.003136783979335355 -0.004972966844138144 0.00042261496894431945
2215 0.011224236868041526 -0.0003840775908047953 -0.008529369580339187
1503 -0.0013082757812275944 0.0009044430962916458 0.00645666043458772
1506 0.0022486406952666018 0.0069876712718172475 -0.0004503270115378979
2248 -0.021209231497949985 0.0016175588025065045 -0.0036405456007758876
1365 0.0025216972634252107 -0.0015697771610152446 -0.0036851775909473965
513 0.003274082709269371 0.004533974566853946 0.002052739644750032
1502 -0.0014993301860517928 0.0006771663963310731 0.001384646071526003
516 -0.011493676870749231 0.022049097653414017 0.005122267219461774
514 -0.009543361431115449 -0.0013922444074851363 -0.007802967084104589
963 0.012201213621003142 0.0029397722469037086 -0.006236333048810146
959 0.004872024487550159 0.003308106948360546 -0.007397775508067471
2274 -0.0006133750115716784 0.001352540705410189 0.004340418828738559
171 -0.008325264484546091 -0.009850880249608568 -0.0038234679381312225
2276 0.006794109783099855 -0.0013026231674016914 -0.003369384509913795
1509 0.003337239324716508 0.0007157686827358921 0.00048424393812019934
961 0.013663158748509915 -0.019517874890667117 0.008548675973586313
181 0.019988896231100266 0.00781483191069603 -0.015966862574788923
1548 -0.003036218417807714 0.010999423837530414 0.0006682500858259153
159 -0.0051135391509237954 -0.0057107120621029996 0.006721965104021736
176 -0.0031785292244043612 -0.010163094842467392 -0.008388055776229695
170 -0.005033422089752033 -0.00016390586662143046 -0.011031238293984598
174 0.0004164882486707864 -0.00683330610049194 9.053220371947986e-07
180 -0.00457348650786386 0.01846306713186575 -0.011918496920722051
177 -0.00033224955529452007 0.00712533524311662 0.002301115611979859
960 0.006288969181772072 0.0034838515053191217 0.009628306160963976
956 -0.007390414973144131 0.003275036741833755 -0.00440493234648971
1514 -0.0030870352836902338 -0.007793456981348013 0.0023404707925070737
705 -0.013641073156980986 0.02779088986619013 0.01566591493028671
957 -0.009325749792895011 0.002849112924665396 -0.009127740336705362
958 0.001235548240102162 0.010516838331790583 -0.027230707644113002
953 0.00017633573833937676 -0.0003526375236107356 -0.0025191786641740183
509 -0.003087768545335752 -0.01222910395698246 -0.042253087353851984
169 5.9801138709214686e-05 -0.002335910246192805 -0.0020951247904721997
954 -0.004342553870983433 -0.001979820279649024 -0.003247343657424912
952 -0.0013296202202368044 0.004937705585807373 0.004637428976505308
508 0.032819983553305045 0.00500830578610961 -0.008400522869896078
955 0.000942822742013179 -8.397693822742286e-05 -0.003371140105318348
505 0.0010561538019075278 -0.006603042552498446 0.0004976660266946414
510 -0.0010122430729617028 -0.006090300554032992 -0.0024514959781054653
515 -0.010292782921448158 -0.012330022515300238 0.0035039493779298932
511 0.016258536703176556 0.005100002462504377 0.02072379697079455
172 -0.014938991686799095 -0.011558583796502287 -0.008287971963231144
173 -0.007398823961617116 0.01587842171310856 0.021363744206825318
506 -0.009205967900552435 -0.0036977292680939098 0.00020955357074090602
246 0.0027755021540311485 0.00519710745128613 0.00597772091298938
507 -0.003501040288002917 0.008525128727785599 -0.009311118270979963
182 0.030315500071511216 -0.005154789591642767 0.009692096384597062
240 0.001953592090735177 0.00926912765360872 0.0001312269102270965
245 0.0013931687071189454 -0.004578945233803293 -0.0051310624354513204
239 -0.006001910157399363 0.002800573437362017 -0.002612538743773708
518 0.009437287450154845 0.011365400859323638 0.011802780474275248
178 0.004358080015465693 -0.016437858180845352 0.022473918239179255
512 0.01581830094823612 -0.017216334418230124 -0.01732308924805026
517 -0.009633365902593493 -0.010321852538503621 -0.003913105502542175
236 0.0027518508332478983 -0.01602881732956969 0.009706945995679657
1584 -0.0006111714679972413 0.0015065043919749203 -0.002235358532313422
1547 0.0093204712429807 -0.0010516582024603445 -0.02583743467824205
1311 -0.007922821950440495 -0.0012015325895545132 0.02360106659797298
242 -0.010860188150173125 -0.003379384455208745 0.011853098081612268
1605 -0.0011603495840227238 0.0005091256910867856 0.0007619732493214221
1592 -0.010392405340025043 0.009094279215245596 0.0027292470027434537
237 0.01000279077723717 -0.005554850426689361 0.014683903898949576
1310 0.006030560234561752 -0.00647099681450857 0.004042242453291183
1551 0.0011618944974706828 -0.021068605937417502 0.00011328988800862125
1579 -0.0024235778559094758 0.0005976488015680937 0.002451315655583232
1586 0.01778101078041357 -0.0166575514528701 -0.009344739605527176
1550 0.0054845446034817716 -0.018279537832373197 -0.011149038115002428
1585 0.0003108406484850686 0.024023215556481316 0.016351402495927873
1546 0.0001533474857536168 -0.0007031105250742472 -0.0012441249762576922
1581 -0.002384236727430732 0.005269384700856598 -0.004671122359323568
234 -7.261334032083586e-05 0.008356041630940019 -0.006519494219097193
230 0.0015343426729652499 -0.0009946830382617806 0.008077989665699212
227 0.009355120244059796 0.0004601915053052847 0.0031809261717748315
231 0.02310782311695924 -0.01439873369333599 -0.004926857163825353
1580 0.0029033814922113012 -0.0019298659316113905 -0.0008301867674239762
1577 0.0016280384094013605 -0.0038036576893053778 -0.0005935913683010232
229 -0.0099438757475375 -0.0020088879070005055 0.0003276174602177074
1578 -0.0009117832775612044 -0.004808567099199661 -0.004042641256102936
225 -0.006945239803941699 -0.003998976210755643 -3.34173207347553e-05
226 -0.0006259921348589671 -0.0032419741061238162 -0.00233420802493622
232 -0.00932072253904048 0.016632166152155528 -0.004628468425289979
228 -0.01783723666230171 -0.008916410972506408 -0.002376521350792557
235 -0.0167735578471515 0.016349104961010594 0.010339748230941517
233 0.004394013758683463 -0.0040398264363149155 -0.007959193102278543
238 0.01091277451202562 -0.0014917860630096404 -0.0040145182534764585
1543 -7.863408318763616e-07 -0.0032388530670878586 0.0010015438270069826
1073 0.0029596429265596248 -0.0063843368149572 0.01041047820480741
241 -0.006204559101432764 0.002243964545107096 0.005066913783985511
1306 -0.002961147891847365 -0.0027066460044353983 0.008167388516223301
1304 -0.0013853221008431828 0.005568229024643614 -0.002792100692078334
2249 0.00525671646115374 0.007062116749790958 0.0027291268134229103
1076 -0.003422102234138695 -0.01526951161033805 -0.031533505132776085
1683 -0.013137064211058338 0.00018647591826581226 0.011111331677285343
2221 0.003975062395940442 -0.002699916533399264 0.00020017287957813898
2225 -0.002431986211843662 0.001962765068577023 -0.004688211937224088
2210 -0.005107677352853117 -0.022518347115336405 0.008889061362129719
2222 0.005300914260304531 -0.01349730138968842 0.009579913702112324
2218 0.001799395500256591 -0.0020309583877711544 0.005328326028731144
1688 0.023805073424212495 0.015379177944992878 -0.002418711221045757
1686 0.0020319446982576773 0.00440043305931573 -0.001167308895598535
2219 0.006316598941004758 -0.01866738396758006 -0.010325424707615312
1068 0.004397301877837275 -0.009103656519856724 0.003890543839793988
2246 -0.000903119709328073 0.002404611786414716 -0.003707438880374733
1070 -0.01196949729851489 -0.008871722198475967 0.014623898265415073
2217 -0.004085237838888979 -0.0074336600951882765 0.018100557143179576
2250 -0.0031945939281862084 0.019663980815020247 0.009127881660097058
1072 -0.024179188667046336 -0.008398611156295494 -0.02249974311250351
1695 0.007186741651664205 0.009015393192774581 0.0036677084410332433
2223 0.013135135734907523 -0.00012897576117255527 -0.030371610360072476
1694 -0.010266056949819682 0.002414025943444383 0.015423048140266708
1069 0.0033357217233110138 0.0012823130042538167 -0.009728583748660808
1065 0.001089253954617279 -0.014841409399529085 0.0016926984384565368
1067 0.007226079735341787 0.013969158968062091 0.002606115855891137
1062 -0.0031285814715669084 -0.005013550200965586 -0.0057058862166232795
1064 -0.0194461772124588 0.006455485600685106 -0.011256464855254313
1061 -0.010983300121315404 0.003109778987407623 -0.012963498484085057
1066 0.006615166712339883 0.011395695111586758 0.00433445392466765
1059 -0.002012057191897062 0.00250101666677691 0.0013701022116777472
1056 0.0009052280002386064 0.0004086642242020705 -0.0033527090517125975
1060 -0.021584154811615103 0.02494754732920802 0.021200379240175236
1690 -0.004598225361246812 -0.0009445626317358193 -0.0016125361031462096
1063 -0.009594053219804404 -0.00585145809410423 -0.004154488781836023
1058 0.005470828229987862 -0.017220584472429776 -0.015241488992329971
1053 -0.004349044242145583 -0.002052240203010683 -0.00321505903607771
1366 -0.013377522758784321 0.018834873210151405 -0.021869551377075528
1362 -0.006331933637395458 0.003356707181487168 0.003816941467981046
28 0.01528447966695304 -0.005832810890358067 -0.008201480925455749
860 -0.014890479509772207 -0.012830193682178154 0.021879217081053743
2211 0.0040401322409708606 -0.002658296717831263 -0.00758272053334861
21 0.0047966137200401784 -0.027984072943149977 -0.0162865640701085
15 0.00033907576714353597 0.0037303176107007824 0.00425596444250357
1367 0.012119134946920188 0.019564013891948874 0.011613903027939293
25 0.0344132181719714 -0.023892421596579668 -0.0017327994985462728
750 -0.02640942033750233 0.0237182035123591 -0.03556189261675547
745 -0.0017095495805080172 -0.0013846718289002111 0.017105774249903668
743 -0.0014781223568118137 0.0033080534642625386 0.0034299196148108273
749 -0.010844381905005947 0.0034259837458162235 -0.022721550419132177
756 0.0002173451645864937 -0.001510523256167471 0.024262862285428354
744 0.0014735383466455228 -0.0011277472750734258 0.0029410310761295044
752 0.012873329978282541 -0.005928054862926691 0.004972640536716178
746 0.0048644821666992905 -0.002098206452251627 0.017440810080961048
748 0.003046079837974264 -0.011750963989139836 0.0022684624714902784
855 0.0020431776631010946 -0.0016700317088344716 0.0016072331455563892
753 0.013056407341093626 0.0019484353068823504 -0.014179870543086955
751 0.0045571178848042146 0.0017986703661067027 0.002036831273689007
754 -0.0031912960799403175 -0.006565189723542013 0.005568015097763951
755 0.010786533668218088 0.0168594064345568 0.0095125604739872
595 -0.006193034439991049 0.003290607393897988 -0.004601993673012187
20 0.002140066994903928 0.0013149569985732995 0.002341457849077086
263 -0.020780310303564337 0.0175076006320989 -0.0028065206118672234
258 -0.0033775186008047587 -0.0012952993960557223 0.00199681603372502
596 0.008146115447809327 6.125706745859119e-05 -0.006980690754328955
19 -0.022439657742361056 0.02874117433792761 0.004288179018644321
27 -0.011666525891864381 -0.01146627680780264 0.01047360905723043
23 -0.001181991368644552 0.0034515482697347758 0.002253729438749089
16 0.003583297810957804 -0.0001734811891163015 0.001530433351927863
266 0.023060445841511776 -0.010634517383843092 -0.022706038016444396
852 0.005265655879054055 0.005963104208416405 0.0026360212053955
593 -0.014562614304079577 -0.021621245717691216 -0.007610798815364984
261 -0.003801584365434295 0.004655648144068746 0.0013201003154782896
854 0.0028538130902012746 0.003783507412862512 -0.0021121125585381096
24 0.008018391911493889 0.004345940563749162 -0.012621016186355038
254 -0.00043879817883590416 -0.002722266911432204 0.003385980404245345
590 0.0013646125860741225 -0.002141081103838937 -0.0021876685578033853
26 -0.0020585644311042752 0.0015157546679259355 -0.015823496385224158
1388 0.013021034864405985 -0.0007164680251335314 0.011624585817411227
1394 -0.01383564203868914 0.018877166843635513 0.014294870826046309
1516 0.0003314670016354453 -0.017466047627251558 -0.006309794852216589
1512 0.0025011487340405028 -0.0023802268580862653 -0.0063921682467435875
1520 0.0018691532746281428 0.011401614596472704 0.0006002323086898133
769 -0.0016709864785350093 0.03466797005382709 -0.011651236817097827
265 -0.004813861063077399 -0.003136936336456487 -0.024694464107138565
1517 0.017308167883536892 -0.004847995733484136 0.01987785132162262
1519 0.007223111018322881 -0.011476328222139781 -0.005810596078267597
252 0.00237761686355843 -0.0015287398623492006 -0.003933183401110144
247 -0.0012495183051991746 0.0031685008179066264 0.000973579904289274
244 0.0005923727294148822 0.007368315553606895 0.00025013015761863716
249 -0.01532199281480388 0.0022512007024368293 -0.013829648739369363
1515 -0.0035212868183950243 -0.0036937381504689826 0.0037181344481774705
250 0.019982879035407106 0.00416275262803919 0.019012810174346934
1522 -0.01017089621477456 0.0036012255735272526 0.0036081241909443067
264 0.00989043551701249 0.0033078124233271978 0.0155471784041843
1523 0.0014550947114380396 0.005881025564491601 -0.021899384794938536
1518 0.0003589276720594457 -0.006215757698852066 -0.012555435140705692
1526 -0.00925677533057355 -0.0076202300984688975 0.0010648644083010158
1525 -0.004902233536668395 -0.02336302069819764 0.01252138637178965
1524 4.6378034039624034e-05 0.0033542071463572554 -0.01325304678138855
1521 -0.0033010932584911523 0.0012300394208503115 -0.005222969417697407
1386 -0.0006450765260097632 -0.012900225945513702 -0.0016921633039426128
1381 0.00018598117925105952 0.0010950041346881885 0.0046646706535198095
765 0.0043505418719620775 -0.0028932701140450792 -0.0073647506625392585
248 0.01995062539851371 -0.023011277104833527 0.010113377420772802
768 -0.02531488708641963 -0.022263584899559912 0.019050182736611295
770 -0.00489721530128203 -0.01649242778243985 -0.006852597234767763
1383 0.013501250908958366 -0.001491412935679098 -0.00594942845154723
1378 0.0043990795016517455 -0.00029356320691826583 -0.0033571186608759357
1385 0.01007766800567912 -0.0022330304804872784 0.012337739167701377
1384 -8.577516156924564e-06 0.004288384010407865 -0.008046495994791965
1392 0.0009049579705417233 -0.002280177205944531 -0.00430409550216175
1389 0.006901869477762928 0.0005328423655926758 -0.004349853414909068
1387 -0.0034389597718959505 -0.007194465118689662 -0.005952008192975239
1390 0.002219406171391195 0.006780465018984593 0.0026252023104069155
1393 -0.0010518567865805514 -0.0017087269573117312 -0.0013103268903396335
259 0.014429986942104903 0.0037894368851355813 -0.0013560336022151514
1445 -0.007766887322226712 -0.0019729477385508863 0.003712354499199132
355 0.0015931574570656557 -0.037104119709065894 0.01977348674268483
1382 -0.011869690506414619 0.021945418718378944 0.006689629189958696
826 -0.012834027490202562 -0.021196293986674535 -0.004730110106595132
1377 0.005496914278012886 0.0013967612878353292 0.006594571453329878
1444 -0.02264146440474377 0.00562217066631549 0.01571308428708031
821 0.0028597676080104515 0.006862692303932898 0.005236971235979698
1307 0.01809354482267447 -0.02186238877438653 -0.005946360265150854
1303 -0.0016826234558661784 0.0003302057571393791 0.003294187775949347
824 -0.012205447339558813 0.013461929915879684 -0.013675873312995105
1302 -0.002555280923409671 0.004907684868046287 -0.0060751795352394404
1379 0.0025398878755816673 -0.0014516152180802915 -0.004819744476302251
1308 0.011353591401400158 -0.004502552008462967 -0.0051092410031684035
1305 -0.00415744658455846 0.0022129938388215607 0.0021800072921980803
1436 -0.017398165018814946 0.0005074060713121569 0.005232327003828293
1380 -0.002981230919178748 -0.005788982599746217 -0.0001307112062092009
1435 -0.02120760357168444 0.005995233741555173 -0.0018063279999699458
1431 0.0018311569455901882 0.006045884818523263 0.004523312928563665
611 -0.0016364291586831539 -0.0059167779165185405 -0.0008672410466318532
1428 0.008140317824085273 0.003913908954197699 0.0034051863069421645
1433 0.0071395923769214465 0.009663916606136854 -0.009723830634693901
614 0.007806783895537284 -0.0025102455591245383 -0.030336523648878816
947 -6.276957346029103e-05 0.010701117735062956 -0.009201772880339349
941 -0.005399271574844415 -0.000640617239279944 -0.012737196732792666
1437 -0.001690775638444166 0.004201939101283238 0.006351824659262807
1434 -0.002345118399186149 -0.003174889228951277 0.0007034433205121061
616 0.011569718463282593 -0.010072817815233925 -0.011768907716776595
1442 -0.03678883532780331 0.03139018855042098 -0.008343863864985873
1427 0.002960934791585441 0.0015873165627468561 -0.0028211459614499996
1432 0.02526546237009214 0.020373606169003876 0.018944751969535625
741 0.0065241075621646685 -0.004574671503013417 -0.004437241866335361
935 0.015078109724301788 0.005992302736165231 -0.002663838622111222
1446 0.0017701827174223946 -0.0036595512268217923 -0.0032189910596439595
1451 -0.000488365820143364 -0.0018109236276695891 -0.031401915141872704
1450 0.007175371067444388 -0.003116879868127195 -0.010780651855847131
943 0.0002589487306627487 -0.000783644262210127 0.0031515418315951216
951 -0.005551364900273462 -0.02332251436035572 -0.00848785224824837
948 0.003542371500795641 -0.0011133365423783037 0.0014799234063010008
942 0.012388877031103257 0.01589318616862906 -0.02002249995845967
1440 -0.007230108274407254 -0.0017875043447074435 0.003768267132069564
1447 -0.002996057275651325 0.01001123251600168 -0.026266389544310344
949 0.006147289081656649 0.0014215660421252195 0.012511123763695009
946 -0.00894308229925077 0.0045021599731055635 0.0013439049891950663
936 -0.00933553661507047 0.01069626292880806 0.017965440368640385
1443 0.003514002343672356 0.0038519628342304642 -0.00167440762625924
599 0.001096218281133146 -0.001422234650288435 0.008782699836336403
950 -0.013259468363389332 0.02027773667421413 -0.0024814389288088184
945 -0.01514538805761337 -0.001778239419869714 0.012271381670359483
937 -0.007797712841697784 -0.004490902919400088 0.008631486255789914
940 -0.0009519238385390813 0.0004585844724554923 -0.0019147473749362082
594 0.003703511591912137 0.0015922026955017177 0.000743029988361397
601 0.008405232503164306 -0.009278318273291588 -0.0042081510766012594
1057 -0.00927079609824303 0.004891029661828051 -0.01775507000679705
592 0.016839072443007266 0.021469143884932377 -0.014205238692468244
1054 -0.0016494459437193497 0.0013416421876315276 -0.0031442329523121318
1052 0.0010385046029336765 0.007676182967945785 0.005917346365686941
1055 -0.00034196721618413167 -0.004244668289807771 0.005563583084018815
589 -0.0004402372524430218 -0.002343120309522323 -0.005390812776078473
944 0.0019098602187146649 0.01691894508174818 -0.0028864261924470857
591 0.010679401889552673 -0.001048503616298129 0.0055945258123265475
597 0.0037556735229700793 0.003163937994742191 0.006656381390727896
600 1.3468316401386877e-05 0.00440072611072964 0.009054845794841565
602 -0.008176114360922035 0.015444560429027133 -0.016936511316543026
598 0.017457333541490955 -0.002202064496943176 -0.009157225454917536
1448 -0.013087851809415397 0.004562315938146735 -0.007002100376097116
2300 -0.0035294662802613126 -0.021303087659902513 -0.009250873244204798
17 0.008153329019741124 0.017227133752429954 -0.010523033054623139
861 -0.0060038767655305105 0.018066497572381483 0.016365556586054042
563 -0.027806537819085805 -0.02428464420350474 -0.005468831522036403
2016 -0.00578131618188161 0.01518558028497251 -0.01018880271890605
2002 -0.007910671245375752 -0.0006351528974584949 0.0033237771480159883
2017 -0.012542311012125645 -0.022989770545404145 0.002586093625007171
262 -0.009832422629223925 -0.0019974491721397205 0.010622862366839165
857 -0.0014733195810552509 0.03431437654372569 0.006118837247419755
2015 -0.0056266867717757645 -0.0005019826742250392 -0.005376365022143985
2012 -0.0023046770514642675 0.006201805732090462 -0.01210133713345291
2019 -0.002775625929469295 -0.02217566707041908 -0.013920207266317151
2020 -0.028028969244618115 0.02495131291882999 -0.006538045132044588
2010 0.0163113377574629 0.005304049623251258 0.01656307755781702
864 -0.0003204703767090132 -0.0036615042921426476 -0.014692368579639174
853 -0.006652767351345221 -0.002479041267532374 -0.005287388637257523
2007 -0.006287978258249511 0.003926286476681873 0.020867770919162042
863 -0.017643251756309267 -0.009564057563779954 0.002642184234748441
859 0.010963963714265453 -0.0021429946490243066 -0.0015196003947765793
2011 -0.004467311574381649 0.02112356963388627 -0.0008977114235348729
2006 -0.0007211677847571477 0.01051294364966471 -0.002136378620993293
2014 0.018572690570385565 0.009433440286514164 0.011826930110476808
2013 -0.01444318276309365 -0.004620679927744601 -0.014115965519838585
2008 -0.014818647945185764 0.013008357760690809 -0.01025746005248351
856 -0.0039026602422300477 0.003971867281346367 -0.00039735940628689433
858 0.003921344507392135 0.0029801770199066515 -0.009487556414848676
118 -0.008408372015737447 -0.001222109165811842 -0.0023408140211650433
121 -0.010563986542807708 0.0046585319874426125 -0.0020384964318261446
122 -0.008880522968264706 0.015477781914325266 0.004576310723094365
2009 0.009129973612894518 -0.006731420946425471 -0.0029071847902052035
2003 -0.004943450430592529 0.006444658191823629 -0.00506254022039453
123 0.006136657097527852 -0.00435862705543267 -0.008537200179009791
125 -0.0118056872386721 -0.005580724275784964 -0.009736238559775488
126 0.020471364433368867 -0.004616754778235656 0.00794827762098023
124 0.0022929004277539135 0.007362781549603256 -0.006157330966621139
2004 0.0002849689593005197 -0.003743192291823311 -0.0062814801507551175
762 0.006661213080358543 -0.001803847045389563 0.001896681740662615
766 0.00744704024215007 0.010897968268662584 0.006009110639941284
97 -0.004314090206448641 0.0027608983689644826 0.012832652914912807
1119 -0.01892655796478638 -0.001991164298994852 0.0031994513631705417
1120 -0.005098241014456495 0.015868945541705676 0.010462280401744017
1117 0.013872953976914605 -0.009333278151592444 0.008585086460237465
260 -0.008691668937440666 -0.017424231486306754 -0.029064579169170615
1391 0.029849087938150963 -0.01989677425730315 -0.012801398615639533
88 0.004106533680055337 0.0013936596203227827 0.005879028022806136
1399 -0.019823295066504886 0.004840148084823948 0.0064237900367995265
1109 0.005252163092360537 0.0009567098148952398 -0.0026192435463414736
98 0.009131778143097334 0.01511974747269405 0.013033991501131702
96 0.011910287245376641 0.009097404400699772 0.006594024325689735
1115 -0.003237952475447136 0.005778602616796587 -0.004192137778741514
1110 -0.005014889999930348 0.000265264372993749 0.005397030886359437
1397 0.000962957101692213 0.004922851796311857 -0.0024578761374463016
1105 -0.0030431285964853815 0.00034559650866395567 0.0060671893164423
1112 -0.005017180200592257 0.00011382960219974314 -0.003660546469013239
94 0.02851849292218548 0.026385274051764048 0.014604029559336887
1114 0.001647353194187071 0.012582545756221553 0.013682419085621754
1116 -0.008184810717422197 -0.00869464403816573 -0.013761672765554305
95 -0.0009273911435002094 -0.019110346088901036 -0.0005188036438806627
90 -0.004864639735305394 -0.003164607433085666 0.007951222507492256
93 -0.00306796377232457 -0.001153132147593404 0.0025544233285219077
92 0.015402452242513071 -0.004384276630949468 -0.002082710361635372
86 0.00024932134383751764 0.0027785301571962026 -0.005545051594463786
91 -0.009889504172949709 -0.009034696847590153 -0.018033819470413503
504 -0.0037134694649505204 0.011927168875553801 -0.005245374449519338
499 0.005263217641904639 -0.0020556546838964734 -0.0010258561127923058
502 -0.005226830262984656 0.0018381755635545553 0.012261885941391285
1555 0.007152699400025168 0.0002225742425790547 0.008346779821843968
497 0.020933381302019563 -0.019613976242306982 -0.0008398146189102803
503 -0.005955721399135328 0.018390591057946507 -0.027999162199600997
501 0.00872383675612006 -0.002882624658058508 0.00933577813851023
89 -0.02451990893403266 -0.01378989748241916 0.0014357051733418283
85 0.0038641470089380145 0.002462912743670892 -0.001733017581408424
1552 -0.0023883352455515974 -0.002310143894456063 0.00820166814935295
496 0.004517637878111208 -0.0036143753997938425 0.008019951195662957
767 0.00246806314172207 -0.0016182053809206552 -0.008567342649868605
148 0.01571411462733691 -0.026939576363053375 0.007296149766365566
145 0.030959503717669448 -0.005826328125053318 -0.009091071714413639
615 0.00356449774406696 0.009504199384902746 -0.010625654030030582
1441 -0.006773904081702838 0.0062097380493535675 0.0008637104305217738
151 -0.0037666735830342254 0.02480434917287485 -0.018905702979112045
146 -0.000898888519293324 0.003349072072189207 0.004908366584466947
500 0.0021830888618766483 -0.016858577005679214 -0.00699343264217834
370 -0.0021903095905884784 -0.007826887976095005 0.002466518577735228
1038 -0.006027391235134961 0.018903344656098407 -0.013453013711252135
1429 0.009913060794509598 0.0001727204306959998 -0.0006663650398741495
372 -0.0003770611482852753 0.017969690470537227 -0.007467009109415972
366 -0.0017320271205090488 0.002700758144156674 -0.00843135856288573
492 0.0025032687657402563 0.004958057252223999 -0.00286885377885649
498 0.003322544698450932 -0.006511285999326758 0.014424694836495958
375 0.01365136457803735 0.02569889952229169 -0.006487708566269347
1035 0.034457484525755845 -0.029350588885468158 -0.0007116770394594443
374 0.002914205508105474 -0.008577841856083426 0.0027419770280029594
605 -0.006939443094015468 0.004985176170408951 0.007191334765186145
150 0.027029488162677747 -0.02594427427628214 -0.020341111900165586
1439 -0.008428986180297814 0.003779692920042282 0.009162056846421442
493 0.013897440682013562 -0.004681459719813017 0.0074385286892632956
495 0.016117454947110837 -0.007493491508740236 0.007010943525617449
368 -0.0024724053219284743 -0.003836492407074917 -0.0032863116143448507
1033 0.007445408360361237 0.014148638343961906 -0.011835642616151418
603 -0.0004227377224464314 -0.0020090028482178555 0.004853104499595233
1554 -0.0025571414486900567 -0.00041530692651735887 0.004896823264270467
1034 -0.003730754891556684 -0.0009909961242011522 -0.004095596363010185
494 0.018396899854748662 -0.0045897329818861245 -0.019030347744725843
606 -0.005862479173126627 -0.0029854244214518487 0.009842074045089173
1030 -0.004902809140157733 -0.0028224667864102807 0.010105506309714485
1027 -0.005599563874125779 0.0055490354910641025 -2.8610959043495632e-05
1031 1.7792161137155833e-05 -0.007163966782817097 0.004400911287323562
1032 -0.02159183727699905 0.002635763941360692 0.018372386462590068
1029 0.0007272926583766053 0.0011294492835660123 0.0014013954664193159
369 -0.02038626483267704 -0.009289651951017636 0.0014703520677406517
1039 -0.002218046945195724 0.004135875755290004 -0.0022879030901857495
1028 -0.0021499529589899123 0.004982598046454148 0.00034977268881275156
365 -0.00252601666479801 -0.002171691504225221 -0.00272088759193499
491 0.005160061056449078 0.0007292839023871486 -0.004883805999431191
367 -0.004526921433663477 -0.002439859643212619 -0.0006659937959214067
1438 -0.0031993590319020623 0.018682530076568605 -0.01018929063720276
2064 0.01076297507077447 0.003976417746738771 0.006793287449841786
1932 -0.007907097776580581 -0.01937696146978971 0.027970990999070352
2063 0.01475020669306841 0.02708401863142412 -0.024264555634818465
869 0.010358166534313852 0.000543969218202871 9.463239462053757e-05
1928 -0.0011886841436089866 -0.004583036121891477 0.0033150206326134878
2074 0.015261803579410909 -0.021008763618783947 0.005930410297422644
2069 -0.014962835151663053 0.005642555918223997 -0.005606726408772461
2068 0.00015055541903798408 0.004128785720418331 0.0038598247749612835
1037 0.008854240249024646 0.0018038881471295425 0.001139391105203659
1042 0.009963664641027353 0.004312899011090893 -0.00046613126719719167
1876 0.0008451954566063314 -0.0024796117255007463 0.0093234451726232
2025 -0.023064929889080904 -0.004521363887714439 0.02567448829034198
2066 -0.005264506439648152 0.009315229259101982 0.023784417886951924
870 -0.0343270762459739 0.031122137146107946 0.0008936392867211834
2073 0.0066873665454841155 -0.016804531052674456 -0.009369029069755562
2061 0.005943063090836213 0.0037210074612468442 -0.014260680302047727
2071 -0.005528363592776891 -0.0023824826565977536 0.0044441426670073095
2024 -0.003953548471555063 -0.001616343707773405 -0.0037798869917263587
2062 -0.005354820179084743 0.004914720690514499 0.007202004914029976
1933 0.006653630162570701 0.00024020324935245953 0.008385926140669976
2076 0.0043551692701617834 -0.025413378806734954 -0.017960868046204104
2056 -0.0022529340777506317 -0.0010107960929431818 -0.00291779301698666
2021 0.0036592043943213023 0.00026772036898361405 -0.0011004673102662803
2067 -0.005876044148644345 0.015366771323736383 0.013616273510687229
2072 -0.0009171140759743927 -0.0016815612444270288 -0.014043378478293062
2059 -0.009810764995882243 -3.2786385219216485e-05 0.00302134839382612
567 -0.007260418401243487 0.007590000734122191 -0.002893279485699196
2075 -0.015224233579047418 0.011304411522284 0.03437076188470437
2026 -0.0022960051600872545 -0.03492735361817124 0.019204006310592128
2060 0.005041125889017307 0.013150900438627206 -0.00938985314866266
1036 0.0001719729318406041 -0.015506311065851089 -0.017176448654657946
2018 -0.000988617498988923 -0.007061979266878776 0.0029557746814237035
2065 -0.0066470822233110315 0.003257574246205485 0.009749018168948886
2022 -0.010265661045433668 0.01981319058940804 -0.006423821210423617
2070 -0.002611200441183299 -0.01771239745860516 -0.021942506467661976
1935 -0.008256858538820584 0.027033183032911568 0.01289705537459713
1849 0.005452563465349886 -0.004477823663419736 -0.018535995966848042
2040 0.0039499192676675 0.002417191270607913 0.0002478323610275023
2043 0.0007037239627597146 -0.0030749341899482447 0.002782049064870449
2233 -0.009841437948820767 -0.010110465172710643 0.01951117905223773
1846 0.0053393868043881895 -0.0008935898140568073 -3.768413107545552e-05
1851 -0.0015971597965929582 0.005935431279634577 0.00691428521208256
2045 -0.0025963804031699537 0.011101353805882976 -0.006330848640867204
2044 0.010868970873596893 -0.015774024047605816 -0.003496122078484577
2048 -0.00977074051075752 0.0011354699781616258 0.007410637614236483
2034 0.001117839360943875 0.00014898982816996233 0.0017701149172495015
2037 -0.003333993265996958 0.0012384236346253056 0.013075819468658248
2042 -0.011696186733934561 0.009747351296812999 0.005270978460432687
165 0.00935368840755194 0.0265839606400765 0.004961571181975217
2041 0.014286647752403967 -0.01857797937601151 0.011030112117710326
2033 0.01463330193599129 -0.025623998289680906 0.008442324101259275
473 -0.0024802317802390867 0.04264352974660828 -0.017512168327555786
2028 0.00288228496803197 -0.0033301672402152927 0.004777093389644168
2239 0.004018274520954426 0.005461238057933102 -0.002322002112928944
2039 -0.017458032691390724 0.013278009891554757 -0.005889266528288119
2031 -0.0012057077895705562 -0.003363230920369659 0.0020446226614695665
2038 0.004078570331163119 -0.042485471585571394 0.0001376781340596558
2036 -0.000730468674436209 0.0035305921683285264 -0.018200970183801
2030 0.0013168162514129644 0.0018131228900665347 -0.007873293170042721
474 0.00639825873635824 0.012995354381441762 -0.006628313181200191
2047 0.016338891404594547 -0.009297738488060106 0.013318639903986913
2051 -0.011823203564277369 -0.015988167052687692 0.0018231648755403682
1850 0.00745739179170143 0.02705660725324069 -0.010809551736516178
1848 0.013296934474333826 0.016920695359671157 0.00929132942707746
2228 0.004477231400051697 -0.001770175540089759 -0.005171701397182667
1843 -0.0006439954411620351 -0.0005302616886503331 0.006120724944368886
2227 0.0014577673519491304 0.003760172013772855 -0.00062302200402955
2232 0.013433960367846514 -0.004792790628131181 -0.0016516038337287633
475 0.002428200120826192 -0.01270883941221612 -0.009070539965829606
2245 0.012988074026355942 0.002228017793433802 0.030751518770449588
2035 -0.012815840230333277 0.00619846493436345 -0.0016104793393478217
157 -0.043491106641366024 -0.012575187655988676 -0.007154126686290237
2229 0.009212045521346886 -0.0030244015830495595 -0.0013526703255037748
2027 -0.010020388045632104 0.00371435713014268 0.0036736168353876664
1847 0.004988926429543897 -0.004105951298369963 -0.000941154476689962
1844 -0.009788701260002633 0.013046375824206043 0.0030747849816176675
1840 0.0007538462313704362 -0.0037427351392500096 0.0027832600427688094
1845 0.0012725318631757881 -0.003937635559425605 0.0019019324064650286
521 0.007645508297332217 -0.01934566735930077 -0.013741380048614207
1837 0.006246744924502439 -0.00030974745937606 0.002801740108685478
1841 -0.015817565356395256 -0.026096047524154425 0.03159296467376365
1838 0.020126488268035474 0.006753242314516483 0.03153866967657435
525 0.014325104270471943 0.0027954753432778037 -0.0071762554034507705
1834 0.0005967388040883544 -0.00027771287400399 0.0011279718187284372
1839 -0.007688907402200808 -0.007961974504886124 0.00675111090792688
520 0.004431017015561717 0.0015579518406051928 -0.003242032319669544
519 0.006864566125583801 2.237281898292385e-05 -0.0006338531475810236
522 0.034203584989358916 -0.020373302372932382 0.007954573727997823
1572 0.011916676169023614 0.0034974888391889705 0.007026886237278392
1567 -0.004631621025156645 -0.004153881787092757 -0.009253398385851637
532 -0.015184220112949103 0.0027900178166482864 -0.004915249707698083
1832 -0.02437496502163991 -0.009447805570094907 0.014258646318931454
1569 -0.011656678125115118 -0.005480635411943514 0.00973751052386248
1568 0.003132324376928701 -0.006458574811339221 0.007000348572057705
1563 -0.018664275769763376 -0.0008914479569900435 -0.001100339448827974
1565 0.0035833559925475336 -0.008682162178262712 -0.006797455455697917
1559 0.005901528975731416 -0.0016757363745307642 -0.0014833121583961984
526 0.011683719706060634 -0.008069870371109511 -0.009931877312751136
527 -0.007083160988290382 0.0027117612495962833 -1.898997147630453e-05
524 -0.0009450569706357441 -0.003628884318494206 -0.001696038387462151
531 -0.006102101193846329 -0.01828766414580948 0.004603020313785686
530 0.010198511632756365 0.0008783419478280575 0.005863359127840549
529 0.03190722014644441 -0.005505856302555951 -0.019564455961989233
1562 -0.006920349794652339 -0.0035663171140816784 0.005596506488753268
528 -0.005080862808452961 -0.005476209817421016 0.0018180811142868504
1842 0.00805179303587885 0.019226243408387043 0.0024303634090443614
2230 0.003747479895225226 -0.001965490559226691 0.0038952734041979
1831 -0.0033497701908935594 -0.0013287078519209031 -0.006473474953019426
1570 0.00023218246949105502 -0.01526691614535122 -0.02444326441056095
1566 0.0004185720372717135 -0.007845349939411552 0.001007897904894445
1564 0.009298239479545336 0.007433075662113198 -0.011390987805550073
1828 0.009106880670809588 0.0002302600476521191 -0.006878954558829959
1561 0.01777894731961614 0.026988370951692344 -0.010081337050872597
1347 -0.005702501449422681 -0.0013353164709962223 -0.004216927986420366
1334 0.0023738389155043738 0.005061223299420697 0.0013631895039387997
1336 0.005779634445021735 0.029938766746656534 -0.012884357588698554
1335 0.02556345076327607 -0.018625230501855605 -0.0026877716910199924
1331 -0.004294711159785719 0.0037664446071882097 -0.00200934431213351
549 -0.034744803935082426 0.013450368449213825 0.03933534480625316
1339 -0.009417848491036445 -0.014978124741101422 -0.017663962678838487
1328 -0.0041757917530804815 -0.007447707337741382 -0.005184332018246873
548 0.0037823570310935883 -0.0021093883691711787 0.00023163459799248855
556 -0.006589202828908965 0.0024316029839554776 0.03002832588364492
557 -0.013328691287676258 0.024004504355048823 -0.01856879859581348
1327 0.0005981027134722732 0.001978117575213829 -0.0014538829240401507
552 -0.003921495860533254 0.005002564078815875 0.0059068223091290105
1332 -0.022156192319757344 0.0009027093438882763 -0.023288799728256437
1533 -0.010565348171401244 0.0018956786713825978 -0.00742454495823005
1341 -0.01035273226493616 0.008848261476793493 0.0021327174542709612
1338 0.0036699889549248357 0.004271789043220576 0.000999275700444914
1330 0.006643713298140192 0.0012501310555092524 0.008494715744821026
35 -0.0193927155477058 -0.001983128542074276 0.0036336170413192744
30 -0.00023781877647274303 0.004002232954238388 -0.00130281402595274
553 -0.002240823997327161 -0.005529279437034661 -0.0029151800768596656
1337 -0.0013341272236766513 0.0005939259539572711 0.005256560343087164
1538 -0.004309840862680882 -0.00853540923497797 0.016473730777289593
547 -0.0013665516805628412 -0.002853397145902879 -0.006466995120465914
36 -0.013874713279935896 0.033082037865462634 -0.005487897214619566
1333 0.009065825573130367 -0.020243366143705893 0.00110529063539897
1342 -0.003915676316506759 -0.016854904810846436 -0.008212796316866161
693 0.015334738764869321 -0.00816035768871122 -0.0038124513408230583
551 -0.01856343637218446 -0.008013116837615214 0.0006805546358178763
1329 -0.0017006250933389283 0.003369165879283232 -0.009830927296061802
1529 -0.0026297817204956166 -0.0008543832867654582 0.0032385491066223007
1544 0.020902319782875593 -0.008596847025972618 0.0485261483727457
29 -0.0036628399078024077 -0.004292122893685854 0.0026836568522534744
559 0.004453666226407561 -0.010398291690658134 -0.006643668244109247
555 -0.004560488289621775 -0.002140293636235255 0.0033013357834173833
1340 -0.005851353800163687 -0.0060662019541223135 -0.007443119971553113
1345 -0.01499759213934914 -0.02094182513565655 -0.006254479791770257
32 0.008342744245408035 -0.006437216314653135 0.020994885313194687
554 -0.016818567753165578 0.011943824058153979 0.005483346352786707
1539 -0.00211117755007742 -0.014891279065111012 0.015648207449854217
1558 0.01811399224576521 -0.020527355387154646 -0.020146068692997086
2046 0.005020632659669771 0.0018523101277344233 -0.0017820875205872438
2049 -0.00917322722674345 0.0036401906066454255 -0.0023119196955743017
34 0.0025763740490050103 0.004694332739355909 -0.004012892130244677
31 0.009240162588315405 -0.027216459856637697 0.005644162348877091
1641 -0.0011134966493877695 -0.005020738536008839 -0.0010014397479203617
2050 0.009886186085645364 -0.03153849355210925 -0.02395284252482256
851 -0.00523372438145784 0.0015564611063574702 -0.005311442140647241
846 0.009082225841139184 -0.0013864119409453095 -0.00025016173493778066
844 -0.005336786520120714 -0.0030814217892409785 -0.011996175182786393
558 -0.008037760840601583 -0.0016804678307200203 -0.0041151046692643346
560 0.010061530113440718 -0.0008524201742329941 -0.012357069214034485
843 -0.0012405781507034807 0.004963698494002512 -0.005235048670779739
837 -0.0004015805193464745 -0.002419337783706777 -0.0015915798761368279
1627 0.0006374711591860014 -0.0008607662409537372 -0.009013566359448284
1632 0.011193082736988763 0.005881211132890651 -0.00959845189843565
1628 0.0013833598240758104 0.007993346163186898 0.002178439054767391
840 -0.005418891115406138 0.0006982585103155499 -0.0074787587461882885
1629 -0.0012520542116781846 0.003182332303986771 0.007674936948343074
1633 -0.0038681919270808253 0.020553451175932158 -0.004509625975735973
1636 0.0093696049591005 -0.021243110394646984 0.0077935733710843055
1631 0.0006407691697643815 0.0016326793585278514 -0.005409662390329864
1630 -0.0002623813496092379 0.002256164125448921 0.00227205619994571
37 -0.0015882851785152233 -0.0037473114264878903 -0.0012346575256108054
841 0.0014560990183424272 -0.005039369945516593 -0.011209589419456389
41 -0.016162610317983352 -0.0332293222005738 -0.008798202301841
842 -0.008730544899244623 -0.010387454254537836 -0.004847029928754239
1635 -0.003900508484311256 -0.006334089269180944 0.002048351614508477
40 0.015490560231098885 -0.004495942539095551 0.026813110551247167
850 0.007356379509487414 -0.00877325661858092 -0.00485393995599737
848 -0.0032133113760801865 -0.006309472377597327 0.011264806209197183
1634 0.0016604488416319852 -0.002416532514632204 0.005329066615723427
849 0.0012582909203710214 0.004745341150784331 -0.006141117545201551
845 0.024167990196120127 0.007114527782298228 -0.008452956692897286
836 0.005926389343701652 0.003999839378192267 -0.013607221678420656
42 0.0010489178614778453 0.006866141393137902 0.0007617371175232543
39 -0.0009787225499821273 -0.015364286297346633 0.030002129449292952
1698 -0.011108883252032006 0.0033366433107219606 -0.001415627439173256
2234 0.008685419826351602 0.003794263648725254 -0.0006258652561424865
2238 0.012915340371869604 0.0017525764386801665 0.002544279026459477
2244 -0.028523259095636178 -0.008207316862461617 -0.019367436827896045
2240 -0.008222252032620002 0.0001780030606251776 -0.01042894294244476
1370 -0.01629611215395471 -0.012451322285373968 -0.00693834716458748
2236 0.0005629344594695455 -0.001638122749761107 -0.019132519993212856
2231 -0.0069870049946390905 -0.0029759388929737583 -0.007577136041588753
2242 -0.003597853197850783 0.0025685349864494602 -0.015911129490256835
2237 -0.004813385506870581 0.0011195014602174193 0.003954632385673317
2235 -0.00132181358918959 0.027345599942662124 -0.007226598223742022
1471 0.002630019521519104 -0.004269393196882103 0.008586764629753151
203 -0.03527734774762763 0.03134913015128514 0.010286788808982445
1472 -0.0158907566184445 0.011257009032168277 -0.02327180626178894
1476 -3.53532675102702e-05 -0.021776107056746766 -0.020699512810336308
1883 0.00403727727001847 -0.025516176322908108 -0.00031164010655539295
445 -0.007048882358736827 -0.017526195321876624 -0.010380482908544892
1880 0.00035964366419300554 0.000431411856821111 0.007280167892303373
1474 0.013623268128356038 0.009240137494071576 0.012758598347006576
1507 -0.008040508162111158 -0.007218419385065061 0.003580297403270542
204 -0.019054562419589017 -0.014044043110634966 -0.009651985143437557
1886 -0.001897008617012755 0.023681465866867667 0.012501661816761255
2241 -0.0030627863802948356 0.013077325469908257 -0.0009321025542232444
441 -0.020490771592928076 0.0022727889401114136 0.016731588773326426
1885 -0.012931366736473406 -0.013714821006509208 0.01078772140353952
1878 -0.0012458174810005254 0.005167417102739939 -0.005616068483206087
1511 -0.023571260139198556 -0.017818891859671195 -0.0007941702223721873
308 0.020783334926232848 0.013088465125327454 0.0036651705993852772
442 -0.008998276158277656 0.004124534360235191 -0.007679378091987487
440 0.002213891741354235 -0.0005786932661261292 0.0004233297655850081
444 0.0009606501681790495 -0.00360665258084829 -0.0017602882915232901
634 -0.004566470788753187 -0.029173673436290022 0.01168628270171019
1877 0.0014631500297924308 -0.003452981142588243 -0.0005600497107571808
1881 0.003411652926807803 -0.001449623152492297 0.002883125410695378
1369 0.01593418301802517 0.015261167973950995 0.011388381518023445
1468 0.0049394125233511435 0.007542228560382938 -0.0027413992820576887
1475 -0.002481007010670563 -0.007788290049263752 0.006956798447266981
1473 -0.002830806462284915 0.027018404723488893 0.031067573594857685
1829 0.0032642448845394 0.002103987612438814 0.005018506805519167
1465 0.010572067845583186 -0.005074826704189307 2.8765518948458685e-05
1470 -0.018989334824272158 -0.005303333498389105 -0.012609035292379585
1469 0.003195362839046092 0.01191788285288934 0.002073794429797059
129 -0.015978127091989217 -0.028989867086088878 0.0031656213857510686
130 -0.008459061184530181 0.005606612815938451 0.0006455694663043729
136 -0.0002798876777806763 0.0007546334938724119 -0.0004338487552439895
132 -0.0023516830109105006 0.0012440961073634802 0.0011577352938164599
127 0.0006916363852008003 0.0004339846559984923 0.004015998035858557
137 -0.004772448770519175 0.009796802613653904 -0.009877357219012449
131 0.027703935706119398 0.0175129275285518 0.00043427873960756613
128 0.0008861907025515664 -0.005892618920532921 -0.004640382535200042
134 0.007354427581743834 0.0165871320217693 -0.00947943119501001
133 0.024703863789876768 0.0059132476391093956 -0.00751906492863361
138 -0.0032862828587159215 0.007078442148710218 -0.00038716755226004277
139 0.008538036091369236 -0.01710393239858866 -0.03470921900968526
135 0.00086076920744654 0.001994429903381667 -0.0061274813698794905
140 0.015410049444521796 0.007100651708916472 0.013977193638080726
1542 -0.0007227623744254092 0.01878799985427235 0.03722720596790786
1463 -0.00401498421517438 -0.0018674926720206608 -0.010510492939683109
1536 -0.0024806044672332408 -0.018842576380606792 0.010737540038815071
2199 -0.0005207744381732671 -0.004843630966589893 0.004453417030966705
1505 0.0020773031220692488 0.0015835912675205616 -0.002466429808093331
1510 -0.023538968270413435 -0.029462263510907995 0.02884042134342352
1466 -0.003493099974918451 -0.025003543248771378 0.005822886367395069
1462 -0.0033353198695019043 -0.0019843485704900063 -0.004294526924051799
1527 0.0021098443867534704 -0.007619370694310671 -0.004439312094155461
1528 0.0013758772190283059 9.162542035030225e-05 -0.0036088543876352476
1613 0.001632335947380227 -0.02208419331472566 -0.004075574770482069
1534 -0.0017596377073171483 -0.007490630486426275 -0.007831626080446252
1608 -0.008643084083307724 -0.017883725727648958 -0.004030252149234565
1545 -0.001993179615818925 -0.005247685346504786 0.012920105218849955
1532 0.020271738680213418 -0.010139393841334877 0.005973615581714744
581 0.013808852640491497 -0.01294690513186927 -0.006307869349885598
1611 0.012293468757353552 -0.027686084774168937 -0.024625029323040597
1607 0.004411278532851458 0.003692599343553921 0.025567055482641758
1535 0.03176084663699088 -0.004185526972332955 -0.0015864036839469261
1541 -0.017284053617490375 0.008319793032580857 -0.00583773773058589
1537 -0.0027608145595563395 0.003706568653665779 -0.00329751228706318
578 0.0014647375339199944 -0.03476294572454693 -0.0012345402865108262
1531 -0.00046612853958446067 0.006729378140983325 0.005488272802485869
1603 -0.002333487770904567 0.009289663735918021 -0.0001654529543295526
575 -0.008410787834525446 0.0015151052626881409 -0.001253446022973239
2177 -0.004521515022761236 0.0013715126270552288 0.006503362578572839
2179 0.00106273655550703 -0.004581506254811116 -0.0050103780780508846
577 -0.012081917090596465 0.002228628768649407 -0.006691561473423898
1606 0.0013272975549891148 0.0016846603368226034 0.00429629166330863
588 0.01116555621807255 -0.009508302921909387 -0.0055795873393370615
583 -0.0039185585032776625 -0.005830131975469469 -0.006493851780396727
586 -0.005855892172867051 -0.024639901576504832 0.004937596949316658
580 0.0069737343641395055 -0.006290330588755253 0.005057191299819369
587 0.016230137250611905 -0.001550132533401832 -0.00882367436360739
731 0.0019041411806067744 -0.010020375881270202 0.0006410604783570738
579 -0.025578523394386318 0.006844238873203464 0.01536956025347577
2180 -0.004217068223041932 -0.004081097097828211 0.004837274491320838
732 -0.02691097666797888 -0.000634208429362365 -0.006843153558119069
585 0.0068235547815157045 -0.007288922972927193 -0.011282473392552922
733 0.012794352944912667 -0.00876514015923557 -0.010603762141933312
1604 0.0019098092741118599 0.002266491232556633 0.003947470445153858
1602 -0.0004138885725142085 0.0010235624798398378 0.002661663870757058
576 -0.009032295717551852 -0.0031150101607281926 -0.0018804166064434358
2186 0.021870860294806165 0.0011906201113711609 -0.015180218137719111
1610 0.003466877655687571 0.005749735098430441 -0.014659613669083669
729 0.005231071504875016 -0.0033135710855007727 -0.0020024119269369815
584 0.01327492278710308 -0.005484847386109312 0.007787171375135038
1530 -0.00040540381277241066 0.002932391713078642 0.0002470590928330546
1540 -0.0013886495774289485 0.004528723143513471 -0.004508643032860245
1609 -0.0004118412515547002 0.0007755995374910316 -0.0037306944549766823
1617 0.015079688454701182 0.0013021345975941343 -0.002568695411747335
1691 -0.005305792853962336 0.031197733404586404 -0.010807585013347575
1687 0.0015605442940156168 0.00278156700973413 -0.00150802876405568
1684 0.0023578979114127928 0.004334768986969894 -0.001591445916433054
1689 0.0019760104884554352 -0.022189119511156586 0.013702590519543558
1685 -0.009836643776213079 -0.009554366722116419 -0.004722042690363759
835 -0.0024039836454618556 0.0046783990728487745 -0.000186229051488484
834 -0.0011924406689931295 -9.151460532828497e-05 -0.003824192734574754
838 -8.52709501903366e-05 0.0037037934298333065 0.01563991224187364
839 0.001962319266970614 -0.017800526536367007 -0.025326856072141975
775 0.012919008073846227 -0.010838680599797559 0.020170848855912173
831 -0.0015335634747351411 0.007646596982917693 -0.004542292402864887
448 -0.007988139701571986 -0.0054771094554148065 0.0021368345189772685
833 0.0009082624343184507 -0.017926597018385882 -0.006119119285677144
582 -0.010201239655669703 -0.003746580033376767 0.006295593745572599
443 0.0010941817626891287 -0.003806756668472075 -0.0025150464863731062
447 -0.014952742836819941 0.0018703210548026113 -0.0159033375263712
1680 -0.0015850718451552528 0.004857994821746617 -0.000701153808290448
773 -0.0026011566629498776 0.011015272462499726 0.002982128275513905
1677 -0.004531092239140958 -0.002012137156578422 -0.003982734605021194
771 0.00496655841604355 0.0014020289084620827 0.0005229291746155078
828 0.0037586686188206806 0.006426327431631239 0.002608324939063927
438 0.0019649803132352974 0.016532436575859403 -0.011843381946020961
774 0.0180823429190253 0.010167930836220581 0.00470460731057027
830 0.006224611533336838 0.002024221687226945 6.473742151482493e-05
439 -0.012195632319573092 0.009935111859778306 0.009886993561082082
827 -0.0010658807774403868 -0.004140426814434316 0.0007102063954030799
435 -0.006363674482399932 0.0016718959621552039 -0.002303285305991216
437 0.009985376974938016 -0.0043391648224400566 0.0026573601907136702
1679 0.002384585127188676 0.006925005331304268 0.0019130105324206357
436 0.0019430706470046249 0.003772675391270479 -0.003048456114473146
446 -0.0019329794675904664 -0.01985706333330411 0.015086977056394205
829 -0.0028374215240500396 0.0030181505093534607 0.0027927449578803386
772 -0.0015589936210829102 0.0020112621076622825 -0.00011975295761784409
778 -0.011224321557116591 -0.002038812524311603 -0.0178546504408958
635 -0.008266594823684139 -0.009007895576553064 0.01489195040289857
1692 0.022069508704445087 -0.022690557673494344 -0.019029405105288652
1678 -0.0007857981030451975 0.0003920683888186381 -0.004118753710790215
1681 0.0024923930357101188 0.007203864432016926 -0.0011408316244892658
832 0.00474124091956867 0.0206835284246563 0.00617890149284835
633 0.029560647687805676 0.0035696959188663137 0.017474768032626882
631 0.00012068100786264312 -0.004373934791814189 -0.0006228761671238615
1682 -0.007916511526923638 -0.007231899720400953 -0.03375253715071526
18 0.0006038645907035176 0.005121335969156158 0.004445377942249771
198 -0.008857243059895747 -0.0016245563219104973 0.0047521964536379625
209 -0.008285726497836168 -0.011390041552056635 0.012707609322861736
210 -0.0005324123627741939 0.005098548830159983 -0.013187206780435858
1364 0.00424903665738199 -0.014097005670273709 -0.009746873123674409
208 0.00409087742423694 -0.0032796539335779367 -0.0020919858400275768
205 -0.005980694921254551 0.00031766739550277587 -0.008023140278593674
648 0.0025724879256401154 0.003347910265133423 -0.03323022242875291
649 -0.005743946504830874 -0.02608311427338168 -0.007212242695393693
1355 -0.0033915388613614287 -0.001947566159500593 -0.0024521688405121107
1352 -0.003461074427455834 0.009609488861507202 -0.002142209139991469
645 -0.0008010718106759664 0.00046324333677685863 -0.0020676796008846005
1353 -0.006933553359725566 -0.0009521788550433445 0.0029697635060037747
1354 -0.0008067798534541801 -0.004188128518557396 0.000643782464424422
1357 0.030889666467450366 0.003708846322254393 -0.0019306573093301489
202 -0.00368007615489001 -0.0009532489302354952 0.0019443191349601075
647 0.014810171680520894 -0.005310485287020902 -0.018257563663893608
207 0.003910795836179321 0.01606850891742908 -0.0132645696570897
2289 0.002610402922220565 2.8416732593301137e-05 -0.0045678291873204584
1359 0.0016627405427935061 -0.004341536689271708 0.0008637082981809394
1363 -0.004932815885662636 -0.005229923328469743 -0.011542503708155863
256 0.012077203014463855 0.0014219625615315519 0.01478182607103019
646 -0.0013562173287567526 0.008338457135005304 -0.0006224107535344774
652 -0.0030045814888745473 0.003760712450767242 -0.014962491377323731
651 0.024570173962397336 0.0012615432610834953 0.008069196030096804
2291 0.0033016544466223283 0.0012112348859993924 0.003141340952934324
1356 0.00643236509271286 0.003256825842352796 -0.005252593068212079
1358 -0.010582084501741524 0.004305174229716131 0.0038229125779025703
2292 -0.015663487457330694 -0.004897432916272134 -0.017428813504016146
2288 -0.004471949238991037 -0.00046164070064348293 0.0016509015107663162
206 0.005420809578820315 -0.006003098342275944 -0.00594436835499961
2287 -0.0038998505741782894 -0.008330758693900995 -0.0002778721836274811
2284 -4.294264553250622e-05 -6.443762107824845e-05 0.003176276434857329
1360 0.0015915508321252614 -0.010452484423445346 0.005232560327309918
926 0.0009449833205444156 -0.0032883972471201314 -0.009968948937846151
925 0.016555455617495836 -0.017200091451038235 -0.013383388606302735
22 0.026239946818868848 -0.02675513156145432 -4.525405482087743e-05
2282 -0.013035461835032885 0.014078915235380568 -0.03303119631897056
1361 0.00848291760760653 0.020891890608160858 0.007750186107916733
924 0.007202284008171342 -0.009034306793658551 0.009835309699805532
921 0.006287900044555305 0.006495800631074275 -0.004369956942796642
758 0.0037673961844999697 0.003923844995938873 0.0009911810002753555
1673 0.032731181623298376 0.006820363072976071 -0.0006309378655157646
1467 0.014944512155148068 -0.0071178550143128705 0.010436880824975903
1461 -0.004497501255589439 0.009858412568670663 0.009734456631823643
1455 -0.0028503823958347502 -0.0035782663229362334 -0.00478335551589898
1464 -0.004824987133280052 -0.008717067967534117 0.0004002334379330441
1457 0.0005469974514064747 0.0120315260587685 -0.005716075992954816
1459 0.011186838976588006 0.0032292858583077514 -0.002308253195347049
816 -0.00020884442167416268 0.009901261277853256 0.005588332694639218
1453 -0.001351234455711385 -0.005231455722633885 -0.005230733864240045
1452 -2.1132618491559922e-05 0.0076001733937062456 0.006421620625386209
1460 0.02038035583631594 0.009039514321272916 0.013189060408440421
761 0.01060572491955848 0.017691230270856166 0.0016000827838026494
757 0.0006719053633230748 0.0004301053216842413 0.006008343527654309
760 -0.02555251329924541 0.01665033888077268 0.015837200320849176
1656 0.0031229223800777438 -0.004332785799569205 0.0025421976006753705
1661 -0.0019154658489932415 0.010019310377597056 0.007692980049529221
1456 -0.0035110152490939275 -0.00011521526122663227 0.003083133768274925
1454 0.003465978448340342 -0.0004442623159058607 -0.0024627166484744393
1665 0.0014816890959160943 0.004075863008359645 -0.003565295198418089
1458 0.010688069622004324 0.0005845485957476308 -0.00917182921582301
1669 -0.013130186688116057 0.02314464637549482 0.003487169256191104
1676 -0.027090547699391062 -0.00035561130378013254 0.0013396769480284233
1660 -0.008288871355614881 -0.015696074463877538 0.005415991811342901
1653 0.011048126724190173 -0.015075094686001319 -0.004318285128054928
918 0.005938921603785794 -0.0011787600356230475 -0.002883954099396405
923 -0.006397689319853852 0.001835724191300622 -0.009865755645560399
1654 0.0035119328810012946 0.005199905274910112 -0.0010680498055554476
1657 -0.010383389811830847 -0.029981408122538564 0.01876548193963009
1671 0.002901800005968511 0.00493330469678168 -0.0028337327485875425
1667 -0.009867921058756704 0.0010227444955516543 -0.00655350520592779
1659 0.0044442601875509915 0.0024516017886130046 0.0015775351567105364
1674 0.008002185580485637 0.0015147475101264542 -0.0021572878187384368
922 0.0018070872986822742 -0.008030377571540317 -0.0035240238341484624
763 0.007271278041023159 0.005524526751948061 0.003040807260297398
825 -0.019931967260849875 0.01809460480984778 0.004141561800398508
1616 -0.012405318978994327 0.019722176185204002 -0.009801865600064555
1612 0.002427952958057927 -0.0034286961273003918 -0.0011531572818227595
1614 -0.016083729459747564 0.02499215756255276 0.01604389320081012
737 0.00383189095937227 -0.0023221743367119576 -0.006099671766008914
1658 0.0019771035180498123 0.018633144014422773 -0.0020324888450335816
1652 -0.00047886426072471744 -0.00761809831681147 0.0006180133684594289
1619 -0.002215458324732173 0.000834285416542346 0.0004296326495344191
817 -0.01459212504590423 -0.009420404717381094 0.0143492599819673
819 -0.017923969656616485 0.013207532766657286 -0.006794455154789703
815 0.020305193304234442 -0.007183107887490956 0.022588813395385723
820 -0.003894510147353737 -0.010325678641990535 0.009006268957079852
813 0.0010884072590611855 -0.0004929248212284504 0.00839450776435559
730 0.006332522559281657 0.001695930464282889 0.005946878784264837
735 0.01123132432445642 -0.0005093909406237124 0.0037758815616712282
736 0.004222588641145795 -0.00568897866742601 0.015036295372722788
734 -0.004053471222162472 -0.003084152315604166 0.005068443639493103
1620 0.009120407512279887 0.005487500857678259 0.0015138589339543846
543 0.02151887963070961 -0.022382918227018368 -0.001895603440794518
538 -0.0035857503072684337 -0.0013974822912579225 -0.004993105503639957
541 -0.002518455336731172 -0.00022999520045142855 0.005005780641485964
545 -0.0035960678988299585 0.007160629170067634 -0.0011962510878652855
544 -0.010665641943487873 0.01624733622816757 -0.012488319729986435
546 0.006230551136620879 0.012891960366202571 0.02432254858384736
1615 -0.0029066569301064156 0.0028461939406811527 0.002455406578534456
814 -0.0023913488277210186 -0.0004754851131240375 0.006569589542448745
1239 -0.020575137128303434 -0.003748837342512611 0.004483411048332042
542 -0.001892165637222111 -0.0071760390717313756 0.0030095230363778682
1241 0.0027072058876813575 0.013197246592322258 -0.006011197601370901
537 0.01506736713569668 -0.016576728688284827 0.0015733205725372082
1655 0.0003788785402660022 0.0018144837685796398 0.001076182525553243
1618 0.0009024908789962261 -0.003164160663954582 0.004948395172978773
1625 0.030955854890247877 -0.012938766079488509 -0.010544583218281374
1621 -0.003919596692467175 -0.0018605785139101348 0.0033686330748212046
1624 0.010955234048375418 0.012084721027567205 0.0163171294972034
535 -0.0015873363830479497 0.017299315230821503 -0.000129559285779426
534 -0.002742735272982168 0.004079626980232158 0.0008808568822086315
738 0.01994110988982161 -0.012418765752001832 0.0025424536329071
740 0.01181809464836534 -0.008774807422423718 -0.0013058976581002185
1430 0.0016016328624196786 0.0021999728560427234 -0.0007941804673561228
742 0.002180840979339861 -0.0018115671190461118 0.00019338028906198585
823 0.01553169897955472 0.0007947339029029495 0.0013188583300065364
822 -0.004950460986797973 0.00035636927771783385 -0.02794093487260459
818 -0.008607114890979612 0.013944939579773897 -0.0073569394935949555
739 -0.003491219383196202 -0.00963716416991037 -0.012000065746721899
1234 -0.002967008982447716 0.0040061164586980514 -0.0014751123270956544
1237 0.00901402323748552 -0.0009263335155689145 -0.007328573816935212
777 -0.023196990985323292 -0.019779279059969578 -0.015216754692430137
1449 -0.003894229095728588 0.013027521333831785 -0.004875617327764052
1245 0.018904024142199646 0.003447061228199129 -0.0056411009373278235
2278 -0.006002749822234981 -0.0016835032436164714 -0.0022087946920096566
2285 -0.00564058334161505 -0.005242908363271399 -0.03468487021560162
1242 0.009037600109734551 -0.009969369511727017 -0.022945829784973105
1238 -0.006454855694696369 0.010244174594076469 0.0034608362565229055
1244 0.013852034494848545 -0.002589336634891931 0.008712639095076592
2298 0.006735240843840559 0.032310059105322156 -0.004620270388280345
2297 0.01187146802911491 0.0033383479238053254 0.008552623540193845
2279 -0.004213025963267553 0.005154311230626803 0.00014898427408520192
2293 -0.0005695077387931873 -0.002500185391289443 0.0022321642398474843
2294 0.005871842915709171 -0.0068293968293228905 -0.0067673907656562
2295 0.007874565867167057 -0.016146421736670948 0.013364585577331594
1251 -0.01561787399461888 0.01593259192097789 0.012317091408725365
1240 0.0016078732943028715 -0.0003220720570674925 0.006418727160869704
1249 0.007796373701248711 0.03184154318963864 -0.005123619501013629
2290 0.0034176029431414435 0.0033993025911462703 0.00022649950418244586
1248 -0.0025587930155018396 0.002629898787136875 -0.0009902602734598383
1247 0.015455831361755096 0.0035905295788068027 -0.017887100162592637
1243 0.00013173550854317725 -0.003345387292328012 -0.005232893859053237
1246 -0.002991438661773925 0.0022108456778620893 0.000440975369624607
1250 -0.008479248181215945 0.011165642098526671 0.004529063283401488
2286 0.002097214873627118 0.008621021740690805 -0.004678386156097391
2281 0.0059963404046298185 -2.9158454584124577e-06 -0.0005622687723212227
2277 -0.000977190393061995 0.0012459575820137924 0.00039091768121501843
1939 -0.008469432505471166 0.0016199496638207918 0.016719588565786328
2296 0.0033781408180034956 0.0017189862219772064 6.354347386512072e-06
2299 0.012357772566736407 0.02509820610960443 -0.011866452750056293
1942 0.03666029155283052 -0.00033577790166090164 -0.005728481774917393
1938 -0.01828580241927529 -0.020229561717771932 0.019192428922074407
1738 -0.014928725528558711 0.01223410873009139 -0.014274867119252153
1733 -0.01751558612695529 -0.0025883271129138186 0.0024568679507531183
1728 0.009294881614099698 0.0036681194448162854 -0.006488000179060426
2301 0.02661692829230799 -0.002027298757054389 -0.0010422754795539366
468 -0.0006405798890425629 0.0004263632951472643 -0.004900332741737984
472 -0.000389542106202513 0.006278039150869212 -0.010532820703682643
253 0.0028615710313790806 0.005981000469222747 0.00046669977983308764
336 -0.00481872986243759 0.0033109579809255055 -0.0199335010877552
1730 -0.005201998666186888 -0.0023070607733393284 -0.00577796345955286
330 0.009584434485250237 -0.0017035858897300803 0.018357613280204674
340 -0.011594974657544943 0.013406276352788888 0.01166942068647622
2005 -0.0041254850715608535 -0.005753301408499544 0.0042122926519247515
469 0.00488050145146437 0.006658970857516548 -3.8920065987317905e-05
332 0.01911084864687743 -0.0024048593400439293 0.012765022925297203
464 0.0019016424127173352 0.0008061781362471123 0.0013947821360893234
1930 0.0001393084563735452 0.0002511476472683892 0.0025574902837660826
327 -0.007743561158893574 -0.0008838864416811018 0.01316038993896441
325 0.01109822016745263 0.00826970576017112 0.010720338273319469
324 -0.008609416387078055 0.004538556990618303 0.002907659908000893
329 -0.018353405452653054 -0.006819004571719386 -0.0067201142438147845
323 0.0038002206531319673 0.0024427367348848037 0.0038362796331576883
326 0.020308589958287368 0.0033707087187028035 -0.0017480969604322253
328 -0.0012082202298834789 -0.004275596771264343 0.00606062933939649
331 -0.001971022023288345 -0.002856208861171848 0.0005458407021084535
467 0.005478883719672081 -0.016843553034828165 -0.008061789616001836
333 0.012845904610052777 -0.0032335002940803237 0.006106124147127061
1127 -0.004882905542774934 -0.0038803052576684583 0.003534003818062121
1130 -0.004343054604008428 -0.0031148343134387107 0.0012632889000982988
463 -0.0002632532247014909 -0.0011823970110894403 -0.008816373524009588
466 0.008129838261443142 -0.0029555621645492147 0.007917465930390895
465 -0.0005804773030492903 -0.000953746930351451 -0.008863637886312314
334 -0.017414949672358737 0.010367734244272304 0.004241555665831975
1129 0.0051634896805326635 0.005217438218479225 0.003760300801317101
345 9.242691016745395e-05 -0.0014196994517074327 -0.003084190630498511
350 -0.0078140843742913 0.020885145470411277 0.0005046294695195696
1927 0.005180915308094771 0.0037858184212265352 -0.004145682475098347
1128 -0.001813992455624201 -0.00499463498101373 -0.002160734559768415
335 0.014462099856901061 0.01776732589675681 -0.018884388585153327
348 0.001526839676960807 -0.003191448339967242 -0.024879320007584062
349 -0.005600605743073101 0.012553589143351753 -0.011047634989915055
1135 -0.01011710196369517 -0.004053706506979925 0.008485743025859195
1132 -0.0064987530568574306 0.015237318075366718 -0.016977553685194696
1133 0.012050799693975277 -0.014058452772702946 -0.007015759650855967
1136 -0.015791235069553357 -0.0022523736742752183 -0.014960233993843395
343 0.0012704452223762422 -0.005866832576796333 -0.007183718315645294
255 -0.016837215439276264 -0.007104547963241196 -0.016275265094202466
342 -0.0064460517943228995 -0.00156261657857284 0.01246947054696344
2032 0.007680500184044735 -0.00614090159971858 -0.0037224274335216014
1131 -0.01134690819641833 -0.005315454431189218 0.007161639045607726
470 -0.009111823879795037 -0.013033338071833812 0.013974254786566278
1553 0.0014002082477736879 0.0016614202898167633 0.0010465752952224631
759 -0.013598253332531746 0.002692664370654048 -0.021293014289273656
764 0.013541939387222084 -0.004925128818796607 -0.0017310499188268557
1571 0.010281315717112193 0.004877880477732364 0.005737750564590688
1575 0.0007207496254752056 0.034078019632789745 0.012439513430720701
1556 0.0021324546717728663 0.004318449202808492 0.0005616386525366508
919 -0.033150810890943606 -0.0158949896654357 0.0006445957232759927
337 -0.005730806008153342 0.00296597636499309 -0.0051265742369333185
1576 0.0022255814492055494 -0.0016627683496387314 -0.008030381976082343
257 0.005189263029924548 0.008624698586856277 -0.003842964988215547
346 0.011131759985956138 0.012885716174537754 -0.009395603767540344
338 0.00010278452329520624 -0.0014738280799642066 0.011265958811102034
347 0.029750843252335162 0.0022428071562853665 0.019312160513218633
344 -0.0022761543320146513 0.002405558378065732 -0.004633412221090309
1157 0.02242809799992937 0.00350227237586116 -0.009746310759659418
1154 0.006229945918555744 -0.0010283707211522775 0.003984557641644412
1163 -0.023870136414632807 -0.021262541107313557 0.011595391877414528
1153 -0.0037792745833927664 -0.002400090453102241 0.00537333889089482
1158 0.0050176297758141135 0.026944826452679854 0.0030409947181839828
339 0.005378522339900951 0.009220134090731483 -0.015614616920779834
1155 -1.4984474957389291e-05 -0.001811964054530031 0.0031651907774979827
1156 -0.00553947189374943 -0.0029956582726307574 -0.0006626423305088038
1160 -0.0013485117333381159 0.0007217827429685259 -0.002453811028874096
1152 -0.0008996342827014788 0.004996156182237011 -0.003200611423881336
1161 0.018185654163500823 0.014254528129911433 0.03351667739593375
1159 -0.004881448300602408 -0.0005982175237775958 0.004744509697425099
1164 0.020365530769144574 -0.0004638395437105744 -0.019222776340570222
1162 -0.0009572253812187279 0.0037037091327572057 0.0037983352822884993
1167 -0.017168879455615165 0.010592556269847274 0.012572116287904247
1166 0.008325549261461803 0.019218421667123866 -0.0016625812500029537
290 0.0057299618983021544 -0.036329313321052485 0.005756157073521633
913 0.02589789052058925 0.011374547770026805 0.011642908039939169
914 -0.020065372208052896 -0.005221491783107191 0.007998333167874929
341 0.026255369358749097 -0.007389650568638761 -0.0025999465274006814
87 0.0019201097528889967 -0.01713050143617827 -0.014678932340763366
1560 0.014715157703694451 0.003114103223117983 0.005077631168178472
1574 0.02901730401508228 0.023450391327170854 0.021617021082950348
915 0.003891212975441179 0.00016606133518810647 -0.007213016695263449
533 0.0008037853366006969 -0.005294461393466076 -0.0031267067523913037
2057 0.0038871815994108343 -0.003708701960439848 -0.004469290982029318
1169 0.001753663807772777 -0.011039521354263221 0.005391400155219938
381 0.0012568357292010183 0.009237611719662036 -0.008337397072736586
540 -0.025097094778466434 0.003105051507746606 -0.009408760225036675
539 0.004510954426256652 -0.01245694369472087 0.010993927692430272
1165 0.0041847565780848035 0.0002718059424647179 0.0016060339744470868
1170 0.002521867814631719 0.001340978900378396 0.0028820744690619916
694 0.005848307205822678 -0.002609143239594886 0.00889872185483465
1172 -0.021623088147580804 -0.013264858876312251 0.003011139098291708
536 0.020197933684854574 0.0010039337009806423 -0.005515739561011748
1173 0.011651133526291177 -0.00647016167318938 -0.009482794150912268
1168 -0.00025121648018924136 0.0009144488446239475 0.0029154886829805453
1175 0.01925685729932934 -0.023064082839129158 0.006348722049567864
1176 0.013336937181891028 -0.016901154759889465 -0.012623970387311776
1171 -0.000844259960960209 -0.003244879412732283 -0.0011902515878806385
1174 -0.015352017008769982 -0.0025889543593337213 -0.0027801046194891885
388 -0.023394917272102154 -0.007218817872899168 0.0023702939494045228
2052 -0.0007199294111820026 0.002157777659222707 0.0044565163658608145
384 -0.00502819407074121 0.005521786472716118 -0.0006230399351461876
292 0.022480332016137618 0.00924800030856866 0.012543442613742515
33 0.019843485424989905 -0.0037204065347443914 0.015437240768175447
391 0.004770140989868708 0.022492360309650215 0.010101355570647647
387 -0.000789390388957257 0.005863834342518764 -0.006678324516854181
2055 0.0017841333745304572 0.001696504225317897 -0.0010877006312632936
688 0.0014561371487502323 0.002747733576808828 0.005341550590250281
2054 0.011963430510152561 0.0009428126074393385 -0.0022163678010879307
379 -0.000787518383698166 -0.003897283659074985 -0.004049522222999635
386 -0.010713818198600159 -0.00935239284674528 0.0071776805070822266
390 0.008423088787750839 0.008298121678920316 0.0041403490571370535
1638 -0.027643743906864596 0.01169128794136359 -0.003082399149317638
1948 -0.015706942983149987 0.0008294693712455936 -0.002354426721476279
1727 -0.00252955039637984 0.0002205349045759718 0.003672429527592281
1929 -0.003964385932547697 0.004320827453038344 0.0010266640506567315
1949 0.006816178077273957 0.00562441134126583 0.0008464302594723113
2053 -0.002088445394785341 0.002780762326464491 0.0010569870610808803
1944 -0.004933270601879363 -0.006596544356886704 0.00402885610329778
1951 -0.02025984972511684 -0.0067922853002239155 0.02756399809494925
1950 0.03960437925004188 0.00024143146003690678 0.008589807540257793
1946 -0.001958831632840275 0.00010509543127881446 -0.003231332063554873
1729 0.010285082591658433 -0.00014598923112526602 0.006518902306608089
2058 -0.016116189160766174 -0.026762782277938723 -0.0010056806518881941
1934 -0.002769357326214396 0.0022788205270938117 0.00619524003289303
1937 -0.005884139394198776 0.001829114908179636 0.001472791254524116
411 -0.007934389685014927 0.009145163611583452 -0.01914678919441564
418 -0.005044695806583231 -0.008821154974438384 0.0024192365592728693
1940 -0.003225829912273934 -0.005229738507966366 0.0013030859832163096
419 0.016602136873043013 0.01262308597989728 0.012518123209928785
409 0.002439700217177045 -0.023350631233469258 -0.024965969997616206
1947 0.015670166856935983 -0.006015122510405818 -0.003271110680821367
1941 -0.01660560909929689 0.019132422468507503 -0.012335735090015718
417 0.0037930600091829456 -0.010322371975613592 0.012010341467639483
410 0.011118433346707984 -0.009867404625857648 0.008863384779060596
1945 0.0011838623101429338 -0.002944156009190138 0.006339569146563651
416 -0.0008387405670893935 -0.01943804917138766 0.0018754553479607807
1943 0.00568705922851851 0.0033150191448433016 0.00423204416781951
1931 0.004051769309777062 -0.006452892505336468 0.0018951295527418182
1936 -0.0032197164109582068 -0.001559414982451878 -0.008546868218899332
407 -0.004771204724317744 0.0008629862649924971 -0.002129714359430155
420 -0.04135705961713014 0.026157133164757367 0.015748143018220282
415 -0.00014951699417213154 0.003738373466554531 0.0026611137752522466
412 -0.001229256171464612 -0.0014987226043080455 -0.0028029113763320614
408 0.005423955076396277 0.00370232744434021 -0.003688957146119617
414 0.021346835247186714 -0.008896338610091585 0.006467697979224222
413 -0.008385959387545223 0.01212307551931077 -0.014452230585261239
700 0.02289070210351815 0.0026364432476589485 0.00012394586731790503
698 -0.0017457244415702653 0.0009111412566127966 -0.006421400484082102
695 0.004031198420304213 0.01080657894816563 0.0017323196009014499
1735 0.0020224340300973947 -0.012170802336607025 0.004150788128282988
699 -0.00021074893923482495 0.013747405034788336 0.016429969645940505
1731 0.0007493537071724928 0.0012230463469963591 0.004130663962269936
1642 0.007752815823603481 0.004939241575582312 0.0024778062105587258
1717 0.012134733161773914 -0.00586949472386813 0.00834628848633494
67 -0.008736806392580912 -0.0038842006033786543 -0.02735378684757385
66 0.010626172817407839 -0.010595486409099434 0.004296147950309935
1709 -0.0058908265945185065 0.005815417444521931 0.001196116602157841
1713 -0.01269208213598937 -0.0033948227722059984 0.007515260765750963
70 0.0011442094256586069 0.009514553543115263 -0.010613956667721147
62 -0.0026564431402163716 -0.002322871253512299 0.002045577454162292
1180 -0.0020826035478978644 0.007508684926635725 -0.0009700309115942728
65 -0.0039001906197250794 0.006754502345973669 -0.003465218055240732
68 0.005328421214555331 0.01338547068024266 -0.011633713267481364
58 -0.0011379114646782689 0.006474536904261061 0.0021818404263905427
69 0.015425147086354965 0.0003051444355861778 0.005063560740359261
64 0.010284367265577198 -0.02765322042109615 0.018427491119091886
63 0.006396883822936836 -0.011904415525357303 -0.018379211208004273
59 0.01351512316118731 -0.0019058509496005223 0.0009607611674912397
57 -0.0055164087898780904 -0.0013086783749578382 -0.0057084812658614896
1711 -0.012318767366997965 0.015119839423399619 -0.021784989377190825
1177 0.0052504617264838216 0.0015702612736515134 0.0027546482383368582
60 0.00222117339271601 -0.004539570022600476 -0.0027516801712350954
1179 -0.004244623705134075 -0.002391931983560083 0.004937767636109524
1178 -1.6457521021120574e-05 -0.002718546227987616 0.0032428254821131285
1183 0.0023212728726719188 -0.008676818990890796 -0.004053866796991556
1706 0.0003982236466789725 -0.003583050300854424 -0.0019622164680757736
1647 0.001856927341518065 -0.004295915840938052 0.019515123855579398
311 0.0047087703218042 -2.0213316542014234e-05 0.005830253769209082
312 0.020849759060535128 0.012930034619551079 0.005863685670406638
1710 0.009453099815619117 0.007735777537640308 -0.010648512459127842
61 0.0053103925412742005 -0.03696085341053088 0.007243811124046396
1895 -0.008539235071618374 -0.012654369831389109 -0.0004156427141455463
1182 0.010047042084610377 0.008553366033222575 -0.017782637170015204
1192 -0.009292069542554165 0.016151588429045065 -0.007904021375885658
309 0.004612125441419269 6.612944575098195e-05 0.005773242982882787
1891 0.01737609368116528 -0.0031767301710103114 0.002957314717359752
1704 -0.008294688968364486 0.004681962456028418 -0.002546220437205791
1712 -0.0008976568390815472 -0.00497037736216451 -0.0021530798461063456
1714 -0.016746036033954345 0.0038782750873034445 0.0024418951848201005
1573 0.010362624884591111 0.003334331434599148 0.004907079514736575
523 -0.004644657812711019 0.01283599813575093 -0.008145853480855262
2029 0.0009028748984323181 -0.0039443214743778345 -0.0013181383527471515
665 -0.0026788646323186536 0.003647793301977379 0.01739527066773243
316 -0.009394494994106137 0.002548109060882601 0.01855675977540245
1267 0.006533249183314616 -0.0017162323044498122 0.0032683049630426704
310 -0.006512491948954131 -0.005712951438448932 0.0036292970264165058
318 0.005822155040242628 0.0077493870939496804 0.009628410876086757
1783 0.013134424318243186 -0.007894561850085248 -0.00045712262626954097
1778 -0.00670078524911528 -0.0013475848571111331 0.0011668961055676802
659 0.0016117477044141125 -0.005518626097050097 -0.0018308690128634136
663 -0.022448025600976793 -0.025225676578505718 0.027017526566836394
662 -0.012438306402192581 0.008869485331452868 0.0007084064846878323
661 0.005819108413564754 0.006599117467057604 0.012760737506774738
1252 -0.011219609293886405 -0.0018363403920792813 -0.0021498157283496716
1254 -0.009725882814943711 -0.0006664574091731463 -0.003901470414829114
1259 0.00563427918953288 0.002691184662216342 0.003490482248034694
1258 0.00122954042016236 0.006412438637338866 0.0027810538986832245
1253 -0.004738664483932655 -0.0009505013386854993 0.009959976853757624
1256 -0.00022382683370535437 -0.0009063913501918225 0.00038520415618324905
1260 -0.010049131584504814 0.006804736279815976 0.0054548095931257375
1262 0.0022483513306341928 -0.001790603095564022 -0.0017791219111838996
1261 -0.01798855013077608 -0.00253511718182757 -0.011155017641306027
666 0.017234103894412045 -0.006240720051180739 0.0005031414487529643
660 -0.0010021310722271835 0.003188694619425483 0.003744442193801924
313 0.004882787705358572 0.010925983711905368 5.1323359382621606e-05
1255 -0.003991546754212768 -0.0024773564258914987 -0.0018455255446893437
1264 -0.006259699946223796 -0.0018363954513515195 0.009202199297317087
1266 -0.006810162988394577 0.01594288154880869 0.0031515183228659205
1780 0.007722164857545287 -0.0002674485939175115 -0.002675643819855731
1782 -0.0009630525290509758 -0.021120629580663186 0.010134062093831523
1263 -0.020565168868292634 0.0058210828270548 -0.010004662854271188
1257 -0.03233125648767228 0.008702113459575027 0.010825067500245047
1781 -0.00040168410219752846 0.0001496176888226823 0.007497907528433924
999 0.0019047117119409605 -0.006345197527651952 -0.008933255032696203
996 0.000914174123371743 0.005076181248061857 -0.001311952476000691
994 -0.004326170931837456 0.0076765993563501795 0.00904603866849223
1198 9.929078636813529e-05 0.009981250655482641 -0.004064144999831064
293 0.021956999815479127 0.004738458084058643 0.02021059366102324
1001 0.001957174874822569 -0.013560018127288666 0.008231862372071462
1000 0.02150152806611373 0.0037085944983310977 0.013054979013185026
998 -0.0009618515063841298 0.025260601047694918 -0.013094572201008405
997 -0.004392961723436088 0.017788255526545813 -0.0032059552685265533
691 -0.0017780285274668875 0.012983950654513536 -0.004101253373493163
995 -0.004264977146191717 0.004951412215334933 -0.010198362362346914
990 -0.00022045328518384514 0.003902136127493141 -0.007553747325339502
993 0.0017332904735153543 -0.0027247361773831127 -0.0036806330686812473
1265 -0.002345210091891273 -0.003590487601881866 -0.0006841653032234734
1270 -0.0011636153445790621 -0.0013718792904677743 -0.01733340616762442
550 -0.027317340424323287 0.005470945772883236 -0.0018762158267323684
690 0.014360955596710306 -0.018639669883726694 0.004352534540760685
988 0.00661398901876021 0.00014517039275859802 0.0020878189649475337
979 -0.006021574462557857 -0.0004305469164815339 -0.006044293742717284
989 -0.01441221250580106 -0.007655206172641914 0.0023140771441521593
991 0.0052979153720360125 -0.02114060971678101 0.00700651443190113
987 0.005398918640755735 -0.003442190417193786 0.0014155534246261508
984 -0.004191554843585961 -0.003927853653023577 0.005762458958026161
981 0.004893616320141231 -0.010503752658059303 -0.002063983689712764
986 0.006364794593244739 0.022498365841200803 0.008885127327920284
985 -0.017514516808329907 -0.02152154468945489 -0.012072294841544026
978 -0.004332907035024628 -0.00025032489483421005 0.005749842697001663
5 0.0068397941323456385 -0.0048415286694616045 0.0005767129232634831
980 0.00227342631749711 -0.003198982155021488 -0.0005712869482874
977 0.0006653555125628577 0.0024916128854775474 -0.003067179800103581
983 0.017049409669849275 0.0015077512318423772 -0.02187979220967921
982 -0.006170845771728422 0.009138860029643862 -0.00591244692628696
3 0.009274230160874863 0.02134226532391045 0.005872053674140193
1 0.0068254886304602936 -0.0044965263550190634 0.0014177000829494728
10 -0.02214973188403537 0.00023720676671018054 -0.009068294051457945
1269 -0.003789397818658982 -0.008657463242626848 -0.006657846453516247
687 -0.010775879867670828 0.0018615960014791747 0.0017834473291666938
2096 -0.0031764964658197864 0.0006552902769753957 0.003960112176731991
2099 0.002103867143096608 -0.004869076742631521 0.015714838591247816
4 0.00129633393129222 0.03122622271680218 -0.017146645147446748
992 0.021698588917941117 -0.008134647243100451 -0.0072909658574190584
1639 -0.0007270403294930588 -0.011532989964615466 8.886835216770865e-05
2098 -0.00729574431946773 -0.010146670134987143 -0.0016127846112661097
1649 -0.02128235994583349 -0.007582226250877574 0.00404071770881187
1720 0.009324737396363057 0.04742818305798193 -0.004979845943138737
1899 0.022453047090191205 0.012724652681479239 -0.01174221875695279
102 0.0001452357185989353 -0.009611053679824216 0.012970404405881535
1640 0.006484638252446968 -0.003755336583691215 0.014150248827721063
103 0.0016909294945941476 -0.013956217379468583 -0.019980382101013022
108 -0.006480535850788271 0.005860429643716702 -0.005918962502037293
109 0.008427539496126728 -0.02377212079584994 -0.02348146214612565
111 0.026968653424141446 0.013013931275503078 0.00824611432218687
112 0.016702771747363513 0.0057960228766320825 -0.000362853105399918
110 0.01575331341466995 -0.00630686194886905 0.02309350732421158
106 -0.014644078304118697 0.015134600753978392 -0.046679201560736794
104 -0.0001333416615899205 0.0019147523552071354 0.0003617921969379935
100 0.0014226341754012503 0.0016924136769584735 0.0015874331292737359
99 -0.00025862707081460075 -0.0007170032110033793 0.005739091188005527
105 0.011027422631461174 0.00582971726397558 0.006592927773077109
101 -0.014318020310342601 0.0024345363368986623 0.023798317931147027
107 0.00586500269485245 0.0020806670741116244 0.0004192130959033285
1645 0.013649687663065664 -0.003215214893138762 0.019208491805699883
880 0.0015223708951105567 -0.00497075402862048 0.004619153478903528
1901 0.004307540359201688 -0.0012218995939812182 0.019960840936979234
1897 -0.047849581801937234 0.006386968322821907 -0.0007098939684351493
1893 0.00035649645244001545 0.0011383628723006032 0.000886049332439088
1896 0.004081927200898257 -0.003958850924795707 -0.00292505351835137
697 0.0006913357046085206 -0.0007265898528410791 0.010288202867887893
490 -0.0007638737096678594 -0.009504904622837457 -0.0410897401864354
1889 -0.018151352082375335 -0.007155786206747393 -0.0016855221787797808
1703 -0.00034432055473025604 0.001051598117554811 0.0006076061342414624
1707 0.006067242921373099 0.010111434089010772 -0.0016459682497132644
1882 0.004316197225693795 0.004187085173707058 -0.011864756474360501
200 0.004139992031453865 -0.001293453055784977 -0.010051001010873667
1879 0.0037000992804186446 -0.0010343232835390054 0.006725861904587181
480 0.0114756712002958 -0.009956810970393587 -0.005652292274778832
1702 0.0061752573144651475 0.004532981942869668 0.0032581021968807475
484 0.009710602649549946 -0.026522903025441365 0.002155114784319773
477 -0.003646334800324057 0.004088266698581212 -0.0020909447194805714
479 0.01065167067833288 0.008491576579381283 -0.006744823101013231
478 -0.007036336941750439 -0.0007375687650157898 0.0007417169966451767
1705 -0.007513219451539849 -0.00040717647706035127 0.0024159893790255743
483 -0.012288552074738654 -0.011635737258203384 -0.01340134321372996
481 -0.0053549412588871975 0.004683530368358534 -0.006392804227975181
486 0.020841456026637555 -0.0027165933856729773 -0.02929802123210318
482 0.005773657060283812 0.005109288256810943 0.006698033713831742
305 0.007004776856667601 0.011922294428022026 0.0191230132434669
487 -0.015573752108680275 0.0011849183206791981 0.021903375574494004
1904 -0.0007694375415044005 -0.0033165187023376777 0.00300233289954479
1708 -0.027184370194159518 0.013645329470797656 -0.018817207734385565
1884 -0.009872049576184106 0.0018807611208997857 -0.002088337069856094
1888 0.00021451749885992554 0.004020213226957045 -0.0046078745556615555
485 -0.0031811178731824047 0.0026475846969104423 0.0023745461936234284
197 -0.005026531339239894 0.0026097644296016347 -0.0029200449787141263
488 0.0010375796307754582 -0.004450731842170288 -0.0014083586749066724
304 0.009014320905024931 -0.005123204908463998 -0.018051797800517848
300 -0.0015090354781348702 0.0016477318241749873 -0.003475771075532392
298 -0.006052265536127004 -6.121882773858622e-05 -0.02136804582122578
307 -0.004840231397684018 -0.004046082531692994 0.008466594295728191
303 0.0013800196915012602 -0.006390037441782436 0.010359971575899804
1756 0.0011806657948036574 -0.0041745296974440675 -0.003187723298635125
1753 0.003638585843718438 -0.0006587407382090191 -0.0026229946228520673
1887 0.0003953866956927275 -0.005102079929275345 0.0036875153518896144
489 -0.008700917861545978 0.02247970761986181 -0.005972923564709562
1894 -0.008416821955482223 -0.011855128415643085 0.021642971626893298
637 -0.009051964608293255 0.0016513266729058982 0.01777444639484585
1892 -0.007820923976227218 0.0004034737304533771 0.01302595766233986
1761 0.0018311515014565317 -0.00290551204848905 -0.004131393450570726
1767 -0.004615938032897991 0.005464421777966735 -0.0014664142306056614
1757 -0.002763987881741377 -0.001450469952026219 -0.0028499797830139812
1203 -0.00420784503275475 0.004352930547568286 4.939812433353977e-06
1952 -0.005330260157511205 0.0027314446362189377 0.003229019036927308
306 -0.00941861043338267 -0.013122060751488897 -0.03222618718640075
2201 -0.011666005183140347 0.001912730085701685 0.014353769944284908
302 0.012632503981502964 -0.00035804959068190913 0.00499070051541721
45 0.005907330722143621 0.015235061481418288 0.007824975095532314
2200 0.0036107197838393884 -0.01566211651475083 0.015001419899503194
2196 -0.004756564870602435 -0.00042431888325967815 -0.0017543724036493955
2194 0.01751890379364105 0.0034065564890982097 0.0022858918872034773
296 -0.00912606304806022 0.0005088927299828972 -0.00014053600631301697
2197 0.0198457296556048 0.007222376698048996 0.010231441219682514
2193 -0.003440547737456671 -0.003089483178158497 -0.011829791085507685
46 0.016534040191224363 -0.0006546744308250883 0.007072163820983102
297 0.015510464008195281 0.003860308028101578 -0.011114192996409993
295 -0.00037793243079193905 -0.0004932282738499497 -0.00026833468763985593
299 0.009703160452069433 0.001126395444926976 0.0016851582103302042
1202 -0.0023490280212518097 -0.0019659626811566696 -0.0035547282954133523
301 -0.005714294099250934 -0.01274143265736932 0.005453268065221996
1205 -0.002884858851788891 0.0032521072244198336 0.007720968774698234
1204 -0.00811308914123758 -0.0013824294870805722 -0.00026662305611500225
43 -0.0013531538321853145 -0.0027192495547386196 0.003190494816469553
53 0.017494960229502476 0.007058975209731331 0.01349144438055646
48 -0.006460372887584941 0.004578802460743991 0.00649899575153813
47 0.00021471028415086019 -0.005755302916291735 0.002714475893476965
50 0.005804184842142308 -0.007521303469100024 0.003377559932621441
44 0.004260922400750177 0.001410686920697205 0.003940972019073514
2198 0.006237833599856268 0.003879282685133932 -0.003571667142764537
1208 -0.003491521940859378 -0.019267305677242337 -0.0006722018349248831
52 -0.018183458143862317 0.029392996531089375 0.024358802039607323
1961 0.006989913442308221 0.0056572508202973595 -0.004082411097645555
54 -0.007706022182794038 0.009441972755298855 0.009503696235262572
1760 -0.0033812656542399093 -0.013668393480821238 -0.005550539293130302
51 0.0026977984455975245 0.004340205499570899 0.0011825869158619059
1954 0.002122161128070167 0.0008807895509083503 -0.005591159513203432
55 0.014929401548537606 0.014381149590617951 0.00816265217655387
2192 -0.014768627757401955 -0.01850172774230404 -3.622228378031351e-05
1963 0.014561874538092106 -0.00544661732579923 0.014504938121706489
1957 -0.0024402002696656115 -0.014817547666141287 0.019203761078139776
2101 -0.00012591818594846023 -0.009765889978873463 -0.0046781837685499665
11 0.010550688563392606 0.01838517449228773 -0.01337608430482142
1967 0.011920161418363504 0.01143955607921118 0.013768512547545887
6 -0.0026241826428039486 0.0027980467587654452 -0.0034167685776449862
2190 -0.004430062881555613 -0.00322289448483147 0.0013888093927303096
2195 0.0063847004630593045 0.00989624007979429 0.0006451122309259621
2181 -0.00329214817785145 -0.002187073759168954 -0.0009716610295455042
2185 -0.0053338478124759425 -0.002648640433667439 0.006841049266813244
1956 0.0017789165632597997 0.0036543605172889215 0.006027829283499913
2182 -0.016851504894399478 -0.0110637784485844 -0.009936214236312827
14 0.00792689531769902 -0.026858633054916953 -0.009086119208237176
1953 0.0031485595470207577 0.006219698172909608 0.0035302312468646823
2178 0.007105767030913256 0.0010358536352815127 -0.0004831777753332956
2 0.0012951087109399674 0.004354867587737166 0.0001752072153780159
8 -0.0002647100180660095 0.010641149150626365 0.0013639311070818862
7 0.03659873703836616 -0.0029350117824374247 -0.015454859797193738
2191 -0.00198249666066613 0.006507769338001211 -0.005885333129189548
2187 -3.768584187694397e-05 0.006489626866918262 -0.0021998015802183724
2188 0.0024751518817531753 0.0007648620676723229 -0.0059539494129841695
2183 0.004062627104574429 -0.005855535954793323 0.0005997695275397092
2184 -0.0015366394571002188 -0.000574650534276907 -0.004218458012578392
2189 -0.012750794470548036 0.02348615017433327 0.02051332063069619
12 -0.010192846969928369 -0.04652602495908218 -0.0007372247955352889
13 -0.021949864980859303 0.0008530744128476966 0.018348154787509296
9 0.0064691673148807236 -0.005801677036430798 0.0046870743600860975
1960 0.007882291129722493 0.006056057285534939 0.012251819105081356
893 -0.002148100302244355 0.009142936649059403 -0.004036152949486319
895 -0.003774728721942365 0.012251027891304493 -0.0092185953219226
890 1.600997086674561e-05 0.008558035881221261 -0.0006409605831021164
894 -0.006349055788171749 0.012334459213281041 0.0032487785292792336
891 -0.0002632475941994103 0.006372515670194258 0.007238167438351257
900 -0.003684830127884208 0.01374868450781963 0.023599977805178862
1959 0.006227157544104003 0.0023069907615404913 0.0019613524436662764
897 -0.0007798850637197145 0.0087324386674112 -0.005288638504462747
896 -0.010218658838871056 0.002829499292660219 -0.0021276172062954777
1958 -0.02084279117019599 0.021463019689136883 0.01138888424762865
901 0.0021373581454538033 -0.03081374437834343 0.0022603982454964255
899 -0.0001495287842404043 0.014231062679332144 0.012824273561377162
898 -0.005388145342033674 0.009865303494300481 -0.008880430660552016
1900 0.0289754614770551 0.006309918352381221 0.004547239815855378
1898 0.0022953439515922404 0.022116788486716818 0.015965339742356345
1890 0.0019995964448809886 -0.002191470574292189 0.0029728650344424267
2092 -0.014575441436925619 0.01693028775797721 0.0036379821584362993
889 -0.004326802629079664 0.01114038057620522 -0.0036418191081075534
879 0.003694779175631046 -0.001672530950754151 -0.0005514278712347206
887 0.0026654207322613656 -0.0028310810168633137 0.0038088047120158576
776 0.007319040565272339 0.0056372602195681396 0.0033034446004088255
780 0.001872977000770725 0.0050957237511966005 0.009602096825039784
877 -0.005431387547063396 -0.005663494014350741 0.00866257535247597
884 0.006263515828487914 -0.0016712517940346918 0.004159493758961417
781 -0.010746222259868389 0.0063120817425995936 -0.030465528469616417
2085 -0.014816416480477034 0.01985265719600906 -0.0014371796826890594
883 -0.007588833718490053 0.006450066809081684 0.002714430764670666
888 0.013970318080294258 -0.005611399775945374 0.000302500183514141
885 -0.016866780176684353 -0.010692583878716485 -0.0018413529345071213
640 0.010185605973008917 0.004640974949463094 -0.015389297116308143
643 0.003422588998811793 -0.0025673694032306476 0.005542767450136406
892 -0.009518477553167143 0.010851254477597166 -0.009831057528015568
886 -0.005729794208818977 0.001729416463512679 0.018467526103406864
638 -0.00038099484056828447 0.00023559202795521585 -0.02395915260780448
882 0.015039510024055767 0.02871510797546109 0.006840176458332913
878 -0.0010977653712697846 -0.0034983550905934233 -0.006773197290001824
632 0.0032134488963878913 0.004378472248823156 0.0017054261343128366
641 -0.0009645740777575843 0.009128538077266428 0.022398545252032866
636 0.004134349455879008 0.0005610298200766074 0.001163864925688249
644 0.00831911841663587 0.0013519566735929727 -0.022410631319725517
642 0.006909689798480238 0.016215713136892806 0.0037265659006936592
881 -0.00155309724081561 -0.0011813539589443308 -0.002201614292032307
639 0.0022441880380112533 -0.007149876395079762 -0.0010353747090692516
2080 -0.002092848800377212 0.0072720566393192085 -0.006881975725322824
400 0.0031020832174802966 0.006550977780558027 0.0122085235659136
406 0.00023462793342749676 0.0018925642352429397 0.015483306371500414
201 -0.01878721264409841 0.016674130546488183 0.00019100568558882625
199 -0.009940564689409225 -0.00644685823429419 0.0010613787469451847
1902 -0.0040185355516844535 0.002011851644781681 0.006674333068343877
402 0.008813193147748304 0.002958529916086467 0.003662611616747314
398 0.003558820210636872 -0.0032997965465353177 -0.00287874803164635
654 -0.0018059907123632347 0.007394516968898055 -0.0029190884678730643
650 0.003314954604189103 0.006154984899382667 0.005350025537309761
1905 -0.004217791126627805 0.0022913924512214497 5.8668594903094697e-05
399 0.01179946828066543 -0.0003135086406637811 -0.0159128536551081
658 0.003381036434734819 0.0024175807244900312 0.022078494816463172
655 0.014065605327634498 0.026906058246798297 -0.018587294278382203
653 0.002721646157129486 -0.0006977171161430841 0.0011950158461613105
656 0.003512051309927904 -0.0006052079906430253 -0.003821381073249637
430 0.010219560396830083 0.014985046059907898 0.006904721183667654
403 0.017914778023740457 -0.00282031796317738 -0.001768139696996454
1906 -0.0003874600097329948 0.003313103145096155 0.005435132618061576
1911 0.0001502414812866615 -0.0022641495250166543 0.0029751084820031654
434 -0.017251621685546042 0.0061926606201865055 0.006067224675881269
429 -0.00040660647287666784 0.001402103033499554 -0.005777903407828569
433 0.0006867170260083126 -0.013517714007069593 -0.009689771866228948
657 0.02091187761879199 -0.01349649474103567 0.008800392243432301
426 0.002701974595289609 0.006358120349809494 -0.005757650380669447
1903 0.003803628400775291 0.0034640299336016127 -0.001689150172695409
431 -0.0048860525406141464 0.009629463884491762 -0.002997247634632314
1010 -1.883629369156864e-05 0.0032955706329894623 -0.012269861057994448
1910 -0.0024560568066495526 -0.0328841377971773 0.020599909881956292
2280 -0.00021895362083821203 -0.007845814402520312 -0.0004456371257821614
1908 0.011899870609330293 -0.015922036433068193 -0.008700442119727012
1916 -0.005589120899991664 0.0116991769604891 0.003668558361042694
1006 0.0048148594763079075 0.0035320801084701334 0.000541220414596427
401 0.004830622279577259 0.0029483305631726815 -0.00561257965598721
432 -0.01594626289125968 -0.006285078744399007 0.009191727515902916
394 -0.0033382570444137377 -0.003708060346465437 -0.0024886389698446478
1011 0.013712818539027814 0.005423364370160376 -0.006417249566607277
1005 0.0015885951902954894 0.0022922381667062506 -0.004775202571009476
405 0.006100414447765884 0.02732501303825841 -0.018617096356249384
1668 0.003318290785215629 -0.005665667607254829 -0.00013501339756474836
1662 -0.007958325895970713 -0.0027766023477428176 0.0008755817583801604
684 0.008323093723036221 -0.004480399063227915 -0.004282695272295538
1917 0.004805779317482669 -0.017182788609214027 -0.0002948552529445957
1907 -0.01765496426469205 -0.020373398781454596 -0.01794424305617534
1912 -0.008885966957386563 -0.005389543798765726 0.0033185707598560347
1663 0.010878250688933546 0.006360883880016167 0.002951622488309055
1670 0.002977200780665223 -0.006579677630651081 0.014143531283221582
1675 -0.015027447361458734 -0.0026479029599084845 -0.004060884092109002
685 -0.006038173743247581 0.014191195715108162 -0.0011107456645114615
56 -0.018618772379696835 -0.0010370423857553972 -0.019306101126419735
1666 0.008124561052934794 0.003770394447939962 -0.000170865765830819
1664 0.0005109219823514602 -0.006061437596028119 0.0052667520022724275
686 0.01875368197050828 0.013700129052832397 -0.005698537215198103
49 0.009877191205352845 0.002716397919941468 -0.00197672762678663
1672 0.03255768796074872 -0.007939820217069944 -0.0038637383959011103
680 -0.009701960355730654 0.0023532582437486055 0.002076289775063138
1913 0.007609347718838266 0.0023751832816799215 0.010986328096662912
1909 0.00012853553152613993 0.009081638732650636 -0.006907893506232399
1914 0.005067745243519451 0.013566201248643037 -0.006233396565922643
1920 0.011066011406902486 0.019332947968590967 0.0067081985048732745
1915 -0.005074260906148739 0.006400364929280221 0.0033870443781827994
1919 -0.017770110291301298 -0.02123501652496511 -0.020309563299066392
681 0.006774649299859145 -0.0077014036362782045 0.003977521777220492
1623 0.008200453895482154 0.007139922602484058 0.0038621721254570585
1235 -0.004048408963992515 0.00665853267527398 0.0018832937468568167
808 -0.010953097311790455 -0.018857283570748038 -0.019258989231418586
810 -0.023293907839392676 0.010368265982432245 -0.020728457764458866
811 0.010007479597427905 0.002228051651371984 -0.00280359565558351
807 3.721663918946952e-05 0.004802523361764567 0.00018284750894311894
812 0.0022439198869899993 0.006705326701689733 -0.011517530159984737
804 -0.008932125760850531 -0.002956755788434333 0.005007272068085244
1622 0.004037784212653781 -0.0024027264991076515 0.005232317309538222
809 -0.011919337527258251 0.0019467347925723377 0.00456425370779329
1231 0.0020486044648569913 0.002282649504034211 -0.006169583673742206
1406 0.00018619530881465134 -0.009298102157363174 0.0040707413056601935
1230 0.003671832674070816 -0.0017478872391891477 0.0007215247566481187
1626 0.004625070189930634 -0.015742160576355354 0.01161572627346619
805 -0.0026590411336514736 -0.007888567527932737 0.018189894251639638
800 0.003859285327160287 0.0017800636454959186 0.00791827696416765
806 0.015865713960853435 0.004213092501024115 0.007042522904776336
1228 0.005068725958346038 -0.006026514894664078 0.002657808301888623
1227 0.01191845628128685 0.0029915289981757094 -0.0013679793119791457
1232 0.00576613340394844 -0.038982352063831195 -0.019656571208605464
799 0.003610113248377992 0.01078378164264454 -0.0036630885162713105
1410 0.005152436985535089 0.004631566383855175 -0.014722764738663706
803 -0.0031692468189016775 -0.0070135315626085265 -0.023852171547805955
1229 0.0019168707528618059 -0.000860403429228323 -0.002718864118360371
382 -0.0028729277527910027 0.007002298806563909 0.017765821239760483
1236 0.026196106222214834 0.015033561270837069 -0.006657674914809423
421 0.0010941671707477632 -0.0017109927297056292 -0.0049511855624647565
784 -0.002427919406684926 0.010894139973481893 -0.008967006727553158
428 0.0010724241551462051 -0.010311555815985533 0.013494153208435318
422 0.0019004620905639295 0.0044033472374966414 -0.0077500302105260035
1233 0.00450556177585693 -0.007079002457496517 0.006990230218559414
1416 -0.02896822691735305 -0.004987805936007971 0.01769461880011311
1412 -0.012636201733032468 0.0035149003156253857 0.0006634206621774659
2283 -0.0006757717992263504 0.008578110143997156 0.0009483675858707386
783 0.008296042666875426 -0.02749895745440143 0.015328312127333838
1739 -7.829055677194735e-05 -0.009965311037546217 -0.0004921257016774706
1734 0.005174366488503114 0.0011762436294731752 -0.0061068357113691326
1003 -0.004749359685172506 -0.000267773119763485 0.00613945209027037
1417 0.006816078482996661 -0.012433324204957099 -0.024876008785039795
1008 0.03311954662526054 0.019951812709078393 -0.026114422604975072
782 0.006339734244976736 0.01652973342362074 -0.005071870497133062
779 -0.0032522591106029074 0.010983703241931908 -0.002480336211782708
1741 -0.023778335720577356 -0.003858439620923428 0.02075084430216881
427 -0.009957178328919777 -0.0029721748061141283 -0.001995168930579899
1751 -0.01646545639272538 0.0027296635154395897 0.010302272411687718
1750 0.00776832402055766 -0.007128058768850538 0.007069100880672525
1749 0.010200749830642357 0.006328453619995473 0.009972994298042498
1746 0.0037990513432112007 0.003235441062418861 0.00140513522221453
1747 -0.016434665250099702 -0.001650509476993191 0.01602939250993355
1748 -0.025625316637831703 -0.006728463798816221 -0.02461431188037984
1743 0.00010852633077599225 0.003203552074483741 0.004826559855307562
1737 0.005441786227774535 -0.001493965911799 0.0025093389595854556
1745 0.004568462016480684 0.001434088218946566 -0.007393487645285158
1740 0.003427695930471828 -0.0004127056289240413 -0.006993378210003345
1744 0.0011834613663923 -0.0038041195055566394 -0.003349670092928366
1742 0.004445704686901801 -0.005929538002098514 0.01168907112929438
1014 -0.005263395708767714 -0.011448211644850935 0.001680072621495395
1732 0.002045096206563399 0.02222408895277229 -0.006348952080091524
1007 0.0011278197377689906 0.022971673324332146 -0.031112185830603722
424 -0.0059343552484766564 0.012766393707722689 -0.0060264813482242404
280 0.021502008006179345 0.013313179232479233 -0.007280014505676604
1651 -0.0017912682892010587 0.012031037960212786 -0.0018659700498890755
1151 0.004530258364950697 -0.010646681998982579 0.018329731138444535
1150 -0.00030515974991169985 -0.012797621452712791 -0.01492263700916236
1149 0.008173793016983625 -0.01567019914878769 0.003204264584844546
1012 0.0035570855210344007 -0.011888331515835281 -0.0015742533728397613
1139 -0.0009704104633305778 -0.0007526244185423372 -0.020187469076393214
1142 0.016774830478817754 -0.010469176114470258 0.003098809968745377
1138 0.009694936916454287 -0.0032156467738777956 0.015776973314894978
1141 -0.00042134287464399363 -0.008508672974661593 0.0019102508484724209
1145 0.016883132145375762 -0.010227252060289743 0.006178163461738784
1134 0.00045105505160046913 0.0035628831924373774 0.0011369439457644729
1137 3.34099616896779e-06 0.0023906595907076385 -0.003932708339319945
1140 0.004116071055665117 -0.0007299239615537993 0.005968301088546484
1147 -0.0005041462903888504 -0.009958325417065702 -0.010832264529741056
1143 0.0011181324992508993 -0.003578287804635759 -0.005466594703370779
1017 0.014119315013197525 -0.0019391995461405795 -0.008463792500968688
1148 -0.015545486578995451 0.010888086615620093 -0.022653269597939812
1146 0.006648837379614312 -0.0067134346003846854 -0.007679349970164795
1144 -0.0012592740923192498 -0.009755420331268467 -0.011497924136454212
1016 0.0038922089933262805 0.009354078576137664 -0.017749380119338444
670 -0.0024051749494993085 0.015596315663707809 -0.007263145523800152
1020 0.006684510145352386 0.0010973379170593324 0.009942490885017254
1019 0.010987214947053212 0.00436322076751723 0.006587636081297818
1015 -0.0003612698113772282 0.005015152655271215 0.0032085985572933243
1777 0.004211353049597002 0.0031916612595467024 -0.002123438450197509
1922 0.004819661338672192 -0.026043173074238528 -0.00314853782530548
672 -0.014867685359127147 -0.001431354855492372 0.004396485005032693
667 -0.005551911916107083 0.0041136299397643 0.0028284355125105316
724 0.00753344413921864 -0.015092559640704918 -0.014956203093827145
908 -0.026866782973002625 -0.01771842358650911 0.0026685406269813276
1918 0.001996051496600789 -0.010173196725674957 -0.010554111990848682
920 -0.005900971138881042 0.03593903110470818 -0.0023019240197074556
728 0.005305595026982706 0.011580160497468373 -0.0010894093458067107
1785 0.009324424826172472 0.010227110279238777 0.015156242405511658
1925 0.017931633204475002 0.00426885973910672 -0.001410344469282035
917 -0.012059051598719518 -0.01603946454158027 -0.01392556423485287
1923 -0.00010433288093007162 0.022118629524225185 0.001410000299491927
287 -0.009499102210581494 -0.009506332222642572 -0.00507107346626359
1779 -0.004235335452663789 -0.0034608824336366025 -0.0015411676588014673
907 -0.0066652691392873374 -0.004750437343929122 -0.007890095256214629
1926 0.005469040909517755 0.026037730360367765 -0.00112482855031031
916 0.004088316164079151 0.010000753188164034 -0.008068395384903504
912 -0.0025361921695445963 0.0031687353030737195 -0.0024300109109094553
720 -0.00266524928784655 -0.0044564585117209 0.004386574704456033
911 0.027913428281810652 0.015075650417085888 0.009314894987351087
909 0.0008436286562549839 0.0026494822829628275 0.006473613380164954
906 -0.0007199505974886013 0.004348141371107279 -0.005145861625700329
671 0.007477872481590455 0.007035703087700022 -0.002109374890746243
910 -0.005307540988778092 -0.0013735590601600882 -0.02089242055217018
1921 -0.0006114461906283987 0.0007473713718753745 -0.00021696252330092968
664 -0.0073810751087765 -0.00014448234429335932 -0.005335597550979256
669 0.017729424196230595 0.0010637393640370544 -0.008712164821651547
288 -0.007585301633233679 0.008663365035713019 0.007530806360469341
1924 -0.006351751570666795 -0.00027815974743279544 -0.0232734940132922
668 -0.015621200095230667 -0.00926409048904714 0.02226378018663584
903 -0.006824229755779847 -0.003844209262423478 -0.0074929132033631175
282 -0.000809701685807969 -0.00845595961413576 -0.0027545367484557454
902 -0.00034515375229152064 0.0005612718576197954 -0.0032267607067495547
284 -0.004458871324554647 0.019853630227513002 -0.008899464066619976
285 -0.025218149439501215 -0.0005177200090062254 -0.0037813369885886347
281 -0.005990423434749351 -0.0020298256795504865 -0.003556047770188349
725 0.010904296382711197 -0.0027105397225172354 -0.00325511488841872
721 -0.01773933747375248 -0.0025817450243279284 0.0013113426430338936
286 0.006328705441505491 5.940711044728806e-05 0.010444719627007625
392 0.0012449838089979035 0.013528147341474261 -0.01112528825564837
389 -0.0023183876880153516 -0.009179692479981225 -0.012267651414339584
289 -0.0041630136790233455 0.003939726468270238 0.0022034948100323453
802 0.02374524536735598 0.006536115356615123 -0.004648364125535617
801 0.003365237588630929 -0.007197249238242441 -0.016587218148497587
291 -0.00867320256274168 -0.008174372181822554 -0.0312412587016988
722 -0.010499584623286649 0.011373825700305734 0.015090172690950997
905 -0.0008024609453257126 -0.0015612537187524812 -0.001972197659417691
904 0.004209408738700768 0.004149462052640578 0.0067728743696473664
716 0.010833593141298893 0.008958778199127453 0.0003088444391140272
1413 0.011725943403927287 -0.014838012917637458 0.018526091163117292
380 0.006208914079994717 -0.0022685597383772177 -0.005366862941862828
1409 0.004239047341675512 0.001947497368419578 -0.001972907216641498
2111 -0.0008865012768466573 -0.0030677121473034266 -0.006028585930721487
294 0.006903112111016919 0.0004109748566581905 -0.011533615703062045
2113 -0.01580904909475907 -0.0035581055640054858 -0.01467860617185899
1402 -0.001835214538917562 -0.003346149904761411 0.0034141609220478264
1405 -0.0018692349716198516 0.003145520451895347 -0.0036889250132992996
2103 0.0004156141730952652 -0.0024754605426732736 -0.008974194955893477
2114 0.03778092389948509 -5.243253630885363e-05 -0.002238394050702335
2110 0.0047569947244856785 -0.002722232735657089 -0.005491974087378543
2108 0.00029372091833719836 0.005170028925480401 -0.01860842160063783
2109 0.002615530917252607 -0.0033147551276532035 0.0010153780151383083
383 0.004608356504469325 -0.004830184610129491 0.0035093771344836306
718 0.008700097722261104 -0.003470644797628753 -0.023785423807926153
2102 -0.003036726714579349 0.004091556480822765 0.003533697676070144
2106 -1.8434580864705456e-05 -0.0031779126951956213 -0.006496627968770501
715 0.0055231739672666575 0.004402162459185666 -0.0076516879446865025
1414 -0.0007705718160246291 0.003543250625211826 0.001562043477541054
2107 0.0008863490335153776 0.008880848035687627 0.008849918350606344
385 -0.024896255143759476 1.4566523800860182e-05 -0.008973779617548073
717 -0.007527632085763711 0.0037853734280704336 -0.03681788272327509
2104 0.0025349707292207932 0.003709534904356833 -0.0012092543999386836
2105 -0.0010759724502581577 0.0031980837628549042 -0.0030938547705005198
719 -0.0018637227054875277 -0.006471823419997571 -0.00018140836344232738
689 0.0061161847151479124 -0.01168270242576371 -0.0026484363767404835
283 -0.0017511678294945693 -0.010353455948753374 -0.016793610521518468
1736 0.015138102144932475 0.004758111831255247 0.001672726964756371
1637 -0.0040777031508484355 0.00041858412271494503 0.0028198613670285485
1018 -0.0019492074617921537 0.009747391357182993 0.0005607683615989873
2120 0.0022214137108329895 0.00347479958317703 -0.0163078600613093
2118 0.0032758086514711854 0.005379667090641397 0.0032217315094005897
1009 3.9986154649512175e-06 -0.0012399230266907462 -0.006813356041253315
692 0.0023748715332832194 0.001577935182987107 0.0034226880702432406
1643 -0.005985760455218536 -0.0026446838788473084 0.0014134554368244576
1646 -0.004198930125938279 0.004614242317652177 0.0007377498643459754
1648 0.03525607127180597 0.002698190444809599 0.0307433224821489
2123 0.002784140984802015 0.004357019469744239 -0.007100481324892333
1021 -0.007196294566501445 0.0027605652377871055 0.0034299577606659282
1650 0.021314050990780924 -0.006435967226001542 0.021541733748311292
1644 0.0033499831426610474 -0.0010556562568153813 0.013376594987494885
1424 -0.005628846204794684 -0.02795719752437046 -0.0030680787526479072
1421 0.004950030192898427 0.0034014824770349054 -7.559789744098185e-05
2122 -0.022176716403081435 -0.0037587088515097728 -0.012562261348964158
1023 0.020723730984268707 0.011736234106900459 -0.0033749718265221624
2119 0.012705609399541191 0.001769244962245306 0.004220428554810204
1024 0.006067059917403165 -0.011446659722118056 -0.0003648637952651388
1026 -0.011805441124977412 -0.006924098750960118 -0.004857006607290965
1425 -0.007269125473281533 0.012820862590024545 -0.0027770153879922636
696 -0.0033685966116800883 -0.0033906810422101694 -0.002543874517090276
1422 -0.009413459868016989 -0.0026084979303576863 -0.012337657836271967
2116 0.023728146788819904 -0.01118072048483826 0.007839313791166699
2115 0.006854411745324104 -0.0009937472014081605 -0.0028591847927841793
1025 -0.011766155556291595 0.00448648849625784 0.017555239256502198
1426 0.0035678472273081466 0.0003183315141325568 0.005141927571256748
1418 0.00032371410214425905 0.0030399132093773436 -0.005824642652729112
1423 -0.00951429489252022 -0.0014417319775458896 0.015699389731262454
1013 0.0005416433214610812 -0.007576134413439552 0.003979521756348431
2117 0.004137988212514507 -0.005490750032830719 0.01618909643783005
2112 0.00015600711214673604 -0.0016312229350991683 0.0015093454421751362
1419 -0.005731125074738306 -0.0038302173345400835 -0.03529020672522353
1415 0.001996540567402797 -0.0010697196481174779 -0.0004418894101806759
1022 0.012147975108480943 -0.0006676183700538768 0.02303276256952269
1420 -0.009355932844156555 0.002874701066517904 -0.0017868804777811634
1097 -0.00355267528452792 -0.018265984491519824 -0.010849348540657593

Bonds

1 3 457 454
2 4 461 457
3 4 462 457
4 3 454 450
5 4 460 457
6 4 458 454
7 6 2154 2152
8 4 573 569
9 4 455 450
10 4 2163 2159
11 4 1774 1771
12 4 2157 2153
13 4 1716 1712
14 4 1191 1187
15 3 2156 2153
16 4 2161 2156
17 4 1185 1181
18 3 1187 1184
19 4 315 310
20 3 569 566
21 5 2153 2152
22 4 572 569
23 4 459 454
24 1 450 449
25 2 451 449
26 2 564 561
27 4 1186 1181
28 3 1181 1178
29 4 2164 2159
30 3 2159 2156
31 4 2273 2268
32 4 321 317
33 3 2162 2159
34 3 2168 2165
35 4 2166 2162
36 3 2165 2162
37 4 2169 2165
38 3 2171 2168
39 4 2167 2162
40 4 2172 2168
41 3 317 314
42 4 322 317
43 4 2170 2165
44 4 2173 2168
45 4 2176 2171
46 4 1216 1212
47 4 1223 1218
48 4 1788 1784
49 4 1197 1193
50 3 1218 1215
51 3 1193 1190
52 4 2175 2171
53 4 1217 1212
54 4 1222 1218
55 4 1794 1790
56 4 1272 1268
57 3 1212 1209
58 3 1215 1212
59 3 1784 1781
60 4 1220 1215
61 4 320 317
62 4 1199 1196
63 3 314 310
64 4 319 314
65 4 1789 1784
66 3 1271 1268
67 3 1787 1784
68 4 1276 1271
69 3 1793 1790
70 3 1796 1793
71 4 1801 1796
72 3 1790 1787
73 4 1800 1796
74 4 1798 1793
75 4 1795 1790
76 4 1799 1796
77 4 1225 1221
78 3 1221 1218
79 4 1226 1221
80 4 1224 1221
81 4 1797 1793
82 3 1040 1037
83 4 1045 1040
84 4 1594 1590
85 3 1268 1265
86 4 1274 1271
87 4 1791 1787
88 4 1273 1268
89 4 1275 1271
90 4 2100 2096
91 4 574 569
92 4 1723 1718
93 3 1718 1715
94 4 570 566
95 3 566 562
96 3 1715 1712
97 4 1719 1715
98 4 1048 1043
99 3 1046 1043
100 4 1049 1046
101 3 1721 1718
102 4 1724 1721
103 4 1725 1721
104 3 1043 1040
105 4 1047 1043
106 4 1726 1721
107 4 2124 2121
108 4 2097 2093
109 4 571 566
110 4 1722 1718
111 3 2093 2090
112 4 1776 1771
113 3 1771 1768
114 4 1770 1765
115 4 1772 1768
116 3 1762 1759
117 4 1775 1771
118 3 1768 1765
119 3 1759 1756
120 4 970 965
121 3 965 962
122 3 1765 1762
123 5 1803 1802
124 3 968 965
125 4 1769 1765
126 4 969 965
127 4 976 971
128 4 1763 1759
129 4 1773 1768
130 3 1806 1803
131 4 1764 1759
132 4 1808 1803
133 4 2208 2203
134 4 1810 1806
135 4 1813 1809
136 3 1809 1806
137 4 1807 1803
138 4 966 962
139 4 1758 1753
140 4 791 786
141 4 1811 1806
142 4 2275 2271
143 3 2271 2268
144 4 1766 1762
145 4 1817 1812
146 3 1812 1809
147 4 1816 1812
148 3 971 968
149 4 974 971
150 4 975 971
151 4 1210 1206
152 4 2272 2268
153 3 2268 2265
154 4 2269 2265
155 4 2270 2265
156 4 964 959
157 4 1213 1209
158 4 2264 2259
159 4 2263 2259
160 4 2267 2262
161 3 2265 2262
162 3 2262 2259
163 4 2266 2262
164 4 2258 2253
165 3 2259 2256
166 3 2256 2253
167 5 2253 2252
168 4 2260 2256
169 6 2254 2252
170 2 185 183
171 3 1209 1206
172 4 2261 2256
173 6 2255 2252
174 4 2257 2253
175 4 1211 1206
176 3 1206 1203
177 4 1214 1209
178 4 175 170
179 2 187 183
180 4 1219 1215
181 6 1955 1952
182 2 243 239
183 6 1755 1752
184 4 1207 1203
185 4 1969 1965
186 4 194 191
187 4 1966 1962
188 4 1975 1971
189 4 193 188
190 4 196 191
191 4 1976 1971
192 4 195 191
193 4 192 188
194 3 188 184
195 3 191 188
196 4 1316 1312
197 3 1971 1968
198 3 1968 1965
199 4 1970 1965
200 4 1972 1968
201 3 1312 1309
202 4 1317 1312
203 3 1965 1962
204 4 1974 1971
205 4 1323 1318
206 4 1589 1584
207 3 1315 1312
208 4 1973 1968
209 4 1325 1321
210 4 1583 1578
211 3 1318 1315
212 4 1319 1315
213 4 1322 1318
214 4 1964 1959
215 4 1588 1584
216 4 1582 1578
217 3 1962 1959
218 4 1320 1315
219 4 2082 2078
220 4 2091 2087
221 4 1824 1821
222 4 1826 1821
223 3 1821 1818
224 4 1825 1821
225 4 1814 1809
226 4 2089 2084
227 4 1820 1815
228 4 2088 2084
229 3 1321 1318
230 4 1326 1321
231 4 1819 1815
232 3 1815 1812
233 3 1818 1815
234 4 2083 2078
235 5 2078 2077
236 4 1823 1818
237 4 1822 1818
238 4 1324 1321
239 4 623 618
240 4 626 622
241 4 1074 1071
242 4 628 625
243 3 625 622
244 3 2084 2081
245 4 629 625
246 3 1071 1068
247 4 1075 1071
248 3 622 618
249 1 618 617
250 4 2095 2090
251 4 2094 2090
252 3 2087 2084
253 3 2081 2078
254 3 2090 2087
255 4 2086 2081
256 6 1804 1802
257 2 396 393
258 4 792 786
259 1 786 785
260 6 1805 1802
261 2 73 71
262 2 75 71
263 2 74 71
264 6 1479 1477
265 2 788 785
266 6 1480 1477
267 2 395 393
268 2 789 785
269 4 80 76
270 5 1478 1477
271 4 1483 1478
272 2 787 785
273 2 397 393
274 4 1482 1478
275 3 76 72
276 1 72 71
277 4 78 72
278 4 81 76
279 4 84 79
280 4 1488 1484
281 4 404 401
282 6 1754 1752
283 6 2205 2202
284 2 747 743
285 6 2204 2202
286 2 425 421
287 2 677 673
288 4 795 790
289 3 790 786
290 4 794 790
291 4 683 678
292 4 797 793
293 4 796 793
294 2 676 673
295 3 793 790
296 4 798 793
297 6 1979 1977
298 3 1984 1981
299 2 675 673
300 4 1983 1978
301 5 1978 1977
302 3 1981 1978
303 4 1985 1981
304 4 1986 1981
305 4 1982 1978
306 4 1989 1984
307 2 186 183
308 6 1980 1977
309 4 679 674
310 4 1991 1987
311 4 1292 1287
312 3 1987 1984
313 4 251 247
314 4 1288 1284
315 4 1992 1987
316 4 1398 1393
317 3 678 674
318 1 674 673
319 4 1395 1390
320 4 682 678
321 4 1299 1296
322 1 184 183
323 4 1314 1309
324 3 1309 1306
325 4 189 184
326 4 1300 1296
327 2 353 351
328 3 1287 1284
329 4 1294 1290
330 4 190 184
331 4 1313 1309
332 3 1296 1293
333 3 1293 1290
334 3 1290 1287
335 3 359 356
336 4 1295 1290
337 4 364 359
338 4 363 359
339 1 352 351
340 4 357 352
341 4 358 352
342 4 362 359
343 3 356 352
344 4 610 604
345 4 361 356
346 4 1407 1403
347 4 278 275
348 4 360 356
349 2 354 351
350 4 1297 1293
351 4 1411 1406
352 4 1301 1296
353 4 1298 1293
354 4 77 72
355 3 79 76
356 4 279 275
357 4 273 268
358 3 275 272
359 6 2079 2077
360 4 624 618
361 4 627 622
362 4 274 268
363 2 619 617
364 2 271 267
365 2 620 617
366 6 930 927
367 2 270 267
368 6 929 927
369 2 269 267
370 3 272 268
371 5 928 927
372 4 932 928
373 4 933 928
374 1 268 267
375 4 276 272
376 4 82 79
377 4 277 272
378 6 1004 1002
379 4 83 79
380 4 630 625
381 4 939 934
382 3 931 928
383 3 934 931
384 4 938 934
385 2 621 617
386 2 423 421
387 3 1184 1181
388 4 1486 1481
389 3 1481 1478
390 4 1189 1184
391 6 2155 2152
392 4 2158 2153
393 3 1493 1490
394 4 1489 1484
395 4 1485 1481
396 3 1487 1484
397 3 1484 1481
398 3 1490 1487
399 4 1492 1487
400 4 1491 1487
401 4 867 862
402 4 1497 1493
403 4 1495 1490
404 4 1494 1490
405 4 866 862
406 3 862 859
407 4 1498 1493
408 3 1496 1493
409 4 1500 1496
410 4 1501 1496
411 4 2001 1996
412 4 1195 1190
413 4 2000 1996
414 4 1499 1496
415 3 1190 1187
416 4 1997 1993
417 4 568 562
418 4 1188 1184
419 4 1194 1190
420 4 1792 1787
421 4 726 723
422 4 1201 1196
423 3 723 720
424 4 1988 1984
425 4 1401 1396
426 4 1125 1121
427 4 2160 2156
428 4 1400 1396
429 3 1996 1993
430 4 1999 1996
431 4 1286 1281
432 4 1200 1196
433 3 1196 1193
434 4 1998 1993
435 4 1283 1278
436 4 1994 1990
437 3 1990 1987
438 4 1995 1990
439 3 1993 1990
440 4 1282 1278
441 4 1124 1121
442 3 1121 1118
443 4 1126 1121
444 5 1278 1277
445 3 1118 1115
446 4 1123 1118
447 4 1122 1118
448 3 1281 1278
449 4 727 723
450 3 1396 1393
451 4 1786 1781
452 5 1403 1402
453 4 613 608
454 4 1291 1287
455 3 1284 1281
456 4 1289 1284
457 4 1285 1281
458 4 224 219
459 4 222 219
460 4 1082 1078
461 4 1408 1403
462 6 1280 1277
463 4 221 216
464 4 609 604
465 6 1279 1277
466 4 218 212
467 2 214 211
468 2 213 211
469 1 212 211
470 4 217 212
471 2 215 211
472 6 1079 1077
473 6 1080 1077
474 2 144 141
475 2 143 141
476 3 219 216
477 3 216 212
478 4 147 142
479 1 142 141
480 5 1078 1077
481 4 220 216
482 1 604 603
483 4 1088 1084
484 2 607 603
485 6 1404 1402
486 4 223 219
487 3 608 604
488 4 612 608
489 4 1051 1046
490 3 2121 2118
491 4 1099 1096
492 4 1098 1093
493 4 1041 1037
494 4 1050 1046
495 4 1083 1078
496 4 2125 2121
497 4 873 868
498 3 868 865
499 4 872 868
500 4 1100 1096
501 3 1084 1081
502 4 1089 1084
503 3 1081 1078
504 4 1086 1081
505 4 874 871
506 3 1096 1093
507 4 1085 1081
508 4 1091 1087
509 4 1094 1090
510 4 1092 1087
511 3 1087 1084
512 3 1090 1087
513 3 871 868
514 3 1093 1090
515 4 876 871
516 4 1095 1090
517 4 875 871
518 4 1101 1096
519 3 865 862
520 4 2126 2121
521 4 476 471
522 4 166 163
523 3 160 156
524 4 456 450
525 4 167 163
526 2 565 561
527 2 453 449
528 6 1855 1852
529 2 452 449
530 2 115 113
531 2 116 113
532 6 1854 1852
533 5 1853 1852
534 4 1857 1853
535 4 1860 1856
536 3 163 160
537 2 117 113
538 6 2130 2127
539 4 1858 1853
540 4 120 114
541 1 114 113
542 4 168 163
543 4 712 709
544 6 2129 2127
545 4 119 114
546 4 164 160
547 4 713 709
548 1 156 155
549 4 2224 2221
550 3 471 468
551 4 2174 2171
552 6 1104 1102
553 4 162 156
554 4 1833 1828
555 4 1836 1831
556 4 2132 2128
557 5 2128 2127
558 4 2133 2128
559 3 2131 2128
560 4 2135 2131
561 4 2136 2131
562 3 2134 2131
563 4 2139 2134
564 4 2138 2134
565 4 2142 2137
566 3 2137 2134
567 3 2140 2137
568 4 2141 2137
569 4 1108 1103
570 5 1103 1102
571 4 1111 1106
572 4 2145 2140
573 4 2144 2140
574 4 1107 1103
575 4 179 174
576 4 1113 1109
577 6 1830 1827
578 4 2147 2143
579 2 158 155
580 3 1106 1103
581 4 161 156
582 3 2143 2140
583 4 2148 2143
584 4 1557 1553
585 4 1835 1831
586 4 153 149
587 4 1595 1590
588 3 1590 1587
589 4 38 34
590 4 152 149
591 4 154 149
592 4 1600 1596
593 4 1591 1587
594 4 1601 1596
595 3 1596 1593
596 3 149 146
597 3 1343 1340
598 4 2151 2146
599 4 2149 2146
600 3 2146 2143
601 4 2150 2146
602 3 373 370
603 4 377 373
604 4 376 373
605 4 378 373
606 4 1350 1346
607 3 1346 1343
608 4 1351 1346
609 4 371 366
610 4 1349 1346
611 4 1344 1340
612 4 1549 1546
613 4 1044 1040
614 4 1348 1343
615 3 1587 1584
616 4 1697 1693
617 3 1593 1590
618 4 1598 1593
619 4 847 843
620 3 1856 1853
621 4 1599 1596
622 4 2226 2221
623 4 1597 1593
624 4 1861 1856
625 4 1863 1859
626 4 1875 1871
627 4 1864 1859
628 3 1871 1868
629 4 1872 1868
630 3 1868 1865
631 4 1873 1868
632 4 1869 1865
633 4 1866 1862
634 3 1859 1856
635 4 1870 1865
636 3 1865 1862
637 4 1867 1862
638 3 1862 1859
639 4 1874 1871
640 3 1696 1693
641 4 1701 1696
642 4 1699 1696
643 3 1693 1690
644 4 2251 2246
645 4 2023 2018
646 4 1700 1696
647 1 562 561
648 4 973 968
649 4 972 968
650 4 1374 1371
651 4 1375 1371
652 3 1371 1368
653 3 962 959
654 4 2207 2203
655 4 714 709
656 3 709 706
657 4 2216 2212
658 5 2203 2202
659 4 1372 1368
660 4 2214 2209
661 4 2247 2243
662 3 2243 2240
663 3 2206 2203
664 3 1368 1365
665 4 967 962
666 4 711 706
667 3 706 702
668 4 710 706
669 4 707 702
670 1 702 701
671 4 708 702
672 3 2209 2206
673 4 1513 1509
674 4 2220 2215
675 4 1376 1371
676 2 704 701
677 2 703 701
678 6 1504 1502
679 4 1508 1503
680 4 1373 1368
681 4 2213 2209
682 3 2212 2209
683 3 2215 2212
684 5 1503 1502
685 3 1506 1503
686 4 2248 2243
687 3 1365 1362
688 3 513 510
689 4 516 513
690 4 514 510
691 4 963 959
692 3 959 956
693 4 2274 2271
694 2 171 169
695 4 2276 2271
696 3 1509 1506
697 4 961 956
698 4 181 177
699 4 1548 1543
700 2 159 155
701 4 176 170
702 1 170 169
703 3 174 170
704 4 180 177
705 3 177 174
706 4 960 956
707 3 956 953
708 4 1514 1509
709 2 705 701
710 4 957 953
711 4 958 953
712 5 953 952
713 2 509 505
714 6 954 952
715 2 508 505
716 6 955 952
717 3 510 506
718 4 515 510
719 4 511 506
720 2 172 169
721 2 173 169
722 1 506 505
723 4 246 240
724 2 507 505
725 4 182 177
726 1 240 239
727 4 245 240
728 4 518 513
729 4 178 174
730 4 512 506
731 4 517 513
732 4 236 233
733 3 1584 1581
734 4 1547 1543
735 4 1311 1306
736 2 242 239
737 6 1605 1602
738 4 1592 1587
739 4 237 233
740 4 1310 1306
741 4 1551 1546
742 6 1579 1577
743 4 1586 1581
744 4 1550 1546
745 4 1585 1581
746 3 1546 1543
747 3 1581 1578
748 4 234 230
749 3 230 226
750 2 227 225
751 4 231 226
752 6 1580 1577
753 2 229 225
754 5 1578 1577
755 1 226 225
756 4 232 226
757 2 228 225
758 4 235 230
759 3 233 230
760 4 238 233
761 3 1543 1540
762 4 1073 1068
763 2 241 239
764 3 1306 1303
765 6 1304 1302
766 4 2249 2246
767 4 1076 1071
768 4 1683 1678
769 3 2221 2218
770 4 2225 2221
771 4 2210 2206
772 4 2222 2218
773 3 2218 2215
774 4 1688 1684
775 4 1686 1681
776 4 2219 2215
777 3 1068 1065
778 3 2246 2243
779 4 1070 1065
780 4 2217 2212
781 4 2250 2246
782 4 1072 1068
783 4 1695 1690
784 4 2223 2218
785 4 1694 1690
786 4 1069 1065
787 3 1065 1062
788 4 1067 1062
789 3 1062 1059
790 4 1064 1059
791 4 1061 1056
792 4 1066 1062
793 3 1059 1056
794 3 1056 1053
795 4 1060 1056
796 3 1690 1687
797 4 1063 1059
798 4 1058 1053
799 5 1053 1052
800 4 1366 1362
801 3 1362 1359
802 4 28 23
803 4 860 856
804 4 2211 2206
805 4 21 16
806 4 1367 1362
807 4 25 20
808 4 750 744
809 2 745 743
810 4 749 744
811 4 756 751
812 1 744 743
813 4 752 748
814 2 746 743
815 3 748 744
816 6 855 852
817 4 753 748
818 3 751 748
819 4 754 751
820 4 755 751
821 4 595 590
822 3 20 16
823 4 263 258
824 3 258 254
825 4 596 590
826 2 19 15
827 4 27 23
828 3 23 20
829 1 16 15
830 4 266 261
831 2 593 589
832 3 261 258
833 6 854 852
834 4 24 20
835 1 254 253
836 1 590 589
837 4 26 23
838 4 1388 1384
839 4 1394 1390
840 4 1516 1512
841 3 1512 1509
842 4 1520 1515
843 4 769 765
844 4 265 261
845 4 1517 1512
846 4 1519 1515
847 4 252 247
848 3 247 244
849 3 244 240
850 4 249 244
851 3 1515 1512
852 4 250 247
853 4 1522 1518
854 4 264 261
855 4 1523 1518
856 3 1518 1515
857 4 1526 1521
858 4 1525 1521
859 4 1524 1521
860 3 1521 1518
861 4 1386 1381
862 3 1381 1378
863 3 765 762
864 4 248 244
865 4 768 765
866 4 770 765
867 4 1383 1378
868 5 1378 1377
869 4 1385 1381
870 3 1384 1381
871 4 1392 1387
872 4 1389 1384
873 3 1387 1384
874 3 1390 1387
875 3 1393 1390
876 4 259 254
877 4 1445 1440
878 2 355 351
879 4 1382 1378
880 4 826 821
881 4 1444 1440
882 3 821 818
883 4 1307 1303
884 5 1303 1302
885 4 824 821
886 6 1379 1377
887 4 1308 1303
888 6 1305 1302
889 4 1436 1431
890 6 1380 1377
891 4 1435 1431
892 3 1431 1428
893 3 611 608
894 5 1428 1427
895 4 1433 1428
896 4 614 611
897 4 947 943
898 4 941 937
899 3 1437 1434
900 3 1434 1431
901 4 616 611
902 4 1442 1437
903 4 1432 1428
904 4 741 737
905 4 935 931
906 3 1446 1443
907 4 1451 1446
908 4 1450 1446
909 3 943 940
910 4 951 946
911 4 948 943
912 4 942 937
913 3 1440 1437
914 4 1447 1443
915 4 949 946
916 3 946 943
917 4 936 931
918 3 1443 1440
919 4 599 594
920 4 950 946
921 4 945 940
922 3 937 934
923 3 940 937
924 3 594 590
925 4 601 597
926 4 1057 1053
927 2 592 589
928 6 1054 1052
929 6 1055 1052
930 4 944 940
931 2 591 589
932 3 597 594
933 4 600 597
934 4 602 597
935 4 598 594
936 4 1448 1443
937 4 2300 2296
938 2 17 15
939 4 861 856
940 2 563 561
941 4 2016 2012
942 4 2017 2012
943 4 262 258
944 4 857 853
945 3 2015 2012
946 3 2012 2009
947 4 2019 2015
948 4 2020 2015
949 4 2010 2006
950 4 864 859
951 5 853 852
952 4 2007 2003
953 4 863 859
954 3 859 856
955 4 2011 2006
956 3 2006 2003
957 4 2014 2009
958 4 2013 2009
959 4 2008 2003
960 3 856 853
961 4 858 853
962 3 118 114
963 3 121 118
964 4 122 118
965 3 2009 2006
966 5 2003 2002
967 4 123 118
968 4 125 121
969 4 126 121
970 4 124 121
971 6 2004 2002
972 3 762 758
973 4 766 762
974 4 97 93
975 4 1119 1115
976 4 1120 1115
977 4 1117 1112
978 4 260 254
979 4 1391 1387
980 2 88 85
981 4 1399 1396
982 3 1109 1106
983 4 98 93
984 4 96 93
985 3 1115 1112
986 4 1110 1106
987 4 1397 1393
988 6 1105 1102
989 3 1112 1109
990 4 94 90
991 4 1114 1109
992 4 1116 1112
993 4 95 90
994 3 90 86
995 3 93 90
996 4 92 86
997 1 86 85
998 4 91 86
999 4 504 499
1000 3 499 496
1001 4 502 499
1002 6 1555 1552
1003 4 497 492
1004 4 503 499
1005 4 501 496
1006 2 89 85
1007 3 496 492
1008 4 767 762
1009 4 148 142
1010 2 145 141
1011 4 615 611
1012 4 1441 1437
1013 4 151 146
1014 3 146 142
1015 4 500 496
1016 3 370 366
1017 4 1038 1034
1018 6 1429 1427
1019 4 372 366
1020 1 366 365
1021 1 492 491
1022 4 498 492
1023 4 375 370
1024 4 1035 1031
1025 4 374 370
1026 2 605 603
1027 4 150 146
1028 4 1439 1434
1029 2 493 491
1030 2 495 491
1031 2 368 365
1032 4 1033 1028
1033 6 1554 1552
1034 3 1034 1031
1035 2 494 491
1036 2 606 603
1037 6 1030 1027
1038 3 1031 1028
1039 4 1032 1028
1040 6 1029 1027
1041 2 369 365
1042 4 1039 1034
1043 5 1028 1027
1044 2 367 365
1045 4 1438 1434
1046 4 2064 2059
1047 4 1932 1928
1048 4 2063 2059
1049 4 869 865
1050 5 1928 1927
1051 4 2074 2071
1052 4 2069 2065
1053 3 2068 2065
1054 3 1037 1034
1055 4 1042 1037
1056 4 1876 1871
1057 4 2025 2021
1058 4 2066 2062
1059 4 870 865
1060 4 2073 2068
1061 4 2061 2056
1062 3 2071 2068
1063 4 2024 2021
1064 3 2062 2059
1065 4 1933 1928
1066 4 2076 2071
1067 3 2056 2053
1068 3 2021 2018
1069 4 2067 2062
1070 4 2072 2068
1071 3 2059 2056
1072 4 567 562
1073 4 2075 2071
1074 4 2026 2021
1075 4 2060 2056
1076 4 1036 1031
1077 3 2018 2015
1078 3 2065 2062
1079 4 2022 2018
1080 4 2070 2065
1081 4 1935 1931
1082 4 1849 1846
1083 3 2040 2037
1084 3 2043 2040
1085 4 2233 2228
1086 3 1846 1843
1087 4 1851 1846
1088 4 2045 2040
1089 4 2044 2040
1090 4 2048 2043
1091 3 2034 2031
1092 3 2037 2034
1093 4 2042 2037
1094 4 165 160
1095 4 2041 2037
1096 4 2033 2028
1097 4 473 468
1098 5 2028 2027
1099 4 2239 2234
1100 4 2039 2034
1101 3 2031 2028
1102 4 2038 2034
1103 4 2036 2031
1104 6 2030 2027
1105 4 474 471
1106 4 2047 2043
1107 4 2051 2046
1108 4 1850 1846
1109 4 1848 1843
1110 5 2228 2227
1111 3 1843 1840
1112 4 2232 2228
1113 4 475 471
1114 4 2245 2240
1115 4 2035 2031
1116 2 157 155
1117 6 2229 2227
1118 4 1847 1843
1119 4 1844 1840
1120 3 1840 1837
1121 4 1845 1840
1122 2 521 519
1123 3 1837 1834
1124 4 1841 1837
1125 4 1838 1834
1126 4 525 520
1127 3 1834 1831
1128 4 1839 1834
1129 1 520 519
1130 2 522 519
1131 4 1572 1568
1132 4 1567 1562
1133 4 532 527
1134 4 1832 1828
1135 4 1569 1565
1136 3 1568 1565
1137 4 1563 1559
1138 3 1565 1562
1139 3 1559 1556
1140 4 526 520
1141 3 527 524
1142 3 524 520
1143 4 531 527
1144 4 530 527
1145 4 529 524
1146 3 1562 1559
1147 4 528 524
1148 4 1842 1837
1149 6 2230 2227
1150 3 1831 1828
1151 4 1570 1565
1152 4 1566 1562
1153 4 1564 1559
1154 5 1828 1827
1155 4 1561 1556
1156 4 1347 1343
1157 3 1334 1331
1158 4 1336 1331
1159 4 1335 1331
1160 3 1331 1328
1161 2 549 547
1162 4 1339 1334
1163 5 1328 1327
1164 1 548 547
1165 4 556 552
1166 4 557 552
1167 3 552 548
1168 4 1332 1328
1169 4 1533 1528
1170 4 1341 1337
1171 4 1338 1334
1172 6 1330 1327
1173 4 35 30
1174 1 30 29
1175 4 553 548
1176 3 1337 1334
1177 4 1538 1534
1178 4 36 30
1179 4 1333 1328
1180 4 1342 1337
1181 4 693 688
1182 2 551 547
1183 6 1329 1327
1184 6 1529 1527
1185 4 1544 1540
1186 4 559 555
1187 3 555 552
1188 3 1340 1337
1189 4 1345 1340
1190 2 32 29
1191 4 554 548
1192 4 1539 1534
1193 4 1558 1553
1194 3 2046 2043
1195 4 2049 2046
1196 3 34 30
1197 2 31 29
1198 4 1641 1637
1199 4 2050 2046
1200 4 851 846
1201 3 846 843
1202 4 844 840
1203 4 558 555
1204 4 560 555
1205 3 843 840
1206 3 837 834
1207 4 1632 1628
1208 5 1628 1627
1209 3 840 837
1210 6 1629 1627
1211 4 1633 1628
1212 4 1636 1631
1213 3 1631 1628
1214 6 1630 1627
1215 3 37 34
1216 4 841 837
1217 4 41 37
1218 4 842 837
1219 4 1635 1631
1220 4 40 37
1221 4 850 846
1222 4 848 843
1223 3 1634 1631
1224 4 849 846
1225 4 845 840
1226 4 836 831
1227 4 42 37
1228 4 39 34
1229 4 1698 1693
1230 3 2234 2231
1231 4 2238 2234
1232 4 2244 2240
1233 3 2240 2237
1234 4 1370 1365
1235 4 2236 2231
1236 3 2231 2228
1237 4 2242 2237
1238 3 2237 2234
1239 4 2235 2231
1240 3 1471 1468
1241 4 203 198
1242 4 1472 1468
1243 4 1476 1471
1244 4 1883 1878
1245 4 445 440
1246 6 1880 1877
1247 4 1474 1471
1248 4 1507 1503
1249 4 204 198
1250 4 1886 1881
1251 4 2241 2237
1252 4 441 436
1253 4 1885 1881
1254 5 1878 1877
1255 4 1511 1506
1256 4 308 303
1257 4 442 436
1258 3 440 436
1259 4 444 440
1260 2 634 631
1261 3 1881 1878
1262 4 1369 1365
1263 3 1468 1465
1264 4 1475 1471
1265 4 1473 1468
1266 6 1829 1827
1267 3 1465 1462
1268 4 1470 1465
1269 4 1469 1465
1270 2 129 127
1271 2 130 127
1272 4 136 132
1273 3 132 128
1274 4 137 132
1275 2 131 127
1276 1 128 127
1277 4 134 128
1278 4 133 128
1279 4 138 135
1280 4 139 135
1281 3 135 132
1282 4 140 135
1283 4 1542 1537
1284 4 1463 1459
1285 4 1536 1531
1286 4 2199 2196
1287 6 1505 1502
1288 4 1510 1506
1289 4 1466 1462
1290 3 1462 1459
1291 5 1528 1527
1292 4 1613 1609
1293 3 1534 1531
1294 4 1608 1603
1295 4 1545 1540
1296 4 1532 1528
1297 4 581 576
1298 4 1611 1606
1299 4 1607 1603
1300 4 1535 1531
1301 4 1541 1537
1302 3 1537 1534
1303 2 578 575
1304 3 1531 1528
1305 5 1603 1602
1306 6 2179 2177
1307 2 577 575
1308 3 1606 1603
1309 4 588 583
1310 3 583 580
1311 4 586 583
1312 3 580 576
1313 4 587 583
1314 2 731 729
1315 2 579 575
1316 6 2180 2177
1317 2 732 729
1318 4 585 580
1319 2 733 729
1320 6 1604 1602
1321 1 576 575
1322 4 2186 2181
1323 4 1610 1606
1324 4 584 580
1325 6 1530 1527
1326 3 1540 1537
1327 3 1609 1606
1328 4 1617 1612
1329 4 1691 1687
1330 3 1687 1684
1331 3 1684 1681
1332 4 1689 1684
1333 4 1685 1681
1334 4 835 831
1335 3 834 831
1336 4 838 834
1337 4 839 834
1338 2 775 771
1339 3 831 828
1340 4 448 443
1341 4 833 828
1342 4 582 576
1343 3 443 440
1344 4 447 443
1345 6 1680 1677
1346 2 773 771
1347 5 828 827
1348 2 438 435
1349 2 774 771
1350 6 830 827
1351 2 439 435
1352 2 437 435
1353 6 1679 1677
1354 1 436 435
1355 4 446 443
1356 6 829 827
1357 1 772 771
1358 4 778 772
1359 2 635 631
1360 4 1692 1687
1361 5 1678 1677
1362 3 1681 1678
1363 4 832 828
1364 2 633 631
1365 4 1682 1678
1366 2 18 15
1367 1 198 197
1368 4 209 205
1369 4 210 205
1370 4 1364 1359
1371 4 208 205
1372 3 205 202
1373 2 648 645
1374 2 649 645
1375 6 1355 1352
1376 5 1353 1352
1377 6 1354 1352
1378 4 1357 1353
1379 3 202 198
1380 2 647 645
1381 4 207 202
1382 4 2289 2284
1383 3 1359 1356
1384 4 1363 1359
1385 2 256 253
1386 1 646 645
1387 4 652 646
1388 4 651 646
1389 4 2291 2287
1390 3 1356 1353
1391 4 1358 1353
1392 4 2292 2287
1393 4 2288 2284
1394 4 206 202
1395 3 2287 2284
1396 3 2284 2281
1397 4 1360 1356
1398 4 926 921
1399 4 925 921
1400 4 22 16
1401 4 2282 2278
1402 4 1361 1356
1403 4 924 921
1404 3 921 918
1405 1 758 757
1406 4 1673 1668
1407 4 1467 1462
1408 4 1461 1456
1409 6 1455 1452
1410 4 1464 1459
1411 4 1457 1453
1412 3 1459 1456
1413 2 816 813
1414 5 1453 1452
1415 4 1460 1456
1416 2 761 757
1417 2 760 757
1418 3 1656 1653
1419 4 1661 1656
1420 3 1456 1453
1421 6 1454 1452
1422 3 1665 1662
1423 4 1458 1453
1424 4 1669 1665
1425 4 1676 1671
1426 4 1660 1656
1427 5 1653 1652
1428 3 918 915
1429 4 923 918
1430 6 1654 1652
1431 4 1657 1653
1432 3 1671 1668
1433 4 1667 1662
1434 3 1659 1656
1435 4 1674 1671
1436 4 922 918
1437 4 763 758
1438 4 825 821
1439 4 1616 1612
1440 3 1612 1609
1441 4 1614 1609
1442 3 737 734
1443 4 1658 1653
1444 4 1619 1615
1445 2 817 813
1446 4 819 814
1447 2 815 813
1448 4 820 814
1449 1 730 729
1450 4 735 730
1451 4 736 730
1452 3 734 730
1453 4 1620 1615
1454 4 543 538
1455 3 538 534
1456 3 541 538
1457 4 545 541
1458 4 544 541
1459 4 546 541
1460 3 1615 1612
1461 1 814 813
1462 4 1239 1234
1463 4 542 538
1464 4 1241 1237
1465 2 537 533
1466 6 1655 1652
1467 3 1618 1615
1468 4 1625 1621
1469 3 1621 1618
1470 4 1624 1621
1471 2 535 533
1472 1 534 533
1473 4 738 734
1474 4 740 737
1475 6 1430 1427
1476 4 742 737
1477 4 823 818
1478 4 822 818
1479 3 818 814
1480 4 739 734
1481 3 1234 1231
1482 3 1237 1234
1483 4 777 772
1484 4 1449 1446
1485 4 1245 1240
1486 5 2278 2277
1487 4 2285 2281
1488 4 1242 1237
1489 4 1238 1234
1490 4 1244 1240
1491 4 2298 2293
1492 4 2297 2293
1493 6 2279 2277
1494 3 2293 2290
1495 4 2294 2290
1496 4 2295 2290
1497 4 1251 1246
1498 3 1240 1237
1499 4 1249 1246
1500 3 2290 2287
1501 4 1248 1243
1502 4 1247 1243
1503 3 1243 1240
1504 3 1246 1243
1505 4 1250 1246
1506 4 2286 2281
1507 3 2281 2278
1508 4 1939 1934
1509 3 2296 2293
1510 4 2299 2296
1511 4 1942 1937
1512 4 1938 1934
1513 4 1738 1734
1514 4 1733 1728
1515 5 1728 1727
1516 4 2301 2296
1517 3 468 464
1518 4 472 468
1519 4 336 331
1520 6 1730 1727
1521 4 330 324
1522 2 340 337
1523 6 2005 2002
1524 4 469 464
1525 4 332 328
1526 1 464 463
1527 6 1930 1927
1528 2 327 323
1529 2 325 323
1530 1 324 323
1531 4 329 324
1532 2 326 323
1533 3 328 324
1534 3 331 328
1535 2 467 463
1536 4 333 328
1537 6 1130 1127
1538 2 466 463
1539 2 465 463
1540 4 334 331
1541 6 1129 1127
1542 3 345 342
1543 4 350 345
1544 5 1128 1127
1545 4 335 331
1546 4 348 345
1547 4 349 345
1548 4 1135 1131
1549 4 1132 1128
1550 4 1133 1128
1551 4 1136 1131
1552 4 343 338
1553 2 255 253
1554 3 342 338
1555 4 2032 2028
1556 3 1131 1128
1557 4 470 464
1558 5 1553 1552
1559 2 759 757
1560 4 764 758
1561 3 1571 1568
1562 4 1575 1571
1563 3 1556 1553
1564 4 919 915
1565 4 1576 1571
1566 2 257 253
1567 4 346 342
1568 1 338 337
1569 4 347 342
1570 4 344 338
1571 4 1157 1153
1572 6 1154 1152
1573 4 1163 1159
1574 5 1153 1152
1575 4 1158 1153
1576 2 339 337
1577 6 1155 1152
1578 3 1156 1153
1579 4 1160 1156
1580 4 1161 1156
1581 3 1159 1156
1582 4 1164 1159
1583 3 1162 1159
1584 4 1167 1162
1585 4 1166 1162
1586 4 290 286
1587 4 913 909
1588 4 914 909
1589 2 341 337
1590 2 87 85
1591 4 1560 1556
1592 4 1574 1571
1593 3 915 912
1594 4 2057 2053
1595 4 1169 1165
1596 2 381 379
1597 4 540 534
1598 4 539 534
1599 3 1165 1162
1600 4 1170 1165
1601 4 694 688
1602 4 1172 1168
1603 2 536 533
1604 4 1173 1168
1605 3 1168 1165
1606 4 1175 1171
1607 4 1176 1171
1608 3 1171 1168
1609 4 1174 1171
1610 4 388 384
1611 3 384 380
1612 4 292 289
1613 2 33 29
1614 4 391 387
1615 3 387 384
1616 6 2055 2052
1617 1 688 687
1618 6 2054 2052
1619 4 386 380
1620 4 390 387
1621 4 1638 1634
1622 4 1948 1943
1623 6 1929 1927
1624 4 1949 1946
1625 5 2053 2052
1626 4 1944 1940
1627 4 1951 1946
1628 4 1950 1946
1629 3 1946 1943
1630 6 1729 1727
1631 4 2058 2053
1632 3 1934 1931
1633 3 1937 1934
1634 2 411 407
1635 4 418 415
1636 3 1940 1937
1637 4 419 415
1638 2 409 407
1639 4 1947 1943
1640 4 1941 1937
1641 4 417 412
1642 2 410 407
1643 4 1945 1940
1644 4 416 412
1645 3 1943 1940
1646 3 1931 1928
1647 4 1936 1931
1648 4 420 415
1649 3 415 412
1650 3 412 408
1651 1 408 407
1652 4 414 408
1653 4 413 408
1654 4 700 695
1655 4 698 695
1656 3 695 692
1657 4 1735 1731
1658 4 699 695
1659 3 1731 1728
1660 4 1642 1637
1661 4 1717 1712
1662 4 67 62
1663 4 66 62
1664 3 1709 1706
1665 4 1713 1709
1666 4 70 65
1667 3 62 58
1668 6 1180 1177
1669 3 65 62
1670 4 68 65
1671 1 58 57
1672 4 69 65
1673 4 64 58
1674 4 63 58
1675 2 59 57
1676 4 1711 1706
1677 2 60 57
1678 6 1179 1177
1679 5 1178 1177
1680 4 1183 1178
1681 3 1706 1703
1682 4 1647 1643
1683 2 311 309
1684 2 312 309
1685 4 1710 1706
1686 2 61 57
1687 4 1895 1890
1688 4 1182 1178
1689 4 1192 1187
1690 4 1891 1887
1691 6 1704 1702
1692 3 1712 1709
1693 4 1714 1709
1694 4 1573 1568
1695 2 523 519
1696 6 2029 2027
1697 4 665 660
1698 4 316 310
1699 4 1267 1262
1700 1 310 309
1701 4 318 314
1702 4 1783 1778
1703 5 1778 1777
1704 2 663 659
1705 2 662 659
1706 2 661 659
1707 6 1254 1252
1708 3 1259 1256
1709 4 1258 1253
1710 5 1253 1252
1711 3 1256 1253
1712 4 1260 1256
1713 3 1262 1259
1714 4 1261 1256
1715 4 666 660
1716 1 660 659
1717 2 313 309
1718 6 1255 1252
1719 4 1264 1259
1720 4 1266 1262
1721 6 1780 1777
1722 4 1782 1778
1723 4 1263 1259
1724 4 1257 1253
1725 3 1781 1778
1726 4 999 996
1727 3 996 993
1728 4 994 990
1729 4 1198 1193
1730 4 293 289
1731 4 1001 996
1732 4 1000 996
1733 4 998 993
1734 4 997 993
1735 2 691 687
1736 4 995 990
1737 3 990 987
1738 3 993 990
1739 3 1265 1262
1740 4 1270 1265
1741 2 550 547
1742 2 690 687
1743 4 988 984
1744 6 979 977
1745 4 989 984
1746 4 991 987
1747 3 987 984
1748 3 984 981
1749 3 981 978
1750 4 986 981
1751 4 985 981
1752 5 978 977
1753 2 5 1
1754 6 980 977
1755 4 983 978
1756 4 982 978
1757 2 3 1
1758 4 10 6
1759 4 1269 1265
1760 3 2096 2093
1761 4 2099 2096
1762 2 4 1
1763 4 992 987
1764 4 1639 1634
1765 4 2098 2093
1766 4 1649 1646
1767 4 1720 1715
1768 4 1899 1896
1769 2 102 99
1770 3 1640 1637
1771 2 103 99
1772 4 108 104
1773 4 109 104
1774 4 111 107
1775 4 112 107
1776 4 110 107
1777 4 106 100
1778 3 104 100
1779 1 100 99
1780 4 105 100
1781 2 101 99
1782 3 107 104
1783 4 1645 1640
1784 6 880 877
1785 4 1901 1896
1786 4 1897 1893
1787 3 1893 1890
1788 3 1896 1893
1789 4 697 692
1790 4 490 485
1791 4 1889 1884
1792 5 1703 1702
1793 4 1707 1703
1794 4 1882 1878
1795 2 200 197
1796 6 1879 1877
1797 2 480 477
1798 4 484 478
1799 2 479 477
1800 1 478 477
1801 6 1705 1702
1802 4 483 478
1803 2 481 477
1804 4 486 482
1805 3 482 478
1806 4 305 300
1807 4 487 482
1808 6 1904 1902
1809 4 1708 1703
1810 3 1884 1881
1811 4 1888 1884
1812 3 485 482
1813 4 488 485
1814 4 304 300
1815 3 300 296
1816 2 298 295
1817 4 307 303
1818 3 303 300
1819 3 1756 1753
1820 5 1753 1752
1821 3 1887 1884
1822 4 489 485
1823 4 1894 1890
1824 4 637 632
1825 4 1892 1887
1826 4 1761 1756
1827 4 1767 1762
1828 4 1757 1753
1829 5 1203 1202
1830 4 306 303
1831 4 2201 2196
1832 4 302 296
1833 2 45 43
1834 4 2200 2196
1835 3 2196 2193
1836 4 2194 2190
1837 1 296 295
1838 4 2197 2193
1839 3 2193 2190
1840 2 46 43
1841 2 297 295
1842 2 299 295
1843 4 301 296
1844 6 1205 1202
1845 6 1204 1202
1846 4 53 48
1847 3 48 44
1848 2 47 43
1849 4 50 44
1850 1 44 43
1851 4 2198 2193
1852 4 1208 1203
1853 4 52 48
1854 4 1961 1956
1855 4 54 51
1856 4 1760 1756
1857 3 51 48
1858 6 1954 1952
1859 4 55 51
1860 4 2192 2187
1861 4 1963 1959
1862 4 1957 1953
1863 4 2101 2096
1864 4 11 6
1865 4 1967 1962
1866 3 6 2
1867 3 2190 2187
1868 4 2195 2190
1869 3 2181 2178
1870 4 2185 2181
1871 3 1956 1953
1872 4 2182 2178
1873 4 14 9
1874 5 1953 1952
1875 5 2178 2177
1876 1 2 1
1877 4 8 2
1878 4 7 2
1879 4 2191 2187
1880 3 2187 2184
1881 4 2188 2184
1882 4 2183 2178
1883 3 2184 2181
1884 4 2189 2184
1885 4 12 9
1886 4 13 9
1887 3 9 6
1888 4 1960 1956
1889 3 893 890
1890 4 895 890
1891 3 890 887
1892 4 894 890
1893 4 891 887
1894 4 900 896
1895 3 1959 1956
1896 4 897 893
1897 3 896 893
1898 4 1958 1953
1899 4 901 896
1900 4 899 896
1901 4 898 893
1902 4 1900 1896
1903 4 1898 1893
1904 3 1890 1887
1905 4 2092 2087
1906 4 889 884
1907 6 879 877
1908 3 887 884
1909 3 776 772
1910 4 780 776
1911 3 884 881
1912 4 781 776
1913 4 2085 2081
1914 4 883 878
1915 4 888 884
1916 4 885 881
1917 4 640 636
1918 4 643 639
1919 4 892 887
1920 4 886 881
1921 4 638 632
1922 4 882 878
1923 5 878 877
1924 1 632 631
1925 4 641 636
1926 3 636 632
1927 4 644 639
1928 4 642 639
1929 3 881 878
1930 3 639 636
1931 6 2080 2077
1932 4 400 394
1933 4 406 401
1934 2 201 197
1935 2 199 197
1936 4 402 398
1937 3 398 394
1938 4 654 650
1939 3 650 646
1940 6 1905 1902
1941 4 399 394
1942 4 658 653
1943 4 655 650
1944 3 653 650
1945 4 656 653
1946 4 430 426
1947 4 403 398
1948 3 1906 1903
1949 4 1911 1906
1950 4 434 429
1951 3 429 426
1952 4 433 429
1953 4 657 653
1954 3 426 422
1955 5 1903 1902
1956 4 431 426
1957 4 1010 1006
1958 4 1910 1906
1959 6 2280 2277
1960 4 1908 1903
1961 4 1916 1912
1962 3 1006 1003
1963 3 401 398
1964 4 432 429
1965 1 394 393
1966 4 1011 1006
1967 6 1005 1002
1968 4 405 401
1969 3 1668 1665
1970 3 1662 1659
1971 4 684 681
1972 4 1917 1912
1973 4 1907 1903
1974 3 1912 1909
1975 4 1663 1659
1976 4 1670 1665
1977 4 1675 1671
1978 4 685 681
1979 4 56 51
1980 4 1666 1662
1981 4 1664 1659
1982 4 686 681
1983 4 49 44
1984 4 1672 1668
1985 4 680 674
1986 4 1913 1909
1987 3 1909 1906
1988 4 1914 1909
1989 4 1920 1915
1990 3 1915 1912
1991 4 1919 1915
1992 3 681 678
1993 4 1623 1618
1994 4 1235 1231
1995 4 808 804
1996 4 810 807
1997 4 811 807
1998 3 807 804
1999 4 812 807
2000 3 804 800
2001 4 1622 1618
2002 4 809 804
2003 3 1231 1228
2004 3 1406 1403
2005 6 1230 1227
2006 4 1626 1621
2007 4 805 800
2008 1 800 799
2009 4 806 800
2010 5 1228 1227
2011 4 1232 1228
2012 4 1410 1406
2013 2 803 799
2014 6 1229 1227
2015 2 382 379
2016 4 1236 1231
2017 4 784 779
2018 4 428 422
2019 1 422 421
2020 4 1233 1228
2021 4 1416 1412
2022 3 1412 1409
2023 4 2283 2278
2024 4 783 779
2025 4 1739 1734
2026 3 1734 1731
2027 5 1003 1002
2028 4 1417 1412
2029 4 1008 1003
2030 4 782 779
2031 3 779 776
2032 4 1741 1737
2033 4 427 422
2034 4 1751 1746
2035 4 1750 1746
2036 4 1749 1746
2037 3 1746 1743
2038 4 1747 1743
2039 4 1748 1743
2040 3 1743 1740
2041 3 1737 1734
2042 4 1745 1740
2043 3 1740 1737
2044 4 1744 1740
2045 4 1742 1737
2046 4 1014 1009
2047 4 1732 1728
2048 4 1007 1003
2049 2 424 421
2050 4 280 275
2051 4 1651 1646
2052 4 1151 1146
2053 4 1150 1146
2054 4 1149 1146
2055 3 1012 1009
2056 4 1139 1134
2057 4 1142 1137
2058 4 1138 1134
2059 4 1141 1137
2060 4 1145 1140
2061 3 1134 1131
2062 3 1137 1134
2063 3 1140 1137
2064 4 1147 1143
2065 3 1143 1140
2066 4 1017 1012
2067 4 1148 1143
2068 3 1146 1143
2069 4 1144 1140
2070 4 1016 1012
2071 4 670 667
2072 4 1020 1015
2073 4 1019 1015
2074 3 1015 1012
2075 4 1922 1918
2076 4 672 667
2077 3 667 664
2078 4 724 720
2079 4 908 903
2080 3 1918 1915
2081 4 920 915
2082 4 728 723
2083 4 1785 1781
2084 4 1925 1921
2085 4 917 912
2086 4 1923 1918
2087 4 287 282
2088 6 1779 1777
2089 4 907 903
2090 4 1926 1921
2091 4 916 912
2092 3 912 909
2093 3 720 716
2094 4 911 906
2095 3 909 906
2096 3 906 903
2097 4 671 667
2098 4 910 906
2099 3 1921 1918
2100 3 664 660
2101 4 669 664
2102 4 288 282
2103 4 1924 1921
2104 4 668 664
2105 5 903 902
2106 1 282 281
2107 2 284 281
2108 2 285 281
2109 4 725 720
2110 4 721 716
2111 3 286 282
2112 4 392 387
2113 4 389 384
2114 3 289 286
2115 2 802 799
2116 2 801 799
2117 4 291 286
2118 4 722 716
2119 6 905 902
2120 6 904 902
2121 1 716 715
2122 4 1413 1409
2123 1 380 379
2124 3 1409 1406
2125 4 2111 2106
2126 4 294 289
2127 4 2113 2109
2128 6 1405 1402
2129 5 2103 2102
2130 4 2114 2109
2131 4 2110 2106
2132 4 2108 2103
2133 3 2109 2106
2134 2 383 379
2135 2 718 715
2136 3 2106 2103
2137 4 1414 1409
2138 4 2107 2103
2139 4 385 380
2140 2 717 715
2141 6 2104 2102
2142 6 2105 2102
2143 2 719 715
2144 2 689 687
2145 2 283 281
2146 4 1736 1731
2147 3 1637 1634
2148 3 1018 1015
2149 4 2120 2115
2150 3 2118 2115
2151 3 1009 1006
2152 3 692 688
2153 3 1643 1640
2154 3 1646 1643
2155 4 1648 1643
2156 4 2123 2118
2157 3 1021 1018
2158 4 1650 1646
2159 4 1644 1640
2160 4 1424 1421
2161 3 1421 1418
2162 4 2122 2118
2163 4 1023 1018
2164 4 2119 2115
2165 4 1024 1021
2166 4 1026 1021
2167 4 1425 1421
2168 4 696 692
2169 4 1422 1418
2170 4 2116 2112
2171 3 2115 2112
2172 4 1025 1021
2173 4 1426 1421
2174 3 1418 1415
2175 4 1423 1418
2176 4 1013 1009
2177 4 2117 2112
2178 3 2112 2109
2179 4 1419 1415
2180 3 1415 1412
2181 4 1022 1018
2182 4 1420 1415
2183 4 1097 1093

Angles

1 5 454 457 460
2 5 454 457 461
3 5 454 457 462
4 6 460 457 461
5 6 460 457 462
6 6 461 457 462
7 7 450 454 457
8 5 450 454 458
9 5 450 454 459
10 5 457 454 458
11 5 457 454 459
12 6 458 454 459
13 8 2153 2152 2154
14 8 2153 2152 2155
15 9 2154 2152 2155
16 7 2153 2156 2159
17 5 2153 2156 2160
18 5 2153 2156 2161
19 5 2159 2156 2160
20 5 2159 2156 2161
21 6 2160 2156 2161
22 7 1184 1187 1190
23 5 1184 1187 1191
24 5 1184 1187 1192
25 5 1190 1187 1191
26 5 1190 1187 1192
27 6 1191 1187 1192
28 5 566 569 572
29 5 566 569 573
30 5 566 569 574
31 6 572 569 573
32 6 572 569 574
33 6 573 569 574
34 10 2152 2153 2156
35 11 2152 2153 2157
36 11 2152 2153 2158
37 5 2156 2153 2157
38 5 2156 2153 2158
39 6 2157 2153 2158
40 3 449 450 454
41 4 449 450 455
42 4 449 450 456
43 5 454 450 455
44 5 454 450 456
45 6 455 450 456
46 7 1178 1181 1184
47 5 1178 1181 1185
48 5 1178 1181 1186
49 5 1184 1181 1185
50 5 1184 1181 1186
51 6 1185 1181 1186
52 7 2156 2159 2162
53 5 2156 2159 2163
54 5 2156 2159 2164
55 5 2162 2159 2163
56 5 2162 2159 2164
57 6 2163 2159 2164
58 7 2159 2162 2165
59 5 2159 2162 2166
60 5 2159 2162 2167
61 5 2165 2162 2166
62 5 2165 2162 2167
63 6 2166 2162 2167
64 7 2165 2168 2171
65 5 2165 2168 2172
66 5 2165 2168 2173
67 5 2171 2168 2172
68 5 2171 2168 2173
69 6 2172 2168 2173
70 7 2162 2165 2168
71 5 2162 2165 2169
72 5 2162 2165 2170
73 5 2168 2165 2169
74 5 2168 2165 2170
75 6 2169 2165 2170
76 5 2168 2171 2174
77 5 2168 2171 2175
78 5 2168 2171 2176
79 6 2174 2171 2175
80 6 2174 2171 2176
81 6 2175 2171 2176
82 5 314 317 320
83 5 314 317 321
84 5 314 317 322
85 6 320 317 321
86 6 320 317 322
87 6 321 317 322
88 7 1215 1218 1221
89 5 1215 1218 1222
90 5 1215 1218 1223
91 5 1221 1218 1222
92 5 1221 1218 1223
93 6 1222 1218 1223
94 7 1190 1193 1196
95 5 1190 1193 1197
96 5 1190 1193 1198
97 5 1196 1193 1197
98 5 1196 1193 1198
99 6 1197 1193 1198
100 7 1209 1212 1215
101 5 1209 1212 1216
102 5 1209 1212 1217
103 5 1215 1212 1216
104 5 1215 1212 1217
105 6 1216 1212 1217
106 7 1212 1215 1218
107 5 1212 1215 1219
108 5 1212 1215 1220
109 5 1218 1215 1219
110 5 1218 1215 1220
111 6 1219 1215 1220
112 7 1781 1784 1787
113 5 1781 1784 1788
114 5 1781 1784 1789
115 5 1787 1784 1788
116 5 1787 1784 1789
117 6 1788 1784 1789
118 7 310 314 317
119 5 310 314 318
120 5 310 314 319
121 5 317 314 318
122 5 317 314 319
123 6 318 314 319
124 5 1268 1271 1274
125 5 1268 1271 1275
126 5 1268 1271 1276
127 6 1274 1271 1275
128 6 1274 1271 1276
129 6 1275 1271 1276
130 7 1784 1787 1790
131 5 1784 1787 1791
132 5 1784 1787 1792
133 5 1790 1787 1791
134 5 1790 1787 1792
135 6 1791 1787 1792
136 7 1790 1793 1796
137 5 1790 1793 1797
138 5 1790 1793 1798
139 5 1796 1793 1797
140 5 1796 1793 1798
141 6 1797 1793 1798
142 5 1793 1796 1799
143 5 1793 1796 1800
144 5 1793 1796 1801
145 6 1799 1796 1800
146 6 1799 1796 1801
147 6 1800 1796 1801
148 7 1787 1790 1793
149 5 1787 1790 1794
150 5 1787 1790 1795
151 5 1793 1790 1794
152 5 1793 1790 1795
153 6 1794 1790 1795
154 5 1218 1221 1224
155 5 1218 1221 1225
156 5 1218 1221 1226
157 6 1224 1221 1225
158 6 1224 1221 1226
159 6 1225 1221 1226
160 7 1037 1040 1043
161 5 1037 1040 1044
162 5 1037 1040 1045
163 5 1043 1040 1044
164 5 1043 1040 1045
165 6 1044 1040 1045
166 7 1265 1268 1271
167 5 1265 1268 1272
168 5 1265 1268 1273
169 5 1271 1268 1272
170 5 1271 1268 1273
171 6 1272 1268 1273
172 7 1715 1718 1721
173 5 1715 1718 1722
174 5 1715 1718 1723
175 5 1721 1718 1722
176 5 1721 1718 1723
177 6 1722 1718 1723
178 7 562 566 569
179 5 562 566 570
180 5 562 566 571
181 5 569 566 570
182 5 569 566 571
183 6 570 566 571
184 7 1712 1715 1718
185 5 1712 1715 1719
186 5 1712 1715 1720
187 5 1718 1715 1719
188 5 1718 1715 1720
189 6 1719 1715 1720
190 5 1043 1046 1049
191 5 1043 1046 1050
192 5 1043 1046 1051
193 6 1049 1046 1050
194 6 1049 1046 1051
195 6 1050 1046 1051
196 5 1718 1721 1724
197 5 1718 1721 1725
198 5 1718 1721 1726
199 6 1724 1721 1725
200 6 1724 1721 1726
201 6 1725 1721 1726
202 7 1040 1043 1046
203 5 1040 1043 1047
204 5 1040 1043 1048
205 5 1046 1043 1047
206 5 1046 1043 1048
207 6 1047 1043 1048
208 7 2090 2093 2096
209 5 2090 2093 2097
210 5 2090 2093 2098
211 5 2096 2093 2097
212 5 2096 2093 2098
213 6 2097 2093 2098
214 5 1768 1771 1774
215 5 1768 1771 1775
216 5 1768 1771 1776
217 6 1774 1771 1775
218 6 1774 1771 1776
219 6 1775 1771 1776
220 7 1759 1762 1765
221 5 1759 1762 1766
222 5 1759 1762 1767
223 5 1765 1762 1766
224 5 1765 1762 1767
225 6 1766 1762 1767
226 7 1765 1768 1771
227 5 1765 1768 1772
228 5 1765 1768 1773
229 5 1771 1768 1772
230 5 1771 1768 1773
231 6 1772 1768 1773
232 7 1756 1759 1762
233 5 1756 1759 1763
234 5 1756 1759 1764
235 5 1762 1759 1763
236 5 1762 1759 1764
237 6 1763 1759 1764
238 7 962 965 968
239 5 962 965 969
240 5 962 965 970
241 5 968 965 969
242 5 968 965 970
243 6 969 965 970
244 7 1762 1765 1768
245 5 1762 1765 1769
246 5 1762 1765 1770
247 5 1768 1765 1769
248 5 1768 1765 1770
249 6 1769 1765 1770
250 10 1802 1803 1806
251 11 1802 1803 1807
252 11 1802 1803 1808
253 5 1806 1803 1807
254 5 1806 1803 1808
255 6 1807 1803 1808
256 7 965 968 971
257 5 965 968 972
258 5 965 968 973
259 5 971 968 972
260 5 971 968 973
261 6 972 968 973
262 7 1803 1806 1809
263 5 1803 1806 1810
264 5 1803 1806 1811
265 5 1809 1806 1810
266 5 1809 1806 1811
267 6 1810 1806 1811
268 7 1806 1809 1812
269 5 1806 1809 1813
270 5 1806 1809 1814
271 5 1812 1809 1813
272 5 1812 1809 1814
273 6 1813 1809 1814
274 5 2268 2271 2274
275 5 2268 2271 2275
276 5 2268 2271 2276
277 6 2274 2271 2275
278 6 2274 2271 2276
279 6 2275 2271 2276
280 7 1809 1812 1815
281 5 1809 1812 1816
282 5 1809 1812 1817
283 5 1815 1812 1816
284 5 1815 1812 1817
285 6 1816 1812 1817
286 5 968 971 974
287 5 968 971 975
288 5 968 971 976
289 6 974 971 975
290 6 974 971 976
291 6 975 971 976
292 7 2265 2268 2271
293 5 2265 2268 2272
294 5 2265 2268 2273
295 5 2271 2268 2272
296 5 2271 2268 2273
297 6 2272 2268 2273
298 7 2262 2265 2268
299 5 2262 2265 2269
300 5 2262 2265 2270
301 5 2268 2265 2269
302 5 2268 2265 2270
303 6 2269 2265 2270
304 7 2259 2262 2265
305 5 2259 2262 2266
306 5 2259 2262 2267
307 5 2265 2262 2266
308 5 2265 2262 2267
309 6 2266 2262 2267
310 7 2256 2259 2262
311 5 2256 2259 2263
312 5 2256 2259 2264
313 5 2262 2259 2263
314 5 2262 2259 2264
315 6 2263 2259 2264
316 7 2253 2256 2259
317 5 2253 2256 2260
318 5 2253 2256 2261
319 5 2259 2256 2260
320 5 2259 2256 2261
321 6 2260 2256 2261
322 10 2252 2253 2256
323 11 2252 2253 2257
324 11 2252 2253 2258
325 5 2256 2253 2257
326 5 2256 2253 2258
327 6 2257 2253 2258
328 8 2253 2252 2254
329 8 2253 2252 2255
330 9 2254 2252 2255
331 7 1206 1209 1212
332 5 1206 1209 1213
333 5 1206 1209 1214
334 5 1212 1209 1213
335 5 1212 1209 1214
336 6 1213 1209 1214
337 7 1203 1206 1209
338 5 1203 1206 1210
339 5 1203 1206 1211
340 5 1209 1206 1210
341 5 1209 1206 1211
342 6 1210 1206 1211
343 7 184 188 191
344 5 184 188 192
345 5 184 188 193
346 5 191 188 192
347 5 191 188 193
348 6 192 188 193
349 5 188 191 194
350 5 188 191 195
351 5 188 191 196
352 6 194 191 195
353 6 194 191 196
354 6 195 191 196
355 5 1968 1971 1974
356 5 1968 1971 1975
357 5 1968 1971 1976
358 6 1974 1971 1975
359 6 1974 1971 1976
360 6 1975 1971 1976
361 7 1965 1968 1971
362 5 1965 1968 1972
363 5 1965 1968 1973
364 5 1971 1968 1972
365 5 1971 1968 1973
366 6 1972 1968 1973
367 7 1309 1312 1315
368 5 1309 1312 1316
369 5 1309 1312 1317
370 5 1315 1312 1316
371 5 1315 1312 1317
372 6 1316 1312 1317
373 7 1962 1965 1968
374 5 1962 1965 1969
375 5 1962 1965 1970
376 5 1968 1965 1969
377 5 1968 1965 1970
378 6 1969 1965 1970
379 7 1312 1315 1318
380 5 1312 1315 1319
381 5 1312 1315 1320
382 5 1318 1315 1319
383 5 1318 1315 1320
384 6 1319 1315 1320
385 7 1315 1318 1321
386 5 1315 1318 1322
387 5 1315 1318 1323
388 5 1321 1318 1322
389 5 1321 1318 1323
390 6 1322 1318 1323
391 7 1959 1962 1965
392 5 1959 1962 1966
393 5 1959 1962 1967
394 5 1965 1962 1966
395 5 1965 1962 1967
396 6 1966 1962 1967
397 5 1818 1821 1824
398 5 1818 1821 1825
399 5 1818 1821 1826
400 6 1824 1821 1825
401 6 1824 1821 1826
402 6 1825 1821 1826
403 5 1318 1321 1324
404 5 1318 1321 1325
405 5 1318 1321 1326
406 6 1324 1321 1325
407 6 1324 1321 1326
408 6 1325 1321 1326
409 7 1812 1815 1818
410 5 1812 1815 1819
411 5 1812 1815 1820
412 5 1818 1815 1819
413 5 1818 1815 1820
414 6 1819 1815 1820
415 7 1815 1818 1821
416 5 1815 1818 1822
417 5 1815 1818 1823
418 5 1821 1818 1822
419 5 1821 1818 1823
420 6 1822 1818 1823
421 10 2077 2078 2081
422 11 2077 2078 2082
423 11 2077 2078 2083
424 5 2081 2078 2082
425 5 2081 2078 2083
426 6 2082 2078 2083
427 8 2078 2077 2079
428 8 2078 2077 2080
429 9 2079 2077 2080
430 5 622 625 628
431 5 622 625 629
432 5 622 625 630
433 6 628 625 629
434 6 628 625 630
435 6 629 625 630
436 7 2081 2084 2087
437 5 2081 2084 2088
438 5 2081 2084 2089
439 5 2087 2084 2088
440 5 2087 2084 2089
441 6 2088 2084 2089
442 5 1068 1071 1074
443 5 1068 1071 1075
444 5 1068 1071 1076
445 6 1074 1071 1075
446 6 1074 1071 1076
447 6 1075 1071 1076
448 7 618 622 625
449 5 618 622 626
450 5 618 622 627
451 5 625 622 626
452 5 625 622 627
453 6 626 622 627
454 3 617 618 622
455 4 617 618 623
456 4 617 618 624
457 5 622 618 623
458 5 622 618 624
459 6 623 618 624
460 7 2084 2087 2090
461 5 2084 2087 2091
462 5 2084 2087 2092
463 5 2090 2087 2091
464 5 2090 2087 2092
465 6 2091 2087 2092
466 7 2078 2081 2084
467 5 2078 2081 2085
468 5 2078 2081 2086
469 5 2084 2081 2085
470 5 2084 2081 2086
471 6 2085 2081 2086
472 7 2087 2090 2093
473 5 2087 2090 2094
474 5 2087 2090 2095
475 5 2093 2090 2094
476 5 2093 2090 2095
477 6 2094 2090 2095
478 3 785 786 790
479 4 785 786 791
480 4 785 786 792
481 5 790 786 791
482 5 790 786 792
483 6 791 786 792
484 1 394 393 395
485 1 394 393 396
486 1 394 393 397
487 2 395 393 396
488 2 395 393 397
489 2 396 393 397
490 8 1803 1802 1804
491 8 1803 1802 1805
492 9 1804 1802 1805
493 1 72 71 73
494 1 72 71 74
495 1 72 71 75
496 2 73 71 74
497 2 73 71 75
498 2 74 71 75
499 8 1478 1477 1479
500 8 1478 1477 1480
501 9 1479 1477 1480
502 1 786 785 787
503 1 786 785 788
504 1 786 785 789
505 2 787 785 788
506 2 787 785 789
507 2 788 785 789
508 10 1477 1478 1481
509 11 1477 1478 1482
510 11 1477 1478 1483
511 5 1481 1478 1482
512 5 1481 1478 1483
513 6 1482 1478 1483
514 7 72 76 79
515 5 72 76 80
516 5 72 76 81
517 5 79 76 80
518 5 79 76 81
519 6 80 76 81
520 3 71 72 76
521 4 71 72 77
522 4 71 72 78
523 5 76 72 77
524 5 76 72 78
525 6 77 72 78
526 8 2203 2202 2204
527 8 2203 2202 2205
528 9 2204 2202 2205
529 8 1753 1752 1754
530 8 1753 1752 1755
531 9 1754 1752 1755
532 7 786 790 793
533 5 786 790 794
534 5 786 790 795
535 5 793 790 794
536 5 793 790 795
537 6 794 790 795
538 1 184 183 185
539 1 184 183 186
540 1 184 183 187
541 2 185 183 186
542 2 185 183 187
543 2 186 183 187
544 5 790 793 796
545 5 790 793 797
546 5 790 793 798
547 6 796 793 797
548 6 796 793 798
549 6 797 793 798
550 7 1981 1984 1987
551 5 1981 1984 1988
552 5 1981 1984 1989
553 5 1987 1984 1988
554 5 1987 1984 1989
555 6 1988 1984 1989
556 8 1978 1977 1979
557 8 1978 1977 1980
558 9 1979 1977 1980
559 1 674 673 675
560 1 674 673 676
561 1 674 673 677
562 2 675 673 676
563 2 675 673 677
564 2 676 673 677
565 10 1977 1978 1981
566 11 1977 1978 1982
567 11 1977 1978 1983
568 5 1981 1978 1982
569 5 1981 1978 1983
570 6 1982 1978 1983
571 7 1978 1981 1984
572 5 1978 1981 1985
573 5 1978 1981 1986
574 5 1984 1981 1985
575 5 1984 1981 1986
576 6 1985 1981 1986
577 7 1984 1987 1990
578 5 1984 1987 1991
579 5 1984 1987 1992
580 5 1990 1987 1991
581 5 1990 1987 1992
582 6 1991 1987 1992
583 7 674 678 681
584 5 674 678 682
585 5 674 678 683
586 5 681 678 682
587 5 681 678 683
588 6 682 678 683
589 3 673 674 678
590 4 673 674 679
591 4 673 674 680
592 5 678 674 679
593 5 678 674 680
594 6 679 674 680
595 3 183 184 188
596 4 183 184 189
597 4 183 184 190
598 5 188 184 189
599 5 188 184 190
600 6 189 184 190
601 7 1306 1309 1312
602 5 1306 1309 1313
603 5 1306 1309 1314
604 5 1312 1309 1313
605 5 1312 1309 1314
606 6 1313 1309 1314
607 7 1284 1287 1290
608 5 1284 1287 1291
609 5 1284 1287 1292
610 5 1290 1287 1291
611 5 1290 1287 1292
612 6 1291 1287 1292
613 5 1293 1296 1299
614 5 1293 1296 1300
615 5 1293 1296 1301
616 6 1299 1296 1300
617 6 1299 1296 1301
618 6 1300 1296 1301
619 7 1290 1293 1296
620 5 1290 1293 1297
621 5 1290 1293 1298
622 5 1296 1293 1297
623 5 1296 1293 1298
624 6 1297 1293 1298
625 7 1287 1290 1293
626 5 1287 1290 1294
627 5 1287 1290 1295
628 5 1293 1290 1294
629 5 1293 1290 1295
630 6 1294 1290 1295
631 5 356 359 362
632 5 356 359 363
633 5 356 359 364
634 6 362 359 363
635 6 362 359 364
636 6 363 359 364
637 3 351 352 356
638 4 351 352 357
639 4 351 352 358
640 5 356 352 357
641 5 356 352 358
642 6 357 352 358
643 1 352 351 353
644 1 352 351 354
645 1 352 351 355
646 2 353 351 354
647 2 353 351 355
648 2 354 351 355
649 7 352 356 359
650 5 352 356 360
651 5 352 356 361
652 5 359 356 360
653 5 359 356 361
654 6 360 356 361
655 5 76 79 82
656 5 76 79 83
657 5 76 79 84
658 6 82 79 83
659 6 82 79 84
660 6 83 79 84
661 5 272 275 278
662 5 272 275 279
663 5 272 275 280
664 6 278 275 279
665 6 278 275 280
666 6 279 275 280
667 1 618 617 619
668 1 618 617 620
669 1 618 617 621
670 2 619 617 620
671 2 619 617 621
672 2 620 617 621
673 8 928 927 929
674 8 928 927 930
675 9 929 927 930
676 1 268 267 269
677 1 268 267 270
678 1 268 267 271
679 2 269 267 270
680 2 269 267 271
681 2 270 267 271
682 7 268 272 275
683 5 268 272 276
684 5 268 272 277
685 5 275 272 276
686 5 275 272 277
687 6 276 272 277
688 10 927 928 931
689 11 927 928 932
690 11 927 928 933
691 5 931 928 932
692 5 931 928 933
693 6 932 928 933
694 3 267 268 272
695 4 267 268 273
696 4 267 268 274
697 5 272 268 273
698 5 272 268 274
699 6 273 268 274
700 7 928 931 934
701 5 928 931 935
702 5 928 931 936
703 5 934 931 935
704 5 934 931 936
705 6 935 931 936
706 7 931 934 937
707 5 931 934 938
708 5 931 934 939
709 5 937 934 938
710 5 937 934 939
711 6 938 934 939
712 8 1003 1002 1004
713 8 1003 1002 1005
714 9 1004 1002 1005
715 7 1181 1184 1187
716 5 1181 1184 1188
717 5 1181 1184 1189
718 5 1187 1184 1188
719 5 1187 1184 1189
720 6 1188 1184 1189
721 7 1478 1481 1484
722 5 1478 1481 1485
723 5 1478 1481 1486
724 5 1484 1481 1485
725 5 1484 1481 1486
726 6 1485 1481 1486
727 7 1490 1493 1496
728 5 1490 1493 1497
729 5 1490 1493 1498
730 5 1496 1493 1497
731 5 1496 1493 1498
732 6 1497 1493 1498
733 7 1484 1487 1490
734 5 1484 1487 1491
735 5 1484 1487 1492
736 5 1490 1487 1491
737 5 1490 1487 1492
738 6 1491 1487 1492
739 7 1481 1484 1487
740 5 1481 1484 1488
741 5 1481 1484 1489
742 5 1487 1484 1488
743 5 1487 1484 1489
744 6 1488 1484 1489
745 7 1487 1490 1493
746 5 1487 1490 1494
747 5 1487 1490 1495
748 5 1493 1490 1494
749 5 1493 1490 1495
750 6 1494 1490 1495
751 7 859 862 865
752 5 859 862 866
753 5 859 862 867
754 5 865 862 866
755 5 865 862 867
756 6 866 862 867
757 5 1493 1496 1499
758 5 1493 1496 1500
759 5 1493 1496 1501
760 6 1499 1496 1500
761 6 1499 1496 1501
762 6 1500 1496 1501
763 7 1187 1190 1193
764 5 1187 1190 1194
765 5 1187 1190 1195
766 5 1193 1190 1194
767 5 1193 1190 1195
768 6 1194 1190 1195
769 5 720 723 726
770 5 720 723 727
771 5 720 723 728
772 6 726 723 727
773 6 726 723 728
774 6 727 723 728
775 5 1993 1996 1999
776 5 1993 1996 2000
777 5 1993 1996 2001
778 6 1999 1996 2000
779 6 1999 1996 2001
780 6 2000 1996 2001
781 5 1193 1196 1199
782 5 1193 1196 1200
783 5 1193 1196 1201
784 6 1199 1196 1200
785 6 1199 1196 1201
786 6 1200 1196 1201
787 7 1987 1990 1993
788 5 1987 1990 1994
789 5 1987 1990 1995
790 5 1993 1990 1994
791 5 1993 1990 1995
792 6 1994 1990 1995
793 7 1990 1993 1996
794 5 1990 1993 1997
795 5 1990 1993 1998
796 5 1996 1993 1997
797 5 1996 1993 1998
798 6 1997 1993 1998
799 5 1118 1121 1124
800 5 1118 1121 1125
801 5 1118 1121 1126
802 6 1124 1121 1125
803 6 1124 1121 1126
804 6 1125 1121 1126
805 10 1277 1278 1281
806 11 1277 1278 1282
807 11 1277 1278 1283
808 5 1281 1278 1282
809 5 1281 1278 1283
810 6 1282 1278 1283
811 7 1115 1118 1121
812 5 1115 1118 1122
813 5 1115 1118 1123
814 5 1121 1118 1122
815 5 1121 1118 1123
816 6 1122 1118 1123
817 7 1278 1281 1284
818 5 1278 1281 1285
819 5 1278 1281 1286
820 5 1284 1281 1285
821 5 1284 1281 1286
822 6 1285 1281 1286
823 5 1393 1396 1399
824 5 1393 1396 1400
825 5 1393 1396 1401
826 6 1399 1396 1400
827 6 1399 1396 1401
828 6 1400 1396 1401
829 10 1402 1403 1406
830 11 1402 1403 1407
831 11 1402 1403 1408
832 5 1406 1403 1407
833 5 1406 1403 1408
834 6 1407 1403 1408
835 7 1281 1284 1287
836 5 1281 1284 1288
837 5 1281 1284 1289
838 5 1287 1284 1288
839 5 1287 1284 1289
840 6 1288 1284 1289
841 8 1278 1277 1279
842 8 1278 1277 1280
843 9 1279 1277 1280
844 1 212 211 213
845 1 212 211 214
846 1 212 211 215
847 2 213 211 214
848 2 213 211 215
849 2 214 211 215
850 3 211 212 216
851 4 211 212 217
852 4 211 212 218
853 5 216 212 217
854 5 216 212 218
855 6 217 212 218
856 8 1078 1077 1079
857 8 1078 1077 1080
858 9 1079 1077 1080
859 5 216 219 222
860 5 216 219 223
861 5 216 219 224
862 6 222 219 223
863 6 222 219 224
864 6 223 219 224
865 7 212 216 219
866 5 212 216 220
867 5 212 216 221
868 5 219 216 220
869 5 219 216 221
870 6 220 216 221
871 3 141 142 146
872 4 141 142 147
873 4 141 142 148
874 5 146 142 147
875 5 146 142 148
876 6 147 142 148
877 1 142 141 143
878 1 142 141 144
879 1 142 141 145
880 2 143 141 144
881 2 143 141 145
882 2 144 141 145
883 10 1077 1078 1081
884 11 1077 1078 1082
885 11 1077 1078 1083
886 5 1081 1078 1082
887 5 1081 1078 1083
888 6 1082 1078 1083
889 3 603 604 608
890 4 603 604 609
891 4 603 604 610
892 5 608 604 609
893 5 608 604 610
894 6 609 604 610
895 7 604 608 611
896 5 604 608 612
897 5 604 608 613
898 5 611 608 612
899 5 611 608 613
900 6 612 608 613
901 5 2118 2121 2124
902 5 2118 2121 2125
903 5 2118 2121 2126
904 6 2124 2121 2125
905 6 2124 2121 2126
906 6 2125 2121 2126
907 7 865 868 871
908 5 865 868 872
909 5 865 868 873
910 5 871 868 872
911 5 871 868 873
912 6 872 868 873
913 7 1081 1084 1087
914 5 1081 1084 1088
915 5 1081 1084 1089
916 5 1087 1084 1088
917 5 1087 1084 1089
918 6 1088 1084 1089
919 7 1078 1081 1084
920 5 1078 1081 1085
921 5 1078 1081 1086
922 5 1084 1081 1085
923 5 1084 1081 1086
924 6 1085 1081 1086
925 5 1093 1096 1099
926 5 1093 1096 1100
927 5 1093 1096 1101
928 6 1099 1096 1100
929 6 1099 1096 1101
930 6 1100 1096 1101
931 7 1084 1087 1090
932 5 1084 1087 1091
933 5 1084 1087 1092
934 5 1090 1087 1091
935 5 1090 1087 1092
936 6 1091 1087 1092
937 7 1087 1090 1093
938 5 1087 1090 1094
939 5 1087 1090 1095
940 5 1093 1090 1094
941 5 1093 1090 1095
942 6 1094 1090 1095
943 5 868 871 874
944 5 868 871 875
945 5 868 871 876
946 6 874 871 875
947 6 874 871 876
948 6 875 871 876
949 7 1090 1093 1096
950 5 1090 1093 1097
951 5 1090 1093 1098
952 5 1096 1093 1097
953 5 1096 1093 1098
954 6 1097 1093 1098
955 7 862 865 868
956 5 862 865 869
957 5 862 865 870
958 5 868 865 869
959 5 868 865 870
960 6 869 865 870
961 7 156 160 163
962 5 156 160 164
963 5 156 160 165
964 5 163 160 164
965 5 163 160 165
966 6 164 160 165
967 1 450 449 451
968 1 450 449 452
969 1 450 449 453
970 2 451 449 452
971 2 451 449 453
972 2 452 449 453
973 8 1853 1852 1854
974 8 1853 1852 1855
975 9 1854 1852 1855
976 1 114 113 115
977 1 114 113 116
978 1 114 113 117
979 2 115 113 116
980 2 115 113 117
981 2 116 113 117
982 10 1852 1853 1856
983 11 1852 1853 1857
984 11 1852 1853 1858
985 5 1856 1853 1857
986 5 1856 1853 1858
987 6 1857 1853 1858
988 5 160 163 166
989 5 160 163 167
990 5 160 163 168
991 6 166 163 167
992 6 166 163 168
993 6 167 163 168
994 3 113 114 118
995 4 113 114 119
996 4 113 114 120
997 5 118 114 119
998 5 118 114 120
999 6 119 114 120
1000 8 2128 2127 2129
1001 8 2128 2127 2130
1002 9 2129 2127 2130
1003 1 562 561 563
1004 1 562 561 564
1005 1 562 561 565
1006 2 563 561 564
1007 2 563 561 565
1008 2 564 561 565
1009 3 155 156 160
1010 4 155 156 161
1011 4 155 156 162
1012 5 160 156 161
1013 5 160 156 162
1014 6 161 156 162
1015 5 468 471 474
1016 5 468 471 475
1017 5 468 471 476
1018 6 474 471 475
1019 6 474 471 476
1020 6 475 471 476
1021 8 1828 1827 1829
1022 8 1828 1827 1830
1023 9 1829 1827 1830
1024 1 156 155 157
1025 1 156 155 158
1026 1 156 155 159
1027 2 157 155 158
1028 2 157 155 159
1029 2 158 155 159
1030 10 2127 2128 2131
1031 11 2127 2128 2132
1032 11 2127 2128 2133
1033 5 2131 2128 2132
1034 5 2131 2128 2133
1035 6 2132 2128 2133
1036 7 2128 2131 2134
1037 5 2128 2131 2135
1038 5 2128 2131 2136
1039 5 2134 2131 2135
1040 5 2134 2131 2136
1041 6 2135 2131 2136
1042 7 2131 2134 2137
1043 5 2131 2134 2138
1044 5 2131 2134 2139
1045 5 2137 2134 2138
1046 5 2137 2134 2139
1047 6 2138 2134 2139
1048 7 2134 2137 2140
1049 5 2134 2137 2141
1050 5 2134 2137 2142
1051 5 2140 2137 2141
1052 5 2140 2137 2142
1053 6 2141 2137 2142
1054 7 2137 2140 2143
1055 5 2137 2140 2144
1056 5 2137 2140 2145
1057 5 2143 2140 2144
1058 5 2143 2140 2145
1059 6 2144 2140 2145
1060 10 1102 1103 1106
1061 11 1102 1103 1107
1062 11 1102 1103 1108
1063 5 1106 1103 1107
1064 5 1106 1103 1108
1065 6 1107 1103 1108
1066 8 1103 1102 1104
1067 8 1103 1102 1105
1068 9 1104 1102 1105
1069 7 1103 1106 1109
1070 5 1103 1106 1110
1071 5 1103 1106 1111
1072 5 1109 1106 1110
1073 5 1109 1106 1111
1074 6 1110 1106 1111
1075 7 2140 2143 2146
1076 5 2140 2143 2147
1077 5 2140 2143 2148
1078 5 2146 2143 2147
1079 5 2146 2143 2148
1080 6 2147 2143 2148
1081 7 1587 1590 1593
1082 5 1587 1590 1594
1083 5 1587 1590 1595
1084 5 1593 1590 1594
1085 5 1593 1590 1595
1086 6 1594 1590 1595
1087 5 1593 1596 1599
1088 5 1593 1596 1600
1089 5 1593 1596 1601
1090 6 1599 1596 1600
1091 6 1599 1596 1601
1092 6 1600 1596 1601
1093 5 146 149 152
1094 5 146 149 153
1095 5 146 149 154
1096 6 152 149 153
1097 6 152 149 154
1098 6 153 149 154
1099 7 1340 1343 1346
1100 5 1340 1343 1347
1101 5 1340 1343 1348
1102 5 1346 1343 1347
1103 5 1346 1343 1348
1104 6 1347 1343 1348
1105 5 2143 2146 2149
1106 5 2143 2146 2150
1107 5 2143 2146 2151
1108 6 2149 2146 2150
1109 6 2149 2146 2151
1110 6 2150 2146 2151
1111 5 370 373 376
1112 5 370 373 377
1113 5 370 373 378
1114 6 376 373 377
1115 6 376 373 378
1116 6 377 373 378
1117 5 1343 1346 1349
1118 5 1343 1346 1350
1119 5 1343 1346 1351
1120 6 1349 1346 1350
1121 6 1349 1346 1351
1122 6 1350 1346 1351
1123 7 1584 1587 1590
1124 5 1584 1587 1591
1125 5 1584 1587 1592
1126 5 1590 1587 1591
1127 5 1590 1587 1592
1128 6 1591 1587 1592
1129 7 1590 1593 1596
1130 5 1590 1593 1597
1131 5 1590 1593 1598
1132 5 1596 1593 1597
1133 5 1596 1593 1598
1134 6 1597 1593 1598
1135 7 1853 1856 1859
1136 5 1853 1856 1860
1137 5 1853 1856 1861
1138 5 1859 1856 1860
1139 5 1859 1856 1861
1140 6 1860 1856 1861
1141 5 1868 1871 1874
1142 5 1868 1871 1875
1143 5 1868 1871 1876
1144 6 1874 1871 1875
1145 6 1874 1871 1876
1146 6 1875 1871 1876
1147 7 1865 1868 1871
1148 5 1865 1868 1872
1149 5 1865 1868 1873
1150 5 1871 1868 1872
1151 5 1871 1868 1873
1152 6 1872 1868 1873
1153 7 1856 1859 1862
1154 5 1856 1859 1863
1155 5 1856 1859 1864
1156 5 1862 1859 1863
1157 5 1862 1859 1864
1158 6 1863 1859 1864
1159 7 1862 1865 1868
1160 5 1862 1865 1869
1161 5 1862 1865 1870
1162 5 1868 1865 1869
1163 5 1868 1865 1870
1164 6 1869 1865 1870
1165 7 1859 1862 1865
1166 5 1859 1862 1866
1167 5 1859 1862 1867
1168 5 1865 1862 1866
1169 5 1865 1862 1867
1170 6 1866 1862 1867
1171 5 1693 1696 1699
1172 5 1693 1696 1700
1173 5 1693 1696 1701
1174 6 1699 1696 1700
1175 6 1699 1696 1701
1176 6 1700 1696 1701
1177 7 1690 1693 1696
1178 5 1690 1693 1697
1179 5 1690 1693 1698
1180 5 1696 1693 1697
1181 5 1696 1693 1698
1182 6 1697 1693 1698
1183 3 561 562 566
1184 4 561 562 567
1185 4 561 562 568
1186 5 566 562 567
1187 5 566 562 568
1188 6 567 562 568
1189 5 1368 1371 1374
1190 5 1368 1371 1375
1191 5 1368 1371 1376
1192 6 1374 1371 1375
1193 6 1374 1371 1376
1194 6 1375 1371 1376
1195 7 959 962 965
1196 5 959 962 966
1197 5 959 962 967
1198 5 965 962 966
1199 5 965 962 967
1200 6 966 962 967
1201 5 706 709 712
1202 5 706 709 713
1203 5 706 709 714
1204 6 712 709 713
1205 6 712 709 714
1206 6 713 709 714
1207 10 2202 2203 2206
1208 11 2202 2203 2207
1209 11 2202 2203 2208
1210 5 2206 2203 2207
1211 5 2206 2203 2208
1212 6 2207 2203 2208
1213 7 2240 2243 2246
1214 5 2240 2243 2247
1215 5 2240 2243 2248
1216 5 2246 2243 2247
1217 5 2246 2243 2248
1218 6 2247 2243 2248
1219 7 2203 2206 2209
1220 5 2203 2206 2210
1221 5 2203 2206 2211
1222 5 2209 2206 2210
1223 5 2209 2206 2211
1224 6 2210 2206 2211
1225 7 1365 1368 1371
1226 5 1365 1368 1372
1227 5 1365 1368 1373
1228 5 1371 1368 1372
1229 5 1371 1368 1373
1230 6 1372 1368 1373
1231 7 702 706 709
1232 5 702 706 710
1233 5 702 706 711
1234 5 709 706 710
1235 5 709 706 711
1236 6 710 706 711
1237 3 701 702 706
1238 4 701 702 707
1239 4 701 702 708
1240 5 706 702 707
1241 5 706 702 708
1242 6 707 702 708
1243 7 2206 2209 2212
1244 5 2206 2209 2213
1245 5 2206 2209 2214
1246 5 2212 2209 2213
1247 5 2212 2209 2214
1248 6 2213 2209 2214
1249 1 702 701 703
1250 1 702 701 704
1251 1 702 701 705
1252 2 703 701 704
1253 2 703 701 705
1254 2 704 701 705
1255 7 2209 2212 2215
1256 5 2209 2212 2216
1257 5 2209 2212 2217
1258 5 2215 2212 2216
1259 5 2215 2212 2217
1260 6 2216 2212 2217
1261 7 2212 2215 2218
1262 5 2212 2215 2219
1263 5 2212 2215 2220
1264 5 2218 2215 2219
1265 5 2218 2215 2220
1266 6 2219 2215 2220
1267 10 1502 1503 1506
1268 11 1502 1503 1507
1269 11 1502 1503 1508
1270 5 1506 1503 1507
1271 5 1506 1503 1508
1272 6 1507 1503 1508
1273 7 1503 1506 1509
1274 5 1503 1506 1510
1275 5 1503 1506 1511
1276 5 1509 1506 1510
1277 5 1509 1506 1511
1278 6 1510 1506 1511
1279 7 1362 1365 1368
1280 5 1362 1365 1369
1281 5 1362 1365 1370
1282 5 1368 1365 1369
1283 5 1368 1365 1370
1284 6 1369 1365 1370
1285 5 510 513 516
1286 5 510 513 517
1287 5 510 513 518
1288 6 516 513 517
1289 6 516 513 518
1290 6 517 513 518
1291 8 1503 1502 1504
1292 8 1503 1502 1505
1293 9 1504 1502 1505
1294 7 956 959 962
1295 5 956 959 963
1296 5 956 959 964
1297 5 962 959 963
1298 5 962 959 964
1299 6 963 959 964
1300 7 1506 1509 1512
1301 5 1506 1509 1513
1302 5 1506 1509 1514
1303 5 1512 1509 1513
1304 5 1512 1509 1514
1305 6 1513 1509 1514
1306 3 169 170 174
1307 4 169 170 175
1308 4 169 170 176
1309 5 174 170 175
1310 5 174 170 176
1311 6 175 170 176
1312 7 170 174 177
1313 5 170 174 178
1314 5 170 174 179
1315 5 177 174 178
1316 5 177 174 179
1317 6 178 174 179
1318 5 174 177 180
1319 5 174 177 181
1320 5 174 177 182
1321 6 180 177 181
1322 6 180 177 182
1323 6 181 177 182
1324 7 953 956 959
1325 5 953 956 960
1326 5 953 956 961
1327 5 959 956 960
1328 5 959 956 961
1329 6 960 956 961
1330 10 952 953 956
1331 11 952 953 957
1332 11 952 953 958
1333 5 956 953 957
1334 5 956 953 958
1335 6 957 953 958
1336 1 170 169 171
1337 1 170 169 172
1338 1 170 169 173
1339 2 171 169 172
1340 2 171 169 173
1341 2 172 169 173
1342 8 953 952 954
1343 8 953 952 955
1344 9 954 952 955
1345 1 506 505 507
1346 1 506 505 508
1347 1 506 505 509
1348 2 507 505 508
1349 2 507 505 509
1350 2 508 505 509
1351 7 506 510 513
1352 5 506 510 514
1353 5 506 510 515
1354 5 513 510 514
1355 5 513 510 515
1356 6 514 510 515
1357 3 505 506 510
1358 4 505 506 511
1359 4 505 506 512
1360 5 510 506 511
1361 5 510 506 512
1362 6 511 506 512
1363 3 239 240 244
1364 4 239 240 245
1365 4 239 240 246
1366 5 244 240 245
1367 5 244 240 246
1368 6 245 240 246
1369 1 240 239 241
1370 1 240 239 242
1371 1 240 239 243
1372 2 241 239 242
1373 2 241 239 243
1374 2 242 239 243
1375 7 1581 1584 1587
1376 5 1581 1584 1588
1377 5 1581 1584 1589
1378 5 1587 1584 1588
1379 5 1587 1584 1589
1380 6 1588 1584 1589
1381 5 1543 1546 1549
1382 5 1543 1546 1550
1383 5 1543 1546 1551
1384 6 1549 1546 1550
1385 6 1549 1546 1551
1386 6 1550 1546 1551
1387 7 1578 1581 1584
1388 5 1578 1581 1585
1389 5 1578 1581 1586
1390 5 1584 1581 1585
1391 5 1584 1581 1586
1392 6 1585 1581 1586
1393 7 226 230 233
1394 5 226 230 234
1395 5 226 230 235
1396 5 233 230 234
1397 5 233 230 235
1398 6 234 230 235
1399 8 1578 1577 1579
1400 8 1578 1577 1580
1401 9 1579 1577 1580
1402 10 1577 1578 1581
1403 11 1577 1578 1582
1404 11 1577 1578 1583
1405 5 1581 1578 1582
1406 5 1581 1578 1583
1407 6 1582 1578 1583
1408 1 226 225 227
1409 1 226 225 228
1410 1 226 225 229
1411 2 227 225 228
1412 2 227 225 229
1413 2 228 225 229
1414 3 225 226 230
1415 4 225 226 231
1416 4 225 226 232
1417 5 230 226 231
1418 5 230 226 232
1419 6 231 226 232
1420 5 230 233 236
1421 5 230 233 237
1422 5 230 233 238
1423 6 236 233 237
1424 6 236 233 238
1425 6 237 233 238
1426 7 1540 1543 1546
1427 5 1540 1543 1547
1428 5 1540 1543 1548
1429 5 1546 1543 1547
1430 5 1546 1543 1548
1431 6 1547 1543 1548
1432 7 1303 1306 1309
1433 5 1303 1306 1310
1434 5 1303 1306 1311
1435 5 1309 1306 1310
1436 5 1309 1306 1311
1437 6 1310 1306 1311
1438 5 2218 2221 2224
1439 5 2218 2221 2225
1440 5 2218 2221 2226
1441 6 2224 2221 2225
1442 6 2224 2221 2226
1443 6 2225 2221 2226
1444 7 2215 2218 2221
1445 5 2215 2218 2222
1446 5 2215 2218 2223
1447 5 2221 2218 2222
1448 5 2221 2218 2223
1449 6 2222 2218 2223
1450 7 1065 1068 1071
1451 5 1065 1068 1072
1452 5 1065 1068 1073
1453 5 1071 1068 1072
1454 5 1071 1068 1073
1455 6 1072 1068 1073
1456 5 2243 2246 2249
1457 5 2243 2246 2250
1458 5 2243 2246 2251
1459 6 2249 2246 2250
1460 6 2249 2246 2251
1461 6 2250 2246 2251
1462 7 1062 1065 1068
1463 5 1062 1065 1069
1464 5 1062 1065 1070
1465 5 1068 1065 1069
1466 5 1068 1065 1070
1467 6 1069 1065 1070
1468 7 1059 1062 1065
1469 5 1059 1062 1066
1470 5 1059 1062 1067
1471 5 1065 1062 1066
1472 5 1065 1062 1067
1473 6 1066 1062 1067
1474 7 1056 1059 1062
1475 5 1056 1059 1063
1476 5 1056 1059 1064
1477 5 1062 1059 1063
1478 5 1062 1059 1064
1479 6 1063 1059 1064
1480 7 1053 1056 1059
1481 5 1053 1056 1060
1482 5 1053 1056 1061
1483 5 1059 1056 1060
1484 5 1059 1056 1061
1485 6 1060 1056 1061
1486 7 1687 1690 1693
1487 5 1687 1690 1694
1488 5 1687 1690 1695
1489 5 1693 1690 1694
1490 5 1693 1690 1695
1491 6 1694 1690 1695
1492 10 1052 1053 1056
1493 11 1052 1053 1057
1494 11 1052 1053 1058
1495 5 1056 1053 1057
1496 5 1056 1053 1058
1497 6 1057 1053 1058
1498 7 1359 1362 1365
1499 5 1359 1362 1366
1500 5 1359 1362 1367
1501 5 1365 1362 1366
1502 5 1365 1362 1367
1503 6 1366 1362 1367
1504 1 16 15 17
1505 1 16 15 18
1506 1 16 15 19
1507 2 17 15 18
1508 2 17 15 19
1509 2 18 15 19
1510 1 744 743 745
1511 1 744 743 746
1512 1 744 743 747
1513 2 745 743 746
1514 2 745 743 747
1515 2 746 743 747
1516 3 743 744 748
1517 4 743 744 749
1518 4 743 744 750
1519 5 748 744 749
1520 5 748 744 750
1521 6 749 744 750
1522 7 744 748 751
1523 5 744 748 752
1524 5 744 748 753
1525 5 751 748 752
1526 5 751 748 753
1527 6 752 748 753
1528 5 748 751 754
1529 5 748 751 755
1530 5 748 751 756
1531 6 754 751 755
1532 6 754 751 756
1533 6 755 751 756
1534 7 16 20 23
1535 5 16 20 24
1536 5 16 20 25
1537 5 23 20 24
1538 5 23 20 25
1539 6 24 20 25
1540 7 254 258 261
1541 5 254 258 262
1542 5 254 258 263
1543 5 261 258 262
1544 5 261 258 263
1545 6 262 258 263
1546 5 20 23 26
1547 5 20 23 27
1548 5 20 23 28
1549 6 26 23 27
1550 6 26 23 28
1551 6 27 23 28
1552 3 15 16 20
1553 4 15 16 21
1554 4 15 16 22
1555 5 20 16 21
1556 5 20 16 22
1557 6 21 16 22
1558 8 853 852 854
1559 8 853 852 855
1560 9 854 852 855
1561 5 258 261 264
1562 5 258 261 265
1563 5 258 261 266
1564 6 264 261 265
1565 6 264 261 266
1566 6 265 261 266
1567 3 253 254 258
1568 4 253 254 259
1569 4 253 254 260
1570 5 258 254 259
1571 5 258 254 260
1572 6 259 254 260
1573 3 589 590 594
1574 4 589 590 595
1575 4 589 590 596
1576 5 594 590 595
1577 5 594 590 596
1578 6 595 590 596
1579 7 1509 1512 1515
1580 5 1509 1512 1516
1581 5 1509 1512 1517
1582 5 1515 1512 1516
1583 5 1515 1512 1517
1584 6 1516 1512 1517
1585 5 244 247 250
1586 5 244 247 251
1587 5 244 247 252
1588 6 250 247 251
1589 6 250 247 252
1590 6 251 247 252
1591 7 240 244 247
1592 5 240 244 248
1593 5 240 244 249
1594 5 247 244 248
1595 5 247 244 249
1596 6 248 244 249
1597 7 1512 1515 1518
1598 5 1512 1515 1519
1599 5 1512 1515 1520
1600 5 1518 1515 1519
1601 5 1518 1515 1520
1602 6 1519 1515 1520
1603 7 1515 1518 1521
1604 5 1515 1518 1522
1605 5 1515 1518 1523
1606 5 1521 1518 1522
1607 5 1521 1518 1523
1608 6 1522 1518 1523
1609 5 1518 1521 1524
1610 5 1518 1521 1525
1611 5 1518 1521 1526
1612 6 1524 1521 1525
1613 6 1524 1521 1526
1614 6 1525 1521 1526
1615 7 1378 1381 1384
1616 5 1378 1381 1385
1617 5 1378 1381 1386
1618 5 1384 1381 1385
1619 5 1384 1381 1386
1620 6 1385 1381 1386
1621 5 762 765 768
1622 5 762 765 769
1623 5 762 765 770
1624 6 768 765 769
1625 6 768 765 770
1626 6 769 765 770
1627 10 1377 1378 1381
1628 11 1377 1378 1382
1629 11 1377 1378 1383
1630 5 1381 1378 1382
1631 5 1381 1378 1383
1632 6 1382 1378 1383
1633 7 1381 1384 1387
1634 5 1381 1384 1388
1635 5 1381 1384 1389
1636 5 1387 1384 1388
1637 5 1387 1384 1389
1638 6 1388 1384 1389
1639 7 1384 1387 1390
1640 5 1384 1387 1391
1641 5 1384 1387 1392
1642 5 1390 1387 1391
1643 5 1390 1387 1392
1644 6 1391 1387 1392
1645 7 1387 1390 1393
1646 5 1387 1390 1394
1647 5 1387 1390 1395
1648 5 1393 1390 1394
1649 5 1393 1390 1395
1650 6 1394 1390 1395
1651 7 1390 1393 1396
1652 5 1390 1393 1397
1653 5 1390 1393 1398
1654 5 1396 1393 1397
1655 5 1396 1393 1398
1656 6 1397 1393 1398
1657 8 1378 1377 1379
1658 8 1378 1377 1380
1659 9 1379 1377 1380
1660 5 818 821 824
1661 5 818 821 825
1662 5 818 821 826
1663 6 824 821 825
1664 6 824 821 826
1665 6 825 821 826
1666 10 1302 1303 1306
1667 11 1302 1303 1307
1668 11 1302 1303 1308
1669 5 1306 1303 1307
1670 5 1306 1303 1308
1671 6 1307 1303 1308
1672 8 1303 1302 1304
1673 8 1303 1302 1305
1674 9 1304 1302 1305
1675 7 1428 1431 1434
1676 5 1428 1431 1435
1677 5 1428 1431 1436
1678 5 1434 1431 1435
1679 5 1434 1431 1436
1680 6 1435 1431 1436
1681 5 608 611 614
1682 5 608 611 615
1683 5 608 611 616
1684 6 614 611 615
1685 6 614 611 616
1686 6 615 611 616
1687 10 1427 1428 1431
1688 11 1427 1428 1432
1689 11 1427 1428 1433
1690 5 1431 1428 1432
1691 5 1431 1428 1433
1692 6 1432 1428 1433
1693 7 1434 1437 1440
1694 5 1434 1437 1441
1695 5 1434 1437 1442
1696 5 1440 1437 1441
1697 5 1440 1437 1442
1698 6 1441 1437 1442
1699 7 1431 1434 1437
1700 5 1431 1434 1438
1701 5 1431 1434 1439
1702 5 1437 1434 1438
1703 5 1437 1434 1439
1704 6 1438 1434 1439
1705 8 1428 1427 1429
1706 8 1428 1427 1430
1707 9 1429 1427 1430
1708 5 1443 1446 1449
1709 5 1443 1446 1450
1710 5 1443 1446 1451
1711 6 1449 1446 1450
1712 6 1449 1446 1451
1713 6 1450 1446 1451
1714 7 940 943 946
1715 5 940 943 947
1716 5 940 943 948
1717 5 946 943 947
1718 5 946 943 948
1719 6 947 943 948
1720 7 1437 1440 1443
1721 5 1437 1440 1444
1722 5 1437 1440 1445
1723 5 1443 1440 1444
1724 5 1443 1440 1445
1725 6 1444 1440 1445
1726 5 943 946 949
1727 5 943 946 950
1728 5 943 946 951
1729 6 949 946 950
1730 6 949 946 951
1731 6 950 946 951
1732 7 1440 1443 1446
1733 5 1440 1443 1447
1734 5 1440 1443 1448
1735 5 1446 1443 1447
1736 5 1446 1443 1448
1737 6 1447 1443 1448
1738 7 934 937 940
1739 5 934 937 941
1740 5 934 937 942
1741 5 940 937 941
1742 5 940 937 942
1743 6 941 937 942
1744 7 937 940 943
1745 5 937 940 944
1746 5 937 940 945
1747 5 943 940 944
1748 5 943 940 945
1749 6 944 940 945
1750 7 590 594 597
1751 5 590 594 598
1752 5 590 594 599
1753 5 597 594 598
1754 5 597 594 599
1755 6 598 594 599
1756 8 1053 1052 1054
1757 8 1053 1052 1055
1758 9 1054 1052 1055
1759 1 590 589 591
1760 1 590 589 592
1761 1 590 589 593
1762 2 591 589 592
1763 2 591 589 593
1764 2 592 589 593
1765 5 594 597 600
1766 5 594 597 601
1767 5 594 597 602
1768 6 600 597 601
1769 6 600 597 602
1770 6 601 597 602
1771 8 2003 2002 2004
1772 8 2003 2002 2005
1773 9 2004 2002 2005
1774 7 2012 2015 2018
1775 5 2012 2015 2019
1776 5 2012 2015 2020
1777 5 2018 2015 2019
1778 5 2018 2015 2020
1779 6 2019 2015 2020
1780 7 2009 2012 2015
1781 5 2009 2012 2016
1782 5 2009 2012 2017
1783 5 2015 2012 2016
1784 5 2015 2012 2017
1785 6 2016 2012 2017
1786 10 852 853 856
1787 11 852 853 857
1788 11 852 853 858
1789 5 856 853 857
1790 5 856 853 858
1791 6 857 853 858
1792 7 856 859 862
1793 5 856 859 863
1794 5 856 859 864
1795 5 862 859 863
1796 5 862 859 864
1797 6 863 859 864
1798 7 2003 2006 2009
1799 5 2003 2006 2010
1800 5 2003 2006 2011
1801 5 2009 2006 2010
1802 5 2009 2006 2011
1803 6 2010 2006 2011
1804 7 853 856 859
1805 5 853 856 860
1806 5 853 856 861
1807 5 859 856 860
1808 5 859 856 861
1809 6 860 856 861
1810 7 114 118 121
1811 5 114 118 122
1812 5 114 118 123
1813 5 121 118 122
1814 5 121 118 123
1815 6 122 118 123
1816 5 118 121 124
1817 5 118 121 125
1818 5 118 121 126
1819 6 124 121 125
1820 6 124 121 126
1821 6 125 121 126
1822 7 2006 2009 2012
1823 5 2006 2009 2013
1824 5 2006 2009 2014
1825 5 2012 2009 2013
1826 5 2012 2009 2014
1827 6 2013 2009 2014
1828 10 2002 2003 2006
1829 11 2002 2003 2007
1830 11 2002 2003 2008
1831 5 2006 2003 2007
1832 5 2006 2003 2008
1833 6 2007 2003 2008
1834 7 758 762 765
1835 5 758 762 766
1836 5 758 762 767
1837 5 765 762 766
1838 5 765 762 767
1839 6 766 762 767
1840 7 1106 1109 1112
1841 5 1106 1109 1113
1842 5 1106 1109 1114
1843 5 1112 1109 1113
1844 5 1112 1109 1114
1845 6 1113 1109 1114
1846 7 1112 1115 1118
1847 5 1112 1115 1119
1848 5 1112 1115 1120
1849 5 1118 1115 1119
1850 5 1118 1115 1120
1851 6 1119 1115 1120
1852 7 1109 1112 1115
1853 5 1109 1112 1116
1854 5 1109 1112 1117
1855 5 1115 1112 1116
1856 5 1115 1112 1117
1857 6 1116 1112 1117
1858 7 86 90 93
1859 5 86 90 94
1860 5 86 90 95
1861 5 93 90 94
1862 5 93 90 95
1863 6 94 90 95
1864 5 90 93 96
1865 5 90 93 97
1866 5 90 93 98
1867 6 96 93 97
1868 6 96 93 98
1869 6 97 93 98
1870 3 85 86 90
1871 4 85 86 91
1872 4 85 86 92
1873 5 90 86 91
1874 5 90 86 92
1875 6 91 86 92
1876 5 496 499 502
1877 5 496 499 503
1878 5 496 499 504
1879 6 502 499 503
1880 6 502 499 504
1881 6 503 499 504
1882 1 86 85 87
1883 1 86 85 88
1884 1 86 85 89
1885 2 87 85 88
1886 2 87 85 89
1887 2 88 85 89
1888 8 1553 1552 1554
1889 8 1553 1552 1555
1890 9 1554 1552 1555
1891 7 492 496 499
1892 5 492 496 500
1893 5 492 496 501
1894 5 499 496 500
1895 5 499 496 501
1896 6 500 496 501
1897 7 142 146 149
1898 5 142 146 150
1899 5 142 146 151
1900 5 149 146 150
1901 5 149 146 151
1902 6 150 146 151
1903 7 366 370 373
1904 5 366 370 374
1905 5 366 370 375
1906 5 373 370 374
1907 5 373 370 375
1908 6 374 370 375
1909 3 365 366 370
1910 4 365 366 371
1911 4 365 366 372
1912 5 370 366 371
1913 5 370 366 372
1914 6 371 366 372
1915 3 491 492 496
1916 4 491 492 497
1917 4 491 492 498
1918 5 496 492 497
1919 5 496 492 498
1920 6 497 492 498
1921 1 604 603 605
1922 1 604 603 606
1923 1 604 603 607
1924 2 605 603 606
1925 2 605 603 607
1926 2 606 603 607
1927 7 1031 1034 1037
1928 5 1031 1034 1038
1929 5 1031 1034 1039
1930 5 1037 1034 1038
1931 5 1037 1034 1039
1932 6 1038 1034 1039
1933 8 1028 1027 1029
1934 8 1028 1027 1030
1935 9 1029 1027 1030
1936 7 1028 1031 1034
1937 5 1028 1031 1035
1938 5 1028 1031 1036
1939 5 1034 1031 1035
1940 5 1034 1031 1036
1941 6 1035 1031 1036
1942 10 1027 1028 1031
1943 11 1027 1028 1032
1944 11 1027 1028 1033
1945 5 1031 1028 1032
1946 5 1031 1028 1033
1947 6 1032 1028 1033
1948 1 366 365 367
1949 1 366 365 368
1950 1 366 365 369
1951 2 367 365 368
1952 2 367 365 369
1953 2 368 365 369
1954 1 492 491 493
1955 1 492 491 494
1956 1 492 491 495
1957 2 493 491 494
1958 2 493 491 495
1959 2 494 491 495
1960 10 1927 1928 1931
1961 11 1927 1928 1932
1962 11 1927 1928 1933
1963 5 1931 1928 1932
1964 5 1931 1928 1933
1965 6 1932 1928 1933
1966 7 2065 2068 2071
1967 5 2065 2068 2072
1968 5 2065 2068 2073
1969 5 2071 2068 2072
1970 5 2071 2068 2073
1971 6 2072 2068 2073
1972 7 1034 1037 1040
1973 5 1034 1037 1041
1974 5 1034 1037 1042
1975 5 1040 1037 1041
1976 5 1040 1037 1042
1977 6 1041 1037 1042
1978 5 2068 2071 2074
1979 5 2068 2071 2075
1980 5 2068 2071 2076
1981 6 2074 2071 2075
1982 6 2074 2071 2076
1983 6 2075 2071 2076
1984 7 2059 2062 2065
1985 5 2059 2062 2066
1986 5 2059 2062 2067
1987 5 2065 2062 2066
1988 5 2065 2062 2067
1989 6 2066 2062 2067
1990 7 2053 2056 2059
1991 5 2053 2056 2060
1992 5 2053 2056 2061
1993 5 2059 2056 2060
1994 5 2059 2056 2061
1995 6 2060 2056 2061
1996 5 2018 2021 2024
1997 5 2018 2021 2025
1998 5 2018 2021 2026
1999 6 2024 2021 2025
2000 6 2024 2021 2026
2001 6 2025 2021 2026
2002 7 2056 2059 2062
2003 5 2056 2059 2063
2004 5 2056 2059 2064
2005 5 2062 2059 2063
2006 5 2062 2059 2064
2007 6 2063 2059 2064
2008 7 2015 2018 2021
2009 5 2015 2018 2022
2010 5 2015 2018 2023
2011 5 2021 2018 2022
2012 5 2021 2018 2023
2013 6 2022 2018 2023
2014 7 2062 2065 2068
2015 5 2062 2065 2069
2016 5 2062 2065 2070
2017 5 2068 2065 2069
2018 5 2068 2065 2070
2019 6 2069 2065 2070
2020 7 2037 2040 2043
2021 5 2037 2040 2044
2022 5 2037 2040 2045
2023 5 2043 2040 2044
2024 5 2043 2040 2045
2025 6 2044 2040 2045
2026 7 2040 2043 2046
2027 5 2040 2043 2047
2028 5 2040 2043 2048
2029 5 2046 2043 2047
2030 5 2046 2043 2048
2031 6 2047 2043 2048
2032 5 1843 1846 1849
2033 5 1843 1846 1850
2034 5 1843 1846 1851
2035 6 1849 1846 1850
2036 6 1849 1846 1851
2037 6 1850 1846 1851
2038 7 2031 2034 2037
2039 5 2031 2034 2038
2040 5 2031 2034 2039
2041 5 2037 2034 2038
2042 5 2037 2034 2039
2043 6 2038 2034 2039
2044 7 2034 2037 2040
2045 5 2034 2037 2041
2046 5 2034 2037 2042
2047 5 2040 2037 2041
2048 5 2040 2037 2042
2049 6 2041 2037 2042
2050 10 2027 2028 2031
2051 11 2027 2028 2032
2052 11 2027 2028 2033
2053 5 2031 2028 2032
2054 5 2031 2028 2033
2055 6 2032 2028 2033
2056 7 2028 2031 2034
2057 5 2028 2031 2035
2058 5 2028 2031 2036
2059 5 2034 2031 2035
2060 5 2034 2031 2036
2061 6 2035 2031 2036
2062 10 2227 2228 2231
2063 11 2227 2228 2232
2064 11 2227 2228 2233
2065 5 2231 2228 2232
2066 5 2231 2228 2233
2067 6 2232 2228 2233
2068 7 1840 1843 1846
2069 5 1840 1843 1847
2070 5 1840 1843 1848
2071 5 1846 1843 1847
2072 5 1846 1843 1848
2073 6 1847 1843 1848
2074 8 2228 2227 2229
2075 8 2228 2227 2230
2076 9 2229 2227 2230
2077 8 2028 2027 2029
2078 8 2028 2027 2030
2079 9 2029 2027 2030
2080 7 1837 1840 1843
2081 5 1837 1840 1844
2082 5 1837 1840 1845
2083 5 1843 1840 1844
2084 5 1843 1840 1845
2085 6 1844 1840 1845
2086 7 1834 1837 1840
2087 5 1834 1837 1841
2088 5 1834 1837 1842
2089 5 1840 1837 1841
2090 5 1840 1837 1842
2091 6 1841 1837 1842
2092 7 1831 1834 1837
2093 5 1831 1834 1838
2094 5 1831 1834 1839
2095 5 1837 1834 1838
2096 5 1837 1834 1839
2097 6 1838 1834 1839
2098 3 519 520 524
2099 4 519 520 525
2100 4 519 520 526
2101 5 524 520 525
2102 5 524 520 526
2103 6 525 520 526
2104 1 520 519 521
2105 1 520 519 522
2106 1 520 519 523
2107 2 521 519 522
2108 2 521 519 523
2109 2 522 519 523
2110 7 1565 1568 1571
2111 5 1565 1568 1572
2112 5 1565 1568 1573
2113 5 1571 1568 1572
2114 5 1571 1568 1573
2115 6 1572 1568 1573
2116 7 1562 1565 1568
2117 5 1562 1565 1569
2118 5 1562 1565 1570
2119 5 1568 1565 1569
2120 5 1568 1565 1570
2121 6 1569 1565 1570
2122 7 1556 1559 1562
2123 5 1556 1559 1563
2124 5 1556 1559 1564
2125 5 1562 1559 1563
2126 5 1562 1559 1564
2127 6 1563 1559 1564
2128 5 524 527 530
2129 5 524 527 531
2130 5 524 527 532
2131 6 530 527 531
2132 6 530 527 532
2133 6 531 527 532
2134 7 520 524 527
2135 5 520 524 528
2136 5 520 524 529
2137 5 527 524 528
2138 5 527 524 529
2139 6 528 524 529
2140 7 1559 1562 1565
2141 5 1559 1562 1566
2142 5 1559 1562 1567
2143 5 1565 1562 1566
2144 5 1565 1562 1567
2145 6 1566 1562 1567
2146 7 1828 1831 1834
2147 5 1828 1831 1835
2148 5 1828 1831 1836
2149 5 1834 1831 1835
2150 5 1834 1831 1836
2151 6 1835 1831 1836
2152 10 1827 1828 1831
2153 11 1827 1828 1832
2154 11 1827 1828 1833
2155 5 1831 1828 1832
2156 5 1831 1828 1833
2157 6 1832 1828 1833
2158 7 1331 1334 1337
2159 5 1331 1334 1338
2160 5 1331 1334 1339
2161 5 1337 1334 1338
2162 5 1337 1334 1339
2163 6 1338 1334 1339
2164 7 1328 1331 1334
2165 5 1328 1331 1335
2166 5 1328 1331 1336
2167 5 1334 1331 1335
2168 5 1334 1331 1336
2169 6 1335 1331 1336
2170 10 1327 1328 1331
2171 11 1327 1328 1332
2172 11 1327 1328 1333
2173 5 1331 1328 1332
2174 5 1331 1328 1333
2175 6 1332 1328 1333
2176 3 547 548 552
2177 4 547 548 553
2178 4 547 548 554
2179 5 552 548 553
2180 5 552 548 554
2181 6 553 548 554
2182 8 1328 1327 1329
2183 8 1328 1327 1330
2184 9 1329 1327 1330
2185 7 548 552 555
2186 5 548 552 556
2187 5 548 552 557
2188 5 555 552 556
2189 5 555 552 557
2190 6 556 552 557
2191 3 29 30 34
2192 4 29 30 35
2193 4 29 30 36
2194 5 34 30 35
2195 5 34 30 36
2196 6 35 30 36
2197 7 1334 1337 1340
2198 5 1334 1337 1341
2199 5 1334 1337 1342
2200 5 1340 1337 1341
2201 5 1340 1337 1342
2202 6 1341 1337 1342
2203 1 548 547 549
2204 1 548 547 550
2205 1 548 547 551
2206 2 549 547 550
2207 2 549 547 551
2208 2 550 547 551
2209 1 30 29 31
2210 1 30 29 32
2211 1 30 29 33
2212 2 31 29 32
2213 2 31 29 33
2214 2 32 29 33
2215 5 552 555 558
2216 5 552 555 559
2217 5 552 555 560
2218 6 558 555 559
2219 6 558 555 560
2220 6 559 555 560
2221 7 1337 1340 1343
2222 5 1337 1340 1344
2223 5 1337 1340 1345
2224 5 1343 1340 1344
2225 5 1343 1340 1345
2226 6 1344 1340 1345
2227 5 2043 2046 2049
2228 5 2043 2046 2050
2229 5 2043 2046 2051
2230 6 2049 2046 2050
2231 6 2049 2046 2051
2232 6 2050 2046 2051
2233 7 30 34 37
2234 5 30 34 38
2235 5 30 34 39
2236 5 37 34 38
2237 5 37 34 39
2238 6 38 34 39
2239 5 843 846 849
2240 5 843 846 850
2241 5 843 846 851
2242 6 849 846 850
2243 6 849 846 851
2244 6 850 846 851
2245 7 840 843 846
2246 5 840 843 847
2247 5 840 843 848
2248 5 846 843 847
2249 5 846 843 848
2250 6 847 843 848
2251 7 834 837 840
2252 5 834 837 841
2253 5 834 837 842
2254 5 840 837 841
2255 5 840 837 842
2256 6 841 837 842
2257 8 1628 1627 1629
2258 8 1628 1627 1630
2259 9 1629 1627 1630
2260 10 1627 1628 1631
2261 11 1627 1628 1632
2262 11 1627 1628 1633
2263 5 1631 1628 1632
2264 5 1631 1628 1633
2265 6 1632 1628 1633
2266 7 837 840 843
2267 5 837 840 844
2268 5 837 840 845
2269 5 843 840 844
2270 5 843 840 845
2271 6 844 840 845
2272 7 1628 1631 1634
2273 5 1628 1631 1635
2274 5 1628 1631 1636
2275 5 1634 1631 1635
2276 5 1634 1631 1636
2277 6 1635 1631 1636
2278 5 34 37 40
2279 5 34 37 41
2280 5 34 37 42
2281 6 40 37 41
2282 6 40 37 42
2283 6 41 37 42
2284 7 1631 1634 1637
2285 5 1631 1634 1638
2286 5 1631 1634 1639
2287 5 1637 1634 1638
2288 5 1637 1634 1639
2289 6 1638 1634 1639
2290 7 2231 2234 2237
2291 5 2231 2234 2238
2292 5 2231 2234 2239
2293 5 2237 2234 2238
2294 5 2237 2234 2239
2295 6 2238 2234 2239
2296 7 2237 2240 2243
2297 5 2237 2240 2244
2298 5 2237 2240 2245
2299 5 2243 2240 2244
2300 5 2243 2240 2245
2301 6 2244 2240 2245
2302 7 2228 2231 2234
2303 5 2228 2231 2235
2304 5 2228 2231 2236
2305 5 2234 2231 2235
2306 5 2234 2231 2236
2307 6 2235 2231 2236
2308 7 2234 2237 2240
2309 5 2234 2237 2241
2310 5 2234 2237 2242
2311 5 2240 2237 2241
2312 5 2240 2237 2242
2313 6 2241 2237 2242
2314 5 1468 1471 1474
2315 5 1468 1471 1475
2316 5 1468 1471 1476
2317 6 1474 1471 1475
2318 6 1474 1471 1476
2319 6 1475 1471 1476
2320 10 1877 1878 1881
2321 11 1877 1878 1882
2322 11 1877 1878 1883
2323 5 1881 1878 1882
2324 5 1881 1878 1883
2325 6 1882 1878 1883
2326 7 436 440 443
2327 5 436 440 444
2328 5 436 440 445
2329 5 443 440 444
2330 5 443 440 445
2331 6 444 440 445
2332 8 1878 1877 1879
2333 8 1878 1877 1880
2334 9 1879 1877 1880
2335 7 1878 1881 1884
2336 5 1878 1881 1885
2337 5 1878 1881 1886
2338 5 1884 1881 1885
2339 5 1884 1881 1886
2340 6 1885 1881 1886
2341 7 1465 1468 1471
2342 5 1465 1468 1472
2343 5 1465 1468 1473
2344 5 1471 1468 1472
2345 5 1471 1468 1473
2346 6 1472 1468 1473
2347 7 1462 1465 1468
2348 5 1462 1465 1469
2349 5 1462 1465 1470
2350 5 1468 1465 1469
2351 5 1468 1465 1470
2352 6 1469 1465 1470
2353 7 128 132 135
2354 5 128 132 136
2355 5 128 132 137
2356 5 135 132 136
2357 5 135 132 137
2358 6 136 132 137
2359 1 128 127 129
2360 1 128 127 130
2361 1 128 127 131
2362 2 129 127 130
2363 2 129 127 131
2364 2 130 127 131
2365 3 127 128 132
2366 4 127 128 133
2367 4 127 128 134
2368 5 132 128 133
2369 5 132 128 134
2370 6 133 128 134
2371 5 132 135 138
2372 5 132 135 139
2373 5 132 135 140
2374 6 138 135 139
2375 6 138 135 140
2376 6 139 135 140
2377 7 1459 1462 1465
2378 5 1459 1462 1466
2379 5 1459 1462 1467
2380 5 1465 1462 1466
2381 5 1465 1462 1467
2382 6 1466 1462 1467
2383 8 1528 1527 1529
2384 8 1528 1527 1530
2385 9 1529 1527 1530
2386 10 1527 1528 1531
2387 11 1527 1528 1532
2388 11 1527 1528 1533
2389 5 1531 1528 1532
2390 5 1531 1528 1533
2391 6 1532 1528 1533
2392 7 1531 1534 1537
2393 5 1531 1534 1538
2394 5 1531 1534 1539
2395 5 1537 1534 1538
2396 5 1537 1534 1539
2397 6 1538 1534 1539
2398 7 1534 1537 1540
2399 5 1534 1537 1541
2400 5 1534 1537 1542
2401 5 1540 1537 1541
2402 5 1540 1537 1542
2403 6 1541 1537 1542
2404 7 1528 1531 1534
2405 5 1528 1531 1535
2406 5 1528 1531 1536
2407 5 1534 1531 1535
2408 5 1534 1531 1536
2409 6 1535 1531 1536
2410 10 1602 1603 1606
2411 11 1602 1603 1607
2412 11 1602 1603 1608
2413 5 1606 1603 1607
2414 5 1606 1603 1608
2415 6 1607 1603 1608
2416 1 576 575 577
2417 1 576 575 578
2418 1 576 575 579
2419 2 577 575 578
2420 2 577 575 579
2421 2 578 575 579
2422 8 2178 2177 2179
2423 8 2178 2177 2180
2424 9 2179 2177 2180
2425 7 1603 1606 1609
2426 5 1603 1606 1610
2427 5 1603 1606 1611
2428 5 1609 1606 1610
2429 5 1609 1606 1611
2430 6 1610 1606 1611
2431 5 580 583 586
2432 5 580 583 587
2433 5 580 583 588
2434 6 586 583 587
2435 6 586 583 588
2436 6 587 583 588
2437 7 576 580 583
2438 5 576 580 584
2439 5 576 580 585
2440 5 583 580 584
2441 5 583 580 585
2442 6 584 580 585
2443 8 1603 1602 1604
2444 8 1603 1602 1605
2445 9 1604 1602 1605
2446 3 575 576 580
2447 4 575 576 581
2448 4 575 576 582
2449 5 580 576 581
2450 5 580 576 582
2451 6 581 576 582
2452 1 730 729 731
2453 1 730 729 732
2454 1 730 729 733
2455 2 731 729 732
2456 2 731 729 733
2457 2 732 729 733
2458 7 1537 1540 1543
2459 5 1537 1540 1544
2460 5 1537 1540 1545
2461 5 1543 1540 1544
2462 5 1543 1540 1545
2463 6 1544 1540 1545
2464 7 1606 1609 1612
2465 5 1606 1609 1613
2466 5 1606 1609 1614
2467 5 1612 1609 1613
2468 5 1612 1609 1614
2469 6 1613 1609 1614
2470 7 1684 1687 1690
2471 5 1684 1687 1691
2472 5 1684 1687 1692
2473 5 1690 1687 1691
2474 5 1690 1687 1692
2475 6 1691 1687 1692
2476 7 1681 1684 1687
2477 5 1681 1684 1688
2478 5 1681 1684 1689
2479 5 1687 1684 1688
2480 5 1687 1684 1689
2481 6 1688 1684 1689
2482 7 831 834 837
2483 5 831 834 838
2484 5 831 834 839
2485 5 837 834 838
2486 5 837 834 839
2487 6 838 834 839
2488 7 828 831 834
2489 5 828 831 835
2490 5 828 831 836
2491 5 834 831 835
2492 5 834 831 836
2493 6 835 831 836
2494 5 440 443 446
2495 5 440 443 447
2496 5 440 443 448
2497 6 446 443 447
2498 6 446 443 448
2499 6 447 443 448
2500 8 1678 1677 1679
2501 8 1678 1677 1680
2502 9 1679 1677 1680
2503 1 772 771 773
2504 1 772 771 774
2505 1 772 771 775
2506 2 773 771 774
2507 2 773 771 775
2508 2 774 771 775
2509 10 827 828 831
2510 11 827 828 832
2511 11 827 828 833
2512 5 831 828 832
2513 5 831 828 833
2514 6 832 828 833
2515 8 828 827 829
2516 8 828 827 830
2517 9 829 827 830
2518 1 436 435 437
2519 1 436 435 438
2520 1 436 435 439
2521 2 437 435 438
2522 2 437 435 439
2523 2 438 435 439
2524 3 435 436 440
2525 4 435 436 441
2526 4 435 436 442
2527 5 440 436 441
2528 5 440 436 442
2529 6 441 436 442
2530 3 771 772 776
2531 4 771 772 777
2532 4 771 772 778
2533 5 776 772 777
2534 5 776 772 778
2535 6 777 772 778
2536 10 1677 1678 1681
2537 11 1677 1678 1682
2538 11 1677 1678 1683
2539 5 1681 1678 1682
2540 5 1681 1678 1683
2541 6 1682 1678 1683
2542 7 1678 1681 1684
2543 5 1678 1681 1685
2544 5 1678 1681 1686
2545 5 1684 1681 1685
2546 5 1684 1681 1686
2547 6 1685 1681 1686
2548 1 632 631 633
2549 1 632 631 634
2550 1 632 631 635
2551 2 633 631 634
2552 2 633 631 635
2553 2 634 631 635
2554 3 197 198 202
2555 4 197 198 203
2556 4 197 198 204
2557 5 202 198 203
2558 5 202 198 204
2559 6 203 198 204
2560 5 202 205 208
2561 5 202 205 209
2562 5 202 205 210
2563 6 208 205 209
2564 6 208 205 210
2565 6 209 205 210
2566 8 1353 1352 1354
2567 8 1353 1352 1355
2568 9 1354 1352 1355
2569 1 646 645 647
2570 1 646 645 648
2571 1 646 645 649
2572 2 647 645 648
2573 2 647 645 649
2574 2 648 645 649
2575 10 1352 1353 1356
2576 11 1352 1353 1357
2577 11 1352 1353 1358
2578 5 1356 1353 1357
2579 5 1356 1353 1358
2580 6 1357 1353 1358
2581 7 198 202 205
2582 5 198 202 206
2583 5 198 202 207
2584 5 205 202 206
2585 5 205 202 207
2586 6 206 202 207
2587 7 1356 1359 1362
2588 5 1356 1359 1363
2589 5 1356 1359 1364
2590 5 1362 1359 1363
2591 5 1362 1359 1364
2592 6 1363 1359 1364
2593 3 645 646 650
2594 4 645 646 651
2595 4 645 646 652
2596 5 650 646 651
2597 5 650 646 652
2598 6 651 646 652
2599 7 1353 1356 1359
2600 5 1353 1356 1360
2601 5 1353 1356 1361
2602 5 1359 1356 1360
2603 5 1359 1356 1361
2604 6 1360 1356 1361
2605 7 2284 2287 2290
2606 5 2284 2287 2291
2607 5 2284 2287 2292
2608 5 2290 2287 2291
2609 5 2290 2287 2292
2610 6 2291 2287 2292
2611 7 2281 2284 2287
2612 5 2281 2284 2288
2613 5 2281 2284 2289
2614 5 2287 2284 2288
2615 5 2287 2284 2289
2616 6 2288 2284 2289
2617 5 918 921 924
2618 5 918 921 925
2619 5 918 921 926
2620 6 924 921 925
2621 6 924 921 926
2622 6 925 921 926
2623 3 757 758 762
2624 4 757 758 763
2625 4 757 758 764
2626 5 762 758 763
2627 5 762 758 764
2628 6 763 758 764
2629 7 1456 1459 1462
2630 5 1456 1459 1463
2631 5 1456 1459 1464
2632 5 1462 1459 1463
2633 5 1462 1459 1464
2634 6 1463 1459 1464
2635 10 1452 1453 1456
2636 11 1452 1453 1457
2637 11 1452 1453 1458
2638 5 1456 1453 1457
2639 5 1456 1453 1458
2640 6 1457 1453 1458
2641 8 1453 1452 1454
2642 8 1453 1452 1455
2643 9 1454 1452 1455
2644 1 758 757 759
2645 1 758 757 760
2646 1 758 757 761
2647 2 759 757 760
2648 2 759 757 761
2649 2 760 757 761
2650 7 1653 1656 1659
2651 5 1653 1656 1660
2652 5 1653 1656 1661
2653 5 1659 1656 1660
2654 5 1659 1656 1661
2655 6 1660 1656 1661
2656 7 1453 1456 1459
2657 5 1453 1456 1460
2658 5 1453 1456 1461
2659 5 1459 1456 1460
2660 5 1459 1456 1461
2661 6 1460 1456 1461
2662 7 1662 1665 1668
2663 5 1662 1665 1669
2664 5 1662 1665 1670
2665 5 1668 1665 1669
2666 5 1668 1665 1670
2667 6 1669 1665 1670
2668 10 1652 1653 1656
2669 11 1652 1653 1657
2670 11 1652 1653 1658
2671 5 1656 1653 1657
2672 5 1656 1653 1658
2673 6 1657 1653 1658
2674 7 915 918 921
2675 5 915 918 922
2676 5 915 918 923
2677 5 921 918 922
2678 5 921 918 923
2679 6 922 918 923
2680 5 1668 1671 1674
2681 5 1668 1671 1675
2682 5 1668 1671 1676
2683 6 1674 1671 1675
2684 6 1674 1671 1676
2685 6 1675 1671 1676
2686 7 1656 1659 1662
2687 5 1656 1659 1663
2688 5 1656 1659 1664
2689 5 1662 1659 1663
2690 5 1662 1659 1664
2691 6 1663 1659 1664
2692 7 1609 1612 1615
2693 5 1609 1612 1616
2694 5 1609 1612 1617
2695 5 1615 1612 1616
2696 5 1615 1612 1617
2697 6 1616 1612 1617
2698 5 734 737 740
2699 5 734 737 741
2700 5 734 737 742
2701 6 740 737 741
2702 6 740 737 742
2703 6 741 737 742
2704 8 1653 1652 1654
2705 8 1653 1652 1655
2706 9 1654 1652 1655
2707 1 814 813 815
2708 1 814 813 816
2709 1 814 813 817
2710 2 815 813 816
2711 2 815 813 817
2712 2 816 813 817
2713 3 729 730 734
2714 4 729 730 735
2715 4 729 730 736
2716 5 734 730 735
2717 5 734 730 736
2718 6 735 730 736
2719 7 730 734 737
2720 5 730 734 738
2721 5 730 734 739
2722 5 737 734 738
2723 5 737 734 739
2724 6 738 734 739
2725 7 534 538 541
2726 5 534 538 542
2727 5 534 538 543
2728 5 541 538 542
2729 5 541 538 543
2730 6 542 538 543
2731 5 538 541 544
2732 5 538 541 545
2733 5 538 541 546
2734 6 544 541 545
2735 6 544 541 546
2736 6 545 541 546
2737 7 1612 1615 1618
2738 5 1612 1615 1619
2739 5 1612 1615 1620
2740 5 1618 1615 1619
2741 5 1618 1615 1620
2742 6 1619 1615 1620
2743 3 813 814 818
2744 4 813 814 819
2745 4 813 814 820
2746 5 818 814 819
2747 5 818 814 820
2748 6 819 814 820
2749 7 1615 1618 1621
2750 5 1615 1618 1622
2751 5 1615 1618 1623
2752 5 1621 1618 1622
2753 5 1621 1618 1623
2754 6 1622 1618 1623
2755 5 1618 1621 1624
2756 5 1618 1621 1625
2757 5 1618 1621 1626
2758 6 1624 1621 1625
2759 6 1624 1621 1626
2760 6 1625 1621 1626
2761 3 533 534 538
2762 4 533 534 539
2763 4 533 534 540
2764 5 538 534 539
2765 5 538 534 540
2766 6 539 534 540
2767 7 814 818 821
2768 5 814 818 822
2769 5 814 818 823
2770 5 821 818 822
2771 5 821 818 823
2772 6 822 818 823
2773 7 1231 1234 1237
2774 5 1231 1234 1238
2775 5 1231 1234 1239
2776 5 1237 1234 1238
2777 5 1237 1234 1239
2778 6 1238 1234 1239
2779 7 1234 1237 1240
2780 5 1234 1237 1241
2781 5 1234 1237 1242
2782 5 1240 1237 1241
2783 5 1240 1237 1242
2784 6 1241 1237 1242
2785 10 2277 2278 2281
2786 11 2277 2278 2282
2787 11 2277 2278 2283
2788 5 2281 2278 2282
2789 5 2281 2278 2283
2790 6 2282 2278 2283
2791 7 2290 2293 2296
2792 5 2290 2293 2297
2793 5 2290 2293 2298
2794 5 2296 2293 2297
2795 5 2296 2293 2298
2796 6 2297 2293 2298
2797 7 1237 1240 1243
2798 5 1237 1240 1244
2799 5 1237 1240 1245
2800 5 1243 1240 1244
2801 5 1243 1240 1245
2802 6 1244 1240 1245
2803 7 2287 2290 2293
2804 5 2287 2290 2294
2805 5 2287 2290 2295
2806 5 2293 2290 2294
2807 5 2293 2290 2295
2808 6 2294 2290 2295
2809 7 1240 1243 1246
2810 5 1240 1243 1247
2811 5 1240 1243 1248
2812 5 1246 1243 1247
2813 5 1246 1243 1248
2814 6 1247 1243 1248
2815 5 1243 1246 1249
2816 5 1243 1246 1250
2817 5 1243 1246 1251
2818 6 1249 1246 1250
2819 6 1249 1246 1251
2820 6 1250 1246 1251
2821 7 2278 2281 2284
2822 5 2278 2281 2285
2823 5 2278 2281 2286
2824 5 2284 2281 2285
2825 5 2284 2281 2286
2826 6 2285 2281 2286
2827 8 2278 2277 2279
2828 8 2278 2277 2280
2829 9 2279 2277 2280
2830 5 2293 2296 2299
2831 5 2293 2296 2300
2832 5 2293 2296 2301
2833 6 2299 2296 2300
2834 6 2299 2296 2301
2835 6 2300 2296 2301
2836 10 1727 1728 1731
2837 11 1727 1728 1732
2838 11 1727 1728 1733
2839 5 1731 1728 1732
2840 5 1731 1728 1733
2841 6 1732 1728 1733
2842 7 464 468 471
2843 5 464 468 472
2844 5 464 468 473
2845 5 471 468 472
2846 5 471 468 473
2847 6 472 468 473
2848 1 254 253 255
2849 1 254 253 256
2850 1 254 253 257
2851 2 255 253 256
2852 2 255 253 257
2853 2 256 253 257
2854 3 463 464 468
2855 4 463 464 469
2856 4 463 464 470
2857 5 468 464 469
2858 5 468 464 470
2859 6 469 464 470
2860 3 323 324 328
2861 4 323 324 329
2862 4 323 324 330
2863 5 328 324 329
2864 5 328 324 330
2865 6 329 324 330
2866 1 324 323 325
2867 1 324 323 326
2868 1 324 323 327
2869 2 325 323 326
2870 2 325 323 327
2871 2 326 323 327
2872 7 324 328 331
2873 5 324 328 332
2874 5 324 328 333
2875 5 331 328 332
2876 5 331 328 333
2877 6 332 328 333
2878 5 328 331 334
2879 5 328 331 335
2880 5 328 331 336
2881 6 334 331 335
2882 6 334 331 336
2883 6 335 331 336
2884 8 1128 1127 1129
2885 8 1128 1127 1130
2886 9 1129 1127 1130
2887 1 464 463 465
2888 1 464 463 466
2889 1 464 463 467
2890 2 465 463 466
2891 2 465 463 467
2892 2 466 463 467
2893 5 342 345 348
2894 5 342 345 349
2895 5 342 345 350
2896 6 348 345 349
2897 6 348 345 350
2898 6 349 345 350
2899 8 1928 1927 1929
2900 8 1928 1927 1930
2901 9 1929 1927 1930
2902 10 1127 1128 1131
2903 11 1127 1128 1132
2904 11 1127 1128 1133
2905 5 1131 1128 1132
2906 5 1131 1128 1133
2907 6 1132 1128 1133
2908 7 338 342 345
2909 5 338 342 346
2910 5 338 342 347
2911 5 345 342 346
2912 5 345 342 347
2913 6 346 342 347
2914 7 1128 1131 1134
2915 5 1128 1131 1135
2916 5 1128 1131 1136
2917 5 1134 1131 1135
2918 5 1134 1131 1136
2919 6 1135 1131 1136
2920 10 1552 1553 1556
2921 11 1552 1553 1557
2922 11 1552 1553 1558
2923 5 1556 1553 1557
2924 5 1556 1553 1558
2925 6 1557 1553 1558
2926 5 1568 1571 1574
2927 5 1568 1571 1575
2928 5 1568 1571 1576
2929 6 1574 1571 1575
2930 6 1574 1571 1576
2931 6 1575 1571 1576
2932 7 1553 1556 1559
2933 5 1553 1556 1560
2934 5 1553 1556 1561
2935 5 1559 1556 1560
2936 5 1559 1556 1561
2937 6 1560 1556 1561
2938 1 338 337 339
2939 1 338 337 340
2940 1 338 337 341
2941 2 339 337 340
2942 2 339 337 341
2943 2 340 337 341
2944 3 337 338 342
2945 4 337 338 343
2946 4 337 338 344
2947 5 342 338 343
2948 5 342 338 344
2949 6 343 338 344
2950 10 1152 1153 1156
2951 11 1152 1153 1157
2952 11 1152 1153 1158
2953 5 1156 1153 1157
2954 5 1156 1153 1158
2955 6 1157 1153 1158
2956 7 1153 1156 1159
2957 5 1153 1156 1160
2958 5 1153 1156 1161
2959 5 1159 1156 1160
2960 5 1159 1156 1161
2961 6 1160 1156 1161
2962 8 1153 1152 1154
2963 8 1153 1152 1155
2964 9 1154 1152 1155
2965 7 1156 1159 1162
2966 5 1156 1159 1163
2967 5 1156 1159 1164
2968 5 1162 1159 1163
2969 5 1162 1159 1164
2970 6 1163 1159 1164
2971 7 1159 1162 1165
2972 5 1159 1162 1166
2973 5 1159 1162 1167
2974 5 1165 1162 1166
2975 5 1165 1162 1167
2976 6 1166 1162 1167
2977 7 912 915 918
2978 5 912 915 919
2979 5 912 915 920
2980 5 918 915 919
2981 5 918 915 920
2982 6 919 915 920
2983 1 534 533 535
2984 1 534 533 536
2985 1 534 533 537
2986 2 535 533 536
2987 2 535 533 537
2988 2 536 533 537
2989 7 1162 1165 1168
2990 5 1162 1165 1169
2991 5 1162 1165 1170
2992 5 1168 1165 1169
2993 5 1168 1165 1170
2994 6 1169 1165 1170
2995 7 1165 1168 1171
2996 5 1165 1168 1172
2997 5 1165 1168 1173
2998 5 1171 1168 1172
2999 5 1171 1168 1173
3000 6 1172 1168 1173
3001 5 1168 1171 1174
3002 5 1168 1171 1175
3003 5 1168 1171 1176
3004 6 1174 1171 1175
3005 6 1174 1171 1176
3006 6 1175 1171 1176
3007 8 2053 2052 2054
3008 8 2053 2052 2055
3009 9 2054 2052 2055
3010 7 380 384 387
3011 5 380 384 388
3012 5 380 384 389
3013 5 387 384 388
3014 5 387 384 389
3015 6 388 384 389
3016 5 384 387 390
3017 5 384 387 391
3018 5 384 387 392
3019 6 390 387 391
3020 6 390 387 392
3021 6 391 387 392
3022 3 687 688 692
3023 4 687 688 693
3024 4 687 688 694
3025 5 692 688 693
3026 5 692 688 694
3027 6 693 688 694
3028 1 380 379 381
3029 1 380 379 382
3030 1 380 379 383
3031 2 381 379 382
3032 2 381 379 383
3033 2 382 379 383
3034 8 1728 1727 1729
3035 8 1728 1727 1730
3036 9 1729 1727 1730
3037 10 2052 2053 2056
3038 11 2052 2053 2057
3039 11 2052 2053 2058
3040 5 2056 2053 2057
3041 5 2056 2053 2058
3042 6 2057 2053 2058
3043 5 1943 1946 1949
3044 5 1943 1946 1950
3045 5 1943 1946 1951
3046 6 1949 1946 1950
3047 6 1949 1946 1951
3048 6 1950 1946 1951
3049 7 1931 1934 1937
3050 5 1931 1934 1938
3051 5 1931 1934 1939
3052 5 1937 1934 1938
3053 5 1937 1934 1939
3054 6 1938 1934 1939
3055 7 1934 1937 1940
3056 5 1934 1937 1941
3057 5 1934 1937 1942
3058 5 1940 1937 1941
3059 5 1940 1937 1942
3060 6 1941 1937 1942
3061 7 1937 1940 1943
3062 5 1937 1940 1944
3063 5 1937 1940 1945
3064 5 1943 1940 1944
3065 5 1943 1940 1945
3066 6 1944 1940 1945
3067 7 1940 1943 1946
3068 5 1940 1943 1947
3069 5 1940 1943 1948
3070 5 1946 1943 1947
3071 5 1946 1943 1948
3072 6 1947 1943 1948
3073 7 1928 1931 1934
3074 5 1928 1931 1935
3075 5 1928 1931 1936
3076 5 1934 1931 1935
3077 5 1934 1931 1936
3078 6 1935 1931 1936
3079 1 408 407 409
3080 1 408 407 410
3081 1 408 407 411
3082 2 409 407 410
3083 2 409 407 411
3084 2 410 407 411
3085 5 412 415 418
3086 5 412 415 419
3087 5 412 415 420
3088 6 418 415 419
3089 6 418 415 420
3090 6 419 415 420
3091 7 408 412 415
3092 5 408 412 416
3093 5 408 412 417
3094 5 415 412 416
3095 5 415 412 417
3096 6 416 412 417
3097 3 407 408 412
3098 4 407 408 413
3099 4 407 408 414
3100 5 412 408 413
3101 5 412 408 414
3102 6 413 408 414
3103 5 692 695 698
3104 5 692 695 699
3105 5 692 695 700
3106 6 698 695 699
3107 6 698 695 700
3108 6 699 695 700
3109 7 1728 1731 1734
3110 5 1728 1731 1735
3111 5 1728 1731 1736
3112 5 1734 1731 1735
3113 5 1734 1731 1736
3114 6 1735 1731 1736
3115 7 1706 1709 1712
3116 5 1706 1709 1713
3117 5 1706 1709 1714
3118 5 1712 1709 1713
3119 5 1712 1709 1714
3120 6 1713 1709 1714
3121 7 58 62 65
3122 5 58 62 66
3123 5 58 62 67
3124 5 65 62 66
3125 5 65 62 67
3126 6 66 62 67
3127 5 62 65 68
3128 5 62 65 69
3129 5 62 65 70
3130 6 68 65 69
3131 6 68 65 70
3132 6 69 65 70
3133 3 57 58 62
3134 4 57 58 63
3135 4 57 58 64
3136 5 62 58 63
3137 5 62 58 64
3138 6 63 58 64
3139 1 58 57 59
3140 1 58 57 60
3141 1 58 57 61
3142 2 59 57 60
3143 2 59 57 61
3144 2 60 57 61
3145 8 1178 1177 1179
3146 8 1178 1177 1180
3147 9 1179 1177 1180
3148 10 1177 1178 1181
3149 11 1177 1178 1182
3150 11 1177 1178 1183
3151 5 1181 1178 1182
3152 5 1181 1178 1183
3153 6 1182 1178 1183
3154 7 1703 1706 1709
3155 5 1703 1706 1710
3156 5 1703 1706 1711
3157 5 1709 1706 1710
3158 5 1709 1706 1711
3159 6 1710 1706 1711
3160 1 310 309 311
3161 1 310 309 312
3162 1 310 309 313
3163 2 311 309 312
3164 2 311 309 313
3165 2 312 309 313
3166 7 1709 1712 1715
3167 5 1709 1712 1716
3168 5 1709 1712 1717
3169 5 1715 1712 1716
3170 5 1715 1712 1717
3171 6 1716 1712 1717
3172 3 309 310 314
3173 4 309 310 315
3174 4 309 310 316
3175 5 314 310 315
3176 5 314 310 316
3177 6 315 310 316
3178 10 1777 1778 1781
3179 11 1777 1778 1782
3180 11 1777 1778 1783
3181 5 1781 1778 1782
3182 5 1781 1778 1783
3183 6 1782 1778 1783
3184 1 660 659 661
3185 1 660 659 662
3186 1 660 659 663
3187 2 661 659 662
3188 2 661 659 663
3189 2 662 659 663
3190 8 1253 1252 1254
3191 8 1253 1252 1255
3192 9 1254 1252 1255
3193 7 1256 1259 1262
3194 5 1256 1259 1263
3195 5 1256 1259 1264
3196 5 1262 1259 1263
3197 5 1262 1259 1264
3198 6 1263 1259 1264
3199 10 1252 1253 1256
3200 11 1252 1253 1257
3201 11 1252 1253 1258
3202 5 1256 1253 1257
3203 5 1256 1253 1258
3204 6 1257 1253 1258
3205 7 1253 1256 1259
3206 5 1253 1256 1260
3207 5 1253 1256 1261
3208 5 1259 1256 1260
3209 5 1259 1256 1261
3210 6 1260 1256 1261
3211 7 1259 1262 1265
3212 5 1259 1262 1266
3213 5 1259 1262 1267
3214 5 1265 1262 1266
3215 5 1265 1262 1267
3216 6 1266 1262 1267
3217 3 659 660 664
3218 4 659 660 665
3219 4 659 660 666
3220 5 664 660 665
3221 5 664 660 666
3222 6 665 660 666
3223 7 1778 1781 1784
3224 5 1778 1781 1785
3225 5 1778 1781 1786
3226 5 1784 1781 1785
3227 5 1784 1781 1786
3228 6 1785 1781 1786
3229 5 993 996 999
3230 5 993 996 1000
3231 5 993 996 1001
3232 6 999 996 1000
3233 6 999 996 1001
3234 6 1000 996 1001
3235 7 987 990 993
3236 5 987 990 994
3237 5 987 990 995
3238 5 993 990 994
3239 5 993 990 995
3240 6 994 990 995
3241 7 990 993 996
3242 5 990 993 997
3243 5 990 993 998
3244 5 996 993 997
3245 5 996 993 998
3246 6 997 993 998
3247 7 1262 1265 1268
3248 5 1262 1265 1269
3249 5 1262 1265 1270
3250 5 1268 1265 1269
3251 5 1268 1265 1270
3252 6 1269 1265 1270
3253 7 984 987 990
3254 5 984 987 991
3255 5 984 987 992
3256 5 990 987 991
3257 5 990 987 992
3258 6 991 987 992
3259 7 981 984 987
3260 5 981 984 988
3261 5 981 984 989
3262 5 987 984 988
3263 5 987 984 989
3264 6 988 984 989
3265 7 978 981 984
3266 5 978 981 985
3267 5 978 981 986
3268 5 984 981 985
3269 5 984 981 986
3270 6 985 981 986
3271 10 977 978 981
3272 11 977 978 982
3273 11 977 978 983
3274 5 981 978 982
3275 5 981 978 983
3276 6 982 978 983
3277 8 978 977 979
3278 8 978 977 980
3279 9 979 977 980
3280 1 2 1 3
3281 1 2 1 4
3282 1 2 1 5
3283 2 3 1 4
3284 2 3 1 5
3285 2 4 1 5
3286 1 688 687 689
3287 1 688 687 690
3288 1 688 687 691
3289 2 689 687 690
3290 2 689 687 691
3291 2 690 687 691
3292 5 2093 2096 2099
3293 5 2093 2096 2100
3294 5 2093 2096 2101
3295 6 2099 2096 2100
3296 6 2099 2096 2101
3297 6 2100 2096 2101
3298 7 1637 1640 1643
3299 5 1637 1640 1644
3300 5 1637 1640 1645
3301 5 1643 1640 1644
3302 5 1643 1640 1645
3303 6 1644 1640 1645
3304 7 100 104 107
3305 5 100 104 108
3306 5 100 104 109
3307 5 107 104 108
3308 5 107 104 109
3309 6 108 104 109
3310 3 99 100 104
3311 4 99 100 105
3312 4 99 100 106
3313 5 104 100 105
3314 5 104 100 106
3315 6 105 100 106
3316 1 100 99 101
3317 1 100 99 102
3318 1 100 99 103
3319 2 101 99 102
3320 2 101 99 103
3321 2 102 99 103
3322 5 104 107 110
3323 5 104 107 111
3324 5 104 107 112
3325 6 110 107 111
3326 6 110 107 112
3327 6 111 107 112
3328 7 1890 1893 1896
3329 5 1890 1893 1897
3330 5 1890 1893 1898
3331 5 1896 1893 1897
3332 5 1896 1893 1898
3333 6 1897 1893 1898
3334 5 1893 1896 1899
3335 5 1893 1896 1900
3336 5 1893 1896 1901
3337 6 1899 1896 1900
3338 6 1899 1896 1901
3339 6 1900 1896 1901
3340 10 1702 1703 1706
3341 11 1702 1703 1707
3342 11 1702 1703 1708
3343 5 1706 1703 1707
3344 5 1706 1703 1708
3345 6 1707 1703 1708
3346 8 1703 1702 1704
3347 8 1703 1702 1705
3348 9 1704 1702 1705
3349 1 478 477 479
3350 1 478 477 480
3351 1 478 477 481
3352 2 479 477 480
3353 2 479 477 481
3354 2 480 477 481
3355 3 477 478 482
3356 4 477 478 483
3357 4 477 478 484
3358 5 482 478 483
3359 5 482 478 484
3360 6 483 478 484
3361 7 478 482 485
3362 5 478 482 486
3363 5 478 482 487
3364 5 485 482 486
3365 5 485 482 487
3366 6 486 482 487
3367 7 1881 1884 1887
3368 5 1881 1884 1888
3369 5 1881 1884 1889
3370 5 1887 1884 1888
3371 5 1887 1884 1889
3372 6 1888 1884 1889
3373 5 482 485 488
3374 5 482 485 489
3375 5 482 485 490
3376 6 488 485 489
3377 6 488 485 490
3378 6 489 485 490
3379 1 198 197 199
3380 1 198 197 200
3381 1 198 197 201
3382 2 199 197 200
3383 2 199 197 201
3384 2 200 197 201
3385 7 296 300 303
3386 5 296 300 304
3387 5 296 300 305
3388 5 303 300 304
3389 5 303 300 305
3390 6 304 300 305
3391 5 300 303 306
3392 5 300 303 307
3393 5 300 303 308
3394 6 306 303 307
3395 6 306 303 308
3396 6 307 303 308
3397 7 1753 1756 1759
3398 5 1753 1756 1760
3399 5 1753 1756 1761
3400 5 1759 1756 1760
3401 5 1759 1756 1761
3402 6 1760 1756 1761
3403 10 1752 1753 1756
3404 11 1752 1753 1757
3405 11 1752 1753 1758
3406 5 1756 1753 1757
3407 5 1756 1753 1758
3408 6 1757 1753 1758
3409 7 1884 1887 1890
3410 5 1884 1887 1891
3411 5 1884 1887 1892
3412 5 1890 1887 1891
3413 5 1890 1887 1892
3414 6 1891 1887 1892
3415 10 1202 1203 1206
3416 11 1202 1203 1207
3417 11 1202 1203 1208
3418 5 1206 1203 1207
3419 5 1206 1203 1208
3420 6 1207 1203 1208
3421 8 1953 1952 1954
3422 8 1953 1952 1955
3423 9 1954 1952 1955
3424 5 2193 2196 2199
3425 5 2193 2196 2200
3426 5 2193 2196 2201
3427 6 2199 2196 2200
3428 6 2199 2196 2201
3429 6 2200 2196 2201
3430 3 295 296 300
3431 4 295 296 301
3432 4 295 296 302
3433 5 300 296 301
3434 5 300 296 302
3435 6 301 296 302
3436 7 2190 2193 2196
3437 5 2190 2193 2197
3438 5 2190 2193 2198
3439 5 2196 2193 2197
3440 5 2196 2193 2198
3441 6 2197 2193 2198
3442 1 296 295 297
3443 1 296 295 298
3444 1 296 295 299
3445 2 297 295 298
3446 2 297 295 299
3447 2 298 295 299
3448 8 1203 1202 1204
3449 8 1203 1202 1205
3450 9 1204 1202 1205
3451 1 44 43 45
3452 1 44 43 46
3453 1 44 43 47
3454 2 45 43 46
3455 2 45 43 47
3456 2 46 43 47
3457 7 44 48 51
3458 5 44 48 52
3459 5 44 48 53
3460 5 51 48 52
3461 5 51 48 53
3462 6 52 48 53
3463 3 43 44 48
3464 4 43 44 49
3465 4 43 44 50
3466 5 48 44 49
3467 5 48 44 50
3468 6 49 44 50
3469 5 48 51 54
3470 5 48 51 55
3471 5 48 51 56
3472 6 54 51 55
3473 6 54 51 56
3474 6 55 51 56
3475 7 2 6 9
3476 5 2 6 10
3477 5 2 6 11
3478 5 9 6 10
3479 5 9 6 11
3480 6 10 6 11
3481 7 2187 2190 2193
3482 5 2187 2190 2194
3483 5 2187 2190 2195
3484 5 2193 2190 2194
3485 5 2193 2190 2195
3486 6 2194 2190 2195
3487 7 2178 2181 2184
3488 5 2178 2181 2185
3489 5 2178 2181 2186
3490 5 2184 2181 2185
3491 5 2184 2181 2186
3492 6 2185 2181 2186
3493 7 1953 1956 1959
3494 5 1953 1956 1960
3495 5 1953 1956 1961
3496 5 1959 1956 1960
3497 5 1959 1956 1961
3498 6 1960 1956 1961
3499 10 1952 1953 1956
3500 11 1952 1953 1957
3501 11 1952 1953 1958
3502 5 1956 1953 1957
3503 5 1956 1953 1958
3504 6 1957 1953 1958
3505 10 2177 2178 2181
3506 11 2177 2178 2182
3507 11 2177 2178 2183
3508 5 2181 2178 2182
3509 5 2181 2178 2183
3510 6 2182 2178 2183
3511 3 1 2 6
3512 4 1 2 7
3513 4 1 2 8
3514 5 6 2 7
3515 5 6 2 8
3516 6 7 2 8
3517 7 2184 2187 2190
3518 5 2184 2187 2191
3519 5 2184 2187 2192
3520 5 2190 2187 2191
3521 5 2190 2187 2192
3522 6 2191 2187 2192
3523 7 2181 2184 2187
3524 5 2181 2184 2188
3525 5 2181 2184 2189
3526 5 2187 2184 2188
3527 5 2187 2184 2189
3528 6 2188 2184 2189
3529 5 6 9 12
3530 5 6 9 13
3531 5 6 9 14
3532 6 12 9 13
3533 6 12 9 14
3534 6 13 9 14
3535 7 890 893 896
3536 5 890 893 897
3537 5 890 893 898
3538 5 896 893 897
3539 5 896 893 898
3540 6 897 893 898
3541 7 887 890 893
3542 5 887 890 894
3543 5 887 890 895
3544 5 893 890 894
3545 5 893 890 895
3546 6 894 890 895
3547 7 1956 1959 1962
3548 5 1956 1959 1963
3549 5 1956 1959 1964
3550 5 1962 1959 1963
3551 5 1962 1959 1964
3552 6 1963 1959 1964
3553 5 893 896 899
3554 5 893 896 900
3555 5 893 896 901
3556 6 899 896 900
3557 6 899 896 901
3558 6 900 896 901
3559 7 1887 1890 1893
3560 5 1887 1890 1894
3561 5 1887 1890 1895
3562 5 1893 1890 1894
3563 5 1893 1890 1895
3564 6 1894 1890 1895
3565 7 884 887 890
3566 5 884 887 891
3567 5 884 887 892
3568 5 890 887 891
3569 5 890 887 892
3570 6 891 887 892
3571 7 772 776 779
3572 5 772 776 780
3573 5 772 776 781
3574 5 779 776 780
3575 5 779 776 781
3576 6 780 776 781
3577 8 878 877 879
3578 8 878 877 880
3579 9 879 877 880
3580 7 881 884 887
3581 5 881 884 888
3582 5 881 884 889
3583 5 887 884 888
3584 5 887 884 889
3585 6 888 884 889
3586 10 877 878 881
3587 11 877 878 882
3588 11 877 878 883
3589 5 881 878 882
3590 5 881 878 883
3591 6 882 878 883
3592 3 631 632 636
3593 4 631 632 637
3594 4 631 632 638
3595 5 636 632 637
3596 5 636 632 638
3597 6 637 632 638
3598 7 632 636 639
3599 5 632 636 640
3600 5 632 636 641
3601 5 639 636 640
3602 5 639 636 641
3603 6 640 636 641
3604 7 878 881 884
3605 5 878 881 885
3606 5 878 881 886
3607 5 884 881 885
3608 5 884 881 886
3609 6 885 881 886
3610 5 636 639 642
3611 5 636 639 643
3612 5 636 639 644
3613 6 642 639 643
3614 6 642 639 644
3615 6 643 639 644
3616 8 1903 1902 1904
3617 8 1903 1902 1905
3618 9 1904 1902 1905
3619 7 394 398 401
3620 5 394 398 402
3621 5 394 398 403
3622 5 401 398 402
3623 5 401 398 403
3624 6 402 398 403
3625 7 646 650 653
3626 5 646 650 654
3627 5 646 650 655
3628 5 653 650 654
3629 5 653 650 655
3630 6 654 650 655
3631 5 650 653 656
3632 5 650 653 657
3633 5 650 653 658
3634 6 656 653 657
3635 6 656 653 658
3636 6 657 653 658
3637 7 1903 1906 1909
3638 5 1903 1906 1910
3639 5 1903 1906 1911
3640 5 1909 1906 1910
3641 5 1909 1906 1911
3642 6 1910 1906 1911
3643 5 426 429 432
3644 5 426 429 433
3645 5 426 429 434
3646 6 432 429 433
3647 6 432 429 434
3648 6 433 429 434
3649 7 422 426 429
3650 5 422 426 430
3651 5 422 426 431
3652 5 429 426 430
3653 5 429 426 431
3654 6 430 426 431
3655 10 1902 1903 1906
3656 11 1902 1903 1907
3657 11 1902 1903 1908
3658 5 1906 1903 1907
3659 5 1906 1903 1908
3660 6 1907 1903 1908
3661 7 1003 1006 1009
3662 5 1003 1006 1010
3663 5 1003 1006 1011
3664 5 1009 1006 1010
3665 5 1009 1006 1011
3666 6 1010 1006 1011
3667 5 398 401 404
3668 5 398 401 405
3669 5 398 401 406
3670 6 404 401 405
3671 6 404 401 406
3672 6 405 401 406
3673 3 393 394 398
3674 4 393 394 399
3675 4 393 394 400
3676 5 398 394 399
3677 5 398 394 400
3678 6 399 394 400
3679 7 1665 1668 1671
3680 5 1665 1668 1672
3681 5 1665 1668 1673
3682 5 1671 1668 1672
3683 5 1671 1668 1673
3684 6 1672 1668 1673
3685 7 1659 1662 1665
3686 5 1659 1662 1666
3687 5 1659 1662 1667
3688 5 1665 1662 1666
3689 5 1665 1662 1667
3690 6 1666 1662 1667
3691 7 1909 1912 1915
3692 5 1909 1912 1916
3693 5 1909 1912 1917
3694 5 1915 1912 1916
3695 5 1915 1912 1917
3696 6 1916 1912 1917
3697 7 1906 1909 1912
3698 5 1906 1909 1913
3699 5 1906 1909 1914
3700 5 1912 1909 1913
3701 5 1912 1909 1914
3702 6 1913 1909 1914
3703 7 1912 1915 1918
3704 5 1912 1915 1919
3705 5 1912 1915 1920
3706 5 1918 1915 1919
3707 5 1918 1915 1920
3708 6 1919 1915 1920
3709 5 678 681 684
3710 5 678 681 685
3711 5 678 681 686
3712 6 684 681 685
3713 6 684 681 686
3714 6 685 681 686
3715 5 804 807 810
3716 5 804 807 811
3717 5 804 807 812
3718 6 810 807 811
3719 6 810 807 812
3720 6 811 807 812
3721 7 800 804 807
3722 5 800 804 808
3723 5 800 804 809
3724 5 807 804 808
3725 5 807 804 809
3726 6 808 804 809
3727 7 1228 1231 1234
3728 5 1228 1231 1235
3729 5 1228 1231 1236
3730 5 1234 1231 1235
3731 5 1234 1231 1236
3732 6 1235 1231 1236
3733 7 1403 1406 1409
3734 5 1403 1406 1410
3735 5 1403 1406 1411
3736 5 1409 1406 1410
3737 5 1409 1406 1411
3738 6 1410 1406 1411
3739 3 799 800 804
3740 4 799 800 805
3741 4 799 800 806
3742 5 804 800 805
3743 5 804 800 806
3744 6 805 800 806
3745 10 1227 1228 1231
3746 11 1227 1228 1232
3747 11 1227 1228 1233
3748 5 1231 1228 1232
3749 5 1231 1228 1233
3750 6 1232 1228 1233
3751 8 1228 1227 1229
3752 8 1228 1227 1230
3753 9 1229 1227 1230
3754 1 800 799 801
3755 1 800 799 802
3756 1 800 799 803
3757 2 801 799 802
3758 2 801 799 803
3759 2 802 799 803
3760 1 422 421 423
3761 1 422 421 424
3762 1 422 421 425
3763 2 423 421 424
3764 2 423 421 425
3765 2 424 421 425
3766 3 421 422 426
3767 4 421 422 427
3768 4 421 422 428
3769 5 426 422 427
3770 5 426 422 428
3771 6 427 422 428
3772 7 1409 1412 1415
3773 5 1409 1412 1416
3774 5 1409 1412 1417
3775 5 1415 1412 1416
3776 5 1415 1412 1417
3777 6 1416 1412 1417
3778 7 1731 1734 1737
3779 5 1731 1734 1738
3780 5 1731 1734 1739
3781 5 1737 1734 1738
3782 5 1737 1734 1739
3783 6 1738 1734 1739
3784 10 1002 1003 1006
3785 11 1002 1003 1007
3786 11 1002 1003 1008
3787 5 1006 1003 1007
3788 5 1006 1003 1008
3789 6 1007 1003 1008
3790 5 776 779 782
3791 5 776 779 783
3792 5 776 779 784
3793 6 782 779 783
3794 6 782 779 784
3795 6 783 779 784
3796 5 1743 1746 1749
3797 5 1743 1746 1750
3798 5 1743 1746 1751
3799 6 1749 1746 1750
3800 6 1749 1746 1751
3801 6 1750 1746 1751
3802 7 1740 1743 1746
3803 5 1740 1743 1747
3804 5 1740 1743 1748
3805 5 1746 1743 1747
3806 5 1746 1743 1748
3807 6 1747 1743 1748
3808 7 1734 1737 1740
3809 5 1734 1737 1741
3810 5 1734 1737 1742
3811 5 1740 1737 1741
3812 5 1740 1737 1742
3813 6 1741 1737 1742
3814 7 1737 1740 1743
3815 5 1737 1740 1744
3816 5 1737 1740 1745
3817 5 1743 1740 1744
3818 5 1743 1740 1745
3819 6 1744 1740 1745
3820 7 1009 1012 1015
3821 5 1009 1012 1016
3822 5 1009 1012 1017
3823 5 1015 1012 1016
3824 5 1015 1012 1017
3825 6 1016 1012 1017
3826 7 1131 1134 1137
3827 5 1131 1134 1138
3828 5 1131 1134 1139
3829 5 1137 1134 1138
3830 5 1137 1134 1139
3831 6 1138 1134 1139
3832 7 1134 1137 1140
3833 5 1134 1137 1141
3834 5 1134 1137 1142
3835 5 1140 1137 1141
3836 5 1140 1137 1142
3837 6 1141 1137 1142
3838 7 1137 1140 1143
3839 5 1137 1140 1144
3840 5 1137 1140 1145
3841 5 1143 1140 1144
3842 5 1143 1140 1145
3843 6 1144 1140 1145
3844 7 1140 1143 1146
3845 5 1140 1143 1147
3846 5 1140 1143 1148
3847 5 1146 1143 1147
3848 5 1146 1143 1148
3849 6 1147 1143 1148
3850 5 1143 1146 1149
3851 5 1143 1146 1150
3852 5 1143 1146 1151
3853 6 1149 1146 1150
3854 6 1149 1146 1151
3855 6 1150 1146 1151
3856 7 1012 1015 1018
3857 5 1012 1015 1019
3858 5 1012 1015 1020
3859 5 1018 1015 1019
3860 5 1018 1015 1020
3861 6 1019 1015 1020
3862 8 1778 1777 1779
3863 8 1778 1777 1780
3864 9 1779 1777 1780
3865 5 664 667 670
3866 5 664 667 671
3867 5 664 667 672
3868 6 670 667 671
3869 6 670 667 672
3870 6 671 667 672
3871 7 1915 1918 1921
3872 5 1915 1918 1922
3873 5 1915 1918 1923
3874 5 1921 1918 1922
3875 5 1921 1918 1923
3876 6 1922 1918 1923
3877 7 909 912 915
3878 5 909 912 916
3879 5 909 912 917
3880 5 915 912 916
3881 5 915 912 917
3882 6 916 912 917
3883 7 716 720 723
3884 5 716 720 724
3885 5 716 720 725
3886 5 723 720 724
3887 5 723 720 725
3888 6 724 720 725
3889 7 906 909 912
3890 5 906 909 913
3891 5 906 909 914
3892 5 912 909 913
3893 5 912 909 914
3894 6 913 909 914
3895 7 903 906 909
3896 5 903 906 910
3897 5 903 906 911
3898 5 909 906 910
3899 5 909 906 911
3900 6 910 906 911
3901 5 1918 1921 1924
3902 5 1918 1921 1925
3903 5 1918 1921 1926
3904 6 1924 1921 1925
3905 6 1924 1921 1926
3906 6 1925 1921 1926
3907 7 660 664 667
3908 5 660 664 668
3909 5 660 664 669
3910 5 667 664 668
3911 5 667 664 669
3912 6 668 664 669
3913 10 902 903 906
3914 11 902 903 907
3915 11 902 903 908
3916 5 906 903 907
3917 5 906 903 908
3918 6 907 903 908
3919 3 281 282 286
3920 4 281 282 287
3921 4 281 282 288
3922 5 286 282 287
3923 5 286 282 288
3924 6 287 282 288
3925 8 903 902 904
3926 8 903 902 905
3927 9 904 902 905
3928 1 282 281 283
3929 1 282 281 284
3930 1 282 281 285
3931 2 283 281 284
3932 2 283 281 285
3933 2 284 281 285
3934 7 282 286 289
3935 5 282 286 290
3936 5 282 286 291
3937 5 289 286 290
3938 5 289 286 291
3939 6 290 286 291
3940 5 286 289 292
3941 5 286 289 293
3942 5 286 289 294
3943 6 292 289 293
3944 6 292 289 294
3945 6 293 289 294
3946 3 715 716 720
3947 4 715 716 721
3948 4 715 716 722
3949 5 720 716 721
3950 5 720 716 722
3951 6 721 716 722
3952 3 379 380 384
3953 4 379 380 385
3954 4 379 380 386
3955 5 384 380 385
3956 5 384 380 386
3957 6 385 380 386
3958 7 1406 1409 1412
3959 5 1406 1409 1413
3960 5 1406 1409 1414
3961 5 1412 1409 1413
3962 5 1412 1409 1414
3963 6 1413 1409 1414
3964 8 1403 1402 1404
3965 8 1403 1402 1405
3966 9 1404 1402 1405
3967 10 2102 2103 2106
3968 11 2102 2103 2107
3969 11 2102 2103 2108
3970 5 2106 2103 2107
3971 5 2106 2103 2108
3972 6 2107 2103 2108
3973 7 2106 2109 2112
3974 5 2106 2109 2113
3975 5 2106 2109 2114
3976 5 2112 2109 2113
3977 5 2112 2109 2114
3978 6 2113 2109 2114
3979 8 2103 2102 2104
3980 8 2103 2102 2105
3981 9 2104 2102 2105
3982 7 2103 2106 2109
3983 5 2103 2106 2110
3984 5 2103 2106 2111
3985 5 2109 2106 2110
3986 5 2109 2106 2111
3987 6 2110 2106 2111
3988 1 716 715 717
3989 1 716 715 718
3990 1 716 715 719
3991 2 717 715 718
3992 2 717 715 719
3993 2 718 715 719
3994 7 1634 1637 1640
3995 5 1634 1637 1641
3996 5 1634 1637 1642
3997 5 1640 1637 1641
3998 5 1640 1637 1642
3999 6 1641 1637 1642
4000 7 1015 1018 1021
4001 5 1015 1018 1022
4002 5 1015 1018 1023
4003 5 1021 1018 1022
4004 5 1021 1018 1023
4005 6 1022 1018 1023
4006 7 2115 2118 2121
4007 5 2115 2118 2122
4008 5 2115 2118 2123
4009 5 2121 2118 2122
4010 5 2121 2118 2123
4011 6 2122 2118 2123
4012 7 1006 1009 1012
4013 5 1006 1009 1013
4014 5 1006 1009 1014
4015 5 1012 1009 1013
4016 5 1012 1009 1014
4017 6 1013 1009 1014
4018 7 688 692 695
4019 5 688 692 696
4020 5 688 692 697
4021 5 695 692 696
4022 5 695 692 697
4023 6 696 692 697
4024 7 1640 1643 1646
4025 5 1640 1643 1647
4026 5 1640 1643 1648
4027 5 1646 1643 1647
4028 5 1646 1643 1648
4029 6 1647 1643 1648
4030 5 1643 1646 1649
4031 5 1643 1646 1650
4032 5 1643 1646 1651
4033 6 1649 1646 1650
4034 6 1649 1646 1651
4035 6 1650 1646 1651
4036 5 1018 1021 1024
4037 5 1018 1021 1025
4038 5 1018 1021 1026
4039 6 1024 1021 1025
4040 6 1024 1021 1026
4041 6 1025 1021 1026
4042 5 1418 1421 1424
4043 5 1418 1421 1425
4044 5 1418 1421 1426
4045 6 1424 1421 1425
4046 6 1424 1421 1426
4047 6 1425 1421 1426
4048 7 2112 2115 2118
4049 5 2112 2115 2119
4050 5 2112 2115 2120
4051 5 2118 2115 2119
4052 5 2118 2115 2120
4053 6 2119 2115 2120
4054 7 1415 1418 1421
4055 5 1415 1418 1422
4056 5 1415 1418 1423
4057 5 1421 1418 1422
4058 5 1421 1418 1423
4059 6 1422 1418 1423
4060 7 2109 2112 2115
4061 5 2109 2112 2116
4062 5 2109 2112 2117
4063 5 2115 2112 2116
4064 5 2115 2112 2117
4065 6 2116 2112 2117
4066 7 1412 1415 1418
4067 5 1412 1415 1419
4068 5 1412 1415 1420
4069 5 1418 1415 1419
4070 5 1418 1415 1420
4071 6 1419 1415 1420

Dihedrals

1 4 460 457 454 450
2 6 460 457 454 458
3 6 460 457 454 459
4 4 461 457 454 450
5 6 461 457 454 458
6 6 461 457 454 459
7 4 462 457 454 450
8 6 462 457 454 458
9 6 462 457 454 459
10 3 457 454 450 449
11 4 457 454 450 455
12 4 457 454 450 456
13 5 458 454 450 449
14 6 458 454 450 455
15 6 458 454 450 456
16 5 459 454 450 449
17 6 459 454 450 455
18 6 459 454 450 456
19 12 2153 2154 2152 2155
20 9 2159 2156 2153 2152
21 4 2159 2156 2153 2157
22 4 2159 2156 2153 2158
23 10 2160 2156 2153 2152
24 6 2160 2156 2153 2157
25 6 2160 2156 2153 2158
26 10 2161 2156 2153 2152
27 6 2161 2156 2153 2157
28 6 2161 2156 2153 2158
29 11 1190 1187 1184 1181
30 4 1190 1187 1184 1188
31 4 1190 1187 1184 1189
32 4 1191 1187 1184 1181
33 6 1191 1187 1184 1188
34 6 1191 1187 1184 1189
35 4 1192 1187 1184 1181
36 6 1192 1187 1184 1188
37 6 1192 1187 1184 1189
38 4 572 569 566 562
39 6 572 569 566 570
40 6 572 569 566 571
41 4 573 569 566 562
42 6 573 569 566 570
43 6 573 569 566 571
44 4 574 569 566 562
45 6 574 569 566 570
46 6 574 569 566 571
47 7 2156 2153 2152 2154
48 7 2156 2153 2152 2155
49 8 2157 2153 2152 2154
50 8 2157 2153 2152 2155
51 8 2158 2153 2152 2154
52 8 2158 2153 2152 2155
53 1 454 450 449 451
54 1 454 450 449 452
55 1 454 450 449 453
56 2 455 450 449 451
57 2 455 450 449 452
58 2 455 450 449 453
59 2 456 450 449 451
60 2 456 450 449 452
61 2 456 450 449 453
62 9 1184 1181 1178 1177
63 4 1184 1181 1178 1182
64 4 1184 1181 1178 1183
65 10 1185 1181 1178 1177
66 6 1185 1181 1178 1182
67 6 1185 1181 1178 1183
68 10 1186 1181 1178 1177
69 6 1186 1181 1178 1182
70 6 1186 1181 1178 1183
71 11 2162 2159 2156 2153
72 4 2162 2159 2156 2160
73 4 2162 2159 2156 2161
74 4 2163 2159 2156 2153
75 6 2163 2159 2156 2160
76 6 2163 2159 2156 2161
77 4 2164 2159 2156 2153
78 6 2164 2159 2156 2160
79 6 2164 2159 2156 2161
80 11 2165 2162 2159 2156
81 4 2165 2162 2159 2163
82 4 2165 2162 2159 2164
83 4 2166 2162 2159 2156
84 6 2166 2162 2159 2163
85 6 2166 2162 2159 2164
86 4 2167 2162 2159 2156
87 6 2167 2162 2159 2163
88 6 2167 2162 2159 2164
89 11 2171 2168 2165 2162
90 4 2171 2168 2165 2169
91 4 2171 2168 2165 2170
92 4 2172 2168 2165 2162
93 6 2172 2168 2165 2169
94 6 2172 2168 2165 2170
95 4 2173 2168 2165 2162
96 6 2173 2168 2165 2169
97 6 2173 2168 2165 2170
98 11 2168 2165 2162 2159
99 4 2168 2165 2162 2166
100 4 2168 2165 2162 2167
101 4 2169 2165 2162 2159
102 6 2169 2165 2162 2166
103 6 2169 2165 2162 2167
104 4 2170 2165 2162 2159
105 6 2170 2165 2162 2166
106 6 2170 2165 2162 2167
107 4 2174 2171 2168 2165
108 6 2174 2171 2168 2172
109 6 2174 2171 2168 2173
110 4 2175 2171 2168 2165
111 6 2175 2171 2168 2172
112 6 2175 2171 2168 2173
113 4 2176 2171 2168 2165
114 6 2176 2171 2168 2172
115 6 2176 2171 2168 2173
116 4 320 317 314 310
117 6 320 317 314 318
118 6 320 317 314 319
119 4 321 317 314 310
120 6 321 317 314 318
121 6 321 317 314 319
122 4 322 317 314 310
123 6 322 317 314 318
124 6 322 317 314 319
125 11 1221 1218 1215 1212
126 4 1221 1218 1215 1219
127 4 1221 1218 1215 1220
128 4 1222 1218 1215 1212
129 6 1222 1218 1215 1219
130 6 1222 1218 1215 1220
131 4 1223 1218 1215 1212
132 6 1223 1218 1215 1219
133 6 1223 1218 1215 1220
134 11 1196 1193 1190 1187
135 4 1196 1193 1190 1194
136 4 1196 1193 1190 1195
137 4 1197 1193 1190 1187
138 6 1197 1193 1190 1194
139 6 1197 1193 1190 1195
140 4 1198 1193 1190 1187
141 6 1198 1193 1190 1194
142 6 1198 1193 1190 1195
143 11 1215 1212 1209 1206
144 4 1215 1212 1209 1213
145 4 1215 1212 1209 1214
146 4 1216 1212 1209 1206
147 6 1216 1212 1209 1213
148 6 1216 1212 1209 1214
149 4 1217 1212 1209 1206
150 6 1217 1212 1209 1213
151 6 1217 1212 1209 1214
152 11 1218 1215 1212 1209
153 4 1218 1215 1212 1216
154 4 1218 1215 1212 1217
155 4 1219 1215 1212 1209
156 6 1219 1215 1212 1216
157 6 1219 1215 1212 1217
158 4 1220 1215 1212 1209
159 6 1220 1215 1212 1216
160 6 1220 1215 1212 1217
161 11 1787 1784 1781 1778
162 4 1787 1784 1781 1785
163 4 1787 1784 1781 1786
164 4 1788 1784 1781 1778
165 6 1788 1784 1781 1785
166 6 1788 1784 1781 1786
167 4 1789 1784 1781 1778
168 6 1789 1784 1781 1785
169 6 1789 1784 1781 1786
170 3 317 314 310 309
171 4 317 314 310 315
172 4 317 314 310 316
173 5 318 314 310 309
174 6 318 314 310 315
175 6 318 314 310 316
176 5 319 314 310 309
177 6 319 314 310 315
178 6 319 314 310 316
179 4 1274 1271 1268 1265
180 6 1274 1271 1268 1272
181 6 1274 1271 1268 1273
182 4 1275 1271 1268 1265
183 6 1275 1271 1268 1272
184 6 1275 1271 1268 1273
185 4 1276 1271 1268 1265
186 6 1276 1271 1268 1272
187 6 1276 1271 1268 1273
188 11 1790 1787 1784 1781
189 4 1790 1787 1784 1788
190 4 1790 1787 1784 1789
191 4 1791 1787 1784 1781
192 6 1791 1787 1784 1788
193 6 1791 1787 1784 1789
194 4 1792 1787 1784 1781
195 6 1792 1787 1784 1788
196 6 1792 1787 1784 1789
197 11 1796 1793 1790 1787
198 4 1796 1793 1790 1794
199 4 1796 1793 1790 1795
200 4 1797 1793 1790 1787
201 6 1797 1793 1790 1794
202 6 1797 1793 1790 1795
203 4 1798 1793 1790 1787
204 6 1798 1793 1790 1794
205 6 1798 1793 1790 1795
206 4 1799 1796 1793 1790
207 6 1799 1796 1793 1797
208 6 1799 1796 1793 1798
209 4 1800 1796 1793 1790
210 6 1800 1796 1793 1797
211 6 1800 1796 1793 1798
212 4 1801 1796 1793 1790
213 6 1801 1796 1793 1797
214 6 1801 1796 1793 1798
215 11 1793 1790 1787 1784
216 4 1793 1790 1787 1791
217 4 1793 1790 1787 1792
218 4 1794 1790 1787 1784
219 6 1794 1790 1787 1791
220 6 1794 1790 1787 1792
221 4 1795 1790 1787 1784
222 6 1795 1790 1787 1791
223 6 1795 1790 1787 1792
224 4 1224 1221 1218 1215
225 6 1224 1221 1218 1222
226 6 1224 1221 1218 1223
227 4 1225 1221 1218 1215
228 6 1225 1221 1218 1222
229 6 1225 1221 1218 1223
230 4 1226 1221 1218 1215
231 6 1226 1221 1218 1222
232 6 1226 1221 1218 1223
233 11 1043 1040 1037 1034
234 4 1043 1040 1037 1041
235 4 1043 1040 1037 1042
236 4 1044 1040 1037 1034
237 6 1044 1040 1037 1041
238 6 1044 1040 1037 1042
239 4 1045 1040 1037 1034
240 6 1045 1040 1037 1041
241 6 1045 1040 1037 1042
242 11 1271 1268 1265 1262
243 4 1271 1268 1265 1269
244 4 1271 1268 1265 1270
245 4 1272 1268 1265 1262
246 6 1272 1268 1265 1269
247 6 1272 1268 1265 1270
248 4 1273 1268 1265 1262
249 6 1273 1268 1265 1269
250 6 1273 1268 1265 1270
251 11 1721 1718 1715 1712
252 4 1721 1718 1715 1719
253 4 1721 1718 1715 1720
254 4 1722 1718 1715 1712
255 6 1722 1718 1715 1719
256 6 1722 1718 1715 1720
257 4 1723 1718 1715 1712
258 6 1723 1718 1715 1719
259 6 1723 1718 1715 1720
260 3 569 566 562 561
261 4 569 566 562 567
262 4 569 566 562 568
263 5 570 566 562 561
264 6 570 566 562 567
265 6 570 566 562 568
266 5 571 566 562 561
267 6 571 566 562 567
268 6 571 566 562 568
269 11 1718 1715 1712 1709
270 4 1718 1715 1712 1716
271 4 1718 1715 1712 1717
272 4 1719 1715 1712 1709
273 6 1719 1715 1712 1716
274 6 1719 1715 1712 1717
275 4 1720 1715 1712 1709
276 6 1720 1715 1712 1716
277 6 1720 1715 1712 1717
278 4 1049 1046 1043 1040
279 6 1049 1046 1043 1047
280 6 1049 1046 1043 1048
281 4 1050 1046 1043 1040
282 6 1050 1046 1043 1047
283 6 1050 1046 1043 1048
284 4 1051 1046 1043 1040
285 6 1051 1046 1043 1047
286 6 1051 1046 1043 1048
287 4 1724 1721 1718 1715
288 6 1724 1721 1718 1722
289 6 1724 1721 1718 1723
290 4 1725 1721 1718 1715
291 6 1725 1721 1718 1722
292 6 1725 1721 1718 1723
293 4 1726 1721 1718 1715
294 6 1726 1721 1718 1722
295 6 1726 1721 1718 1723
296 11 1046 1043 1040 1037
297 4 1046 1043 1040 1044
298 4 1046 1043 1040 1045
299 4 1047 1043 1040 1037
300 6 1047 1043 1040 1044
301 6 1047 1043 1040 1045
302 4 1048 1043 1040 1037
303 6 1048 1043 1040 1044
304 6 1048 1043 1040 1045
305 11 2096 2093 2090 2087
306 4 2096 2093 2090 2094
307 4 2096 2093 2090 2095
308 4 2097 2093 2090 2087
309 6 2097 2093 2090 2094
310 6 2097 2093 2090 2095
311 4 2098 2093 2090 2087
312 6 2098 2093 2090 2094
313 6 2098 2093 2090 2095
314 4 1774 1771 1768 1765
315 6 1774 1771 1768 1772
316 6 1774 1771 1768 1773
317 4 1775 1771 1768 1765
318 6 1775 1771 1768 1772
319 6 1775 1771 1768 1773
320 4 1776 1771 1768 1765
321 6 1776 1771 1768 1772
322 6 1776 1771 1768 1773
323 11 1765 1762 1759 1756
324 4 1765 1762 1759 1763
325 4 1765 1762 1759 1764
326 4 1766 1762 1759 1756
327 6 1766 1762 1759 1763
328 6 1766 1762 1759 1764
329 4 1767 1762 1759 1756
330 6 1767 1762 1759 1763
331 6 1767 1762 1759 1764
332 11 1771 1768 1765 1762
333 4 1771 1768 1765 1769
334 4 1771 1768 1765 1770
335 4 1772 1768 1765 1762
336 6 1772 1768 1765 1769
337 6 1772 1768 1765 1770
338 4 1773 1768 1765 1762
339 6 1773 1768 1765 1769
340 6 1773 1768 1765 1770
341 11 1762 1759 1756 1753
342 4 1762 1759 1756 1760
343 4 1762 1759 1756 1761
344 4 1763 1759 1756 1753
345 6 1763 1759 1756 1760
346 6 1763 1759 1756 1761
347 4 1764 1759 1756 1753
348 6 1764 1759 1756 1760
349 6 1764 1759 1756 1761
350 11 968 965 962 959
351 4 968 965 962 966
352 4 968 965 962 967
353 4 969 965 962 959
354 6 969 965 962 966
355 6 969 965 962 967
356 4 970 965 962 959
357 6 970 965 962 966
358 6 970 965 962 967
359 11 1768 1765 1762 1759
360 4 1768 1765 1762 1766
361 4 1768 1765 1762 1767
362 4 1769 1765 1762 1759
363 6 1769 1765 1762 1766
364 6 1769 1765 1762 1767
365 4 1770 1765 1762 1759
366 6 1770 1765 1762 1766
367 6 1770 1765 1762 1767
368 7 1806 1803 1802 1804
369 7 1806 1803 1802 1805
370 8 1807 1803 1802 1804
371 8 1807 1803 1802 1805
372 8 1808 1803 1802 1804
373 8 1808 1803 1802 1805
374 11 971 968 965 962
375 4 971 968 965 969
376 4 971 968 965 970
377 4 972 968 965 962
378 6 972 968 965 969
379 6 972 968 965 970
380 4 973 968 965 962
381 6 973 968 965 969
382 6 973 968 965 970
383 9 1809 1806 1803 1802
384 4 1809 1806 1803 1807
385 4 1809 1806 1803 1808
386 10 1810 1806 1803 1802
387 6 1810 1806 1803 1807
388 6 1810 1806 1803 1808
389 10 1811 1806 1803 1802
390 6 1811 1806 1803 1807
391 6 1811 1806 1803 1808
392 11 1812 1809 1806 1803
393 4 1812 1809 1806 1810
394 4 1812 1809 1806 1811
395 4 1813 1809 1806 1803
396 6 1813 1809 1806 1810
397 6 1813 1809 1806 1811
398 4 1814 1809 1806 1803
399 6 1814 1809 1806 1810
400 6 1814 1809 1806 1811
401 4 2274 2271 2268 2265
402 6 2274 2271 2268 2272
403 6 2274 2271 2268 2273
404 4 2275 2271 2268 2265
405 6 2275 2271 2268 2272
406 6 2275 2271 2268 2273
407 4 2276 2271 2268 2265
408 6 2276 2271 2268 2272
409 6 2276 2271 2268 2273
410 11 1815 1812 1809 1806
411 4 1815 1812 1809 1813
412 4 1815 1812 1809 1814
413 4 1816 1812 1809 1806
414 6 1816 1812 1809 1813
415 6 1816 1812 1809 1814
416 4 1817 1812 1809 1806
417 6 1817 1812 1809 1813
418 6 1817 1812 1809 1814
419 4 974 971 968 965
420 6 974 971 968 972
421 6 974 971 968 973
422 4 975 971 968 965
423 6 975 971 968 972
424 6 975 971 968 973
425 4 976 971 968 965
426 6 976 971 968 972
427 6 976 971 968 973
428 11 2271 2268 2265 2262
429 4 2271 2268 2265 2269
430 4 2271 2268 2265 2270
431 4 2272 2268 2265 2262
432 6 2272 2268 2265 2269
433 6 2272 2268 2265 2270
434 4 2273 2268 2265 2262
435 6 2273 2268 2265 2269
436 6 2273 2268 2265 2270
437 11 2268 2265 2262 2259
438 4 2268 2265 2262 2266
439 4 2268 2265 2262 2267
440 4 2269 2265 2262 2259
441 6 2269 2265 2262 2266
442 6 2269 2265 2262 2267
443 4 2270 2265 2262 2259
444 6 2270 2265 2262 2266
445 6 2270 2265 2262 2267
446 11 2265 2262 2259 2256
447 4 2265 2262 2259 2263
448 4 2265 2262 2259 2264
449 4 2266 2262 2259 2256
450 6 2266 2262 2259 2263
451 6 2266 2262 2259 2264
452 4 2267 2262 2259 2256
453 6 2267 2262 2259 2263
454 6 2267 2262 2259 2264
455 11 2262 2259 2256 2253
456 4 2262 2259 2256 2260
457 4 2262 2259 2256 2261
458 4 2263 2259 2256 2253
459 6 2263 2259 2256 2260
460 6 2263 2259 2256 2261
461 4 2264 2259 2256 2253
462 6 2264 2259 2256 2260
463 6 2264 2259 2256 2261
464 9 2259 2256 2253 2252
465 4 2259 2256 2253 2257
466 4 2259 2256 2253 2258
467 10 2260 2256 2253 2252
468 6 2260 2256 2253 2257
469 6 2260 2256 2253 2258
470 10 2261 2256 2253 2252
471 6 2261 2256 2253 2257
472 6 2261 2256 2253 2258
473 7 2256 2253 2252 2254
474 7 2256 2253 2252 2255
475 8 2257 2253 2252 2254
476 8 2257 2253 2252 2255
477 8 2258 2253 2252 2254
478 8 2258 2253 2252 2255
479 12 2253 2254 2252 2255
480 11 1212 1209 1206 1203
481 4 1212 1209 1206 1210
482 4 1212 1209 1206 1211
483 4 1213 1209 1206 1203
484 6 1213 1209 1206 1210
485 6 1213 1209 1206 1211
486 4 1214 1209 1206 1203
487 6 1214 1209 1206 1210
488 6 1214 1209 1206 1211
489 9 1209 1206 1203 1202
490 4 1209 1206 1203 1207
491 4 1209 1206 1203 1208
492 10 1210 1206 1203 1202
493 6 1210 1206 1203 1207
494 6 1210 1206 1203 1208
495 10 1211 1206 1203 1202
496 6 1211 1206 1203 1207
497 6 1211 1206 1203 1208
498 3 191 188 184 183
499 4 191 188 184 189
500 4 191 188 184 190
501 5 192 188 184 183
502 6 192 188 184 189
503 6 192 188 184 190
504 5 193 188 184 183
505 6 193 188 184 189
506 6 193 188 184 190
507 4 194 191 188 184
508 6 194 191 188 192
509 6 194 191 188 193
510 4 195 191 188 184
511 6 195 191 188 192
512 6 195 191 188 193
513 4 196 191 188 184
514 6 196 191 188 192
515 6 196 191 188 193
516 4 1974 1971 1968 1965
517 6 1974 1971 1968 1972
518 6 1974 1971 1968 1973
519 4 1975 1971 1968 1965
520 6 1975 1971 1968 1972
521 6 1975 1971 1968 1973
522 4 1976 1971 1968 1965
523 6 1976 1971 1968 1972
524 6 1976 1971 1968 1973
525 11 1971 1968 1965 1962
526 4 1971 1968 1965 1969
527 4 1971 1968 1965 1970
528 4 1972 1968 1965 1962
529 6 1972 1968 1965 1969
530 6 1972 1968 1965 1970
531 4 1973 1968 1965 1962
532 6 1973 1968 1965 1969
533 6 1973 1968 1965 1970
534 11 1315 1312 1309 1306
535 4 1315 1312 1309 1313
536 4 1315 1312 1309 1314
537 4 1316 1312 1309 1306
538 6 1316 1312 1309 1313
539 6 1316 1312 1309 1314
540 4 1317 1312 1309 1306
541 6 1317 1312 1309 1313
542 6 1317 1312 1309 1314
543 11 1968 1965 1962 1959
544 4 1968 1965 1962 1966
545 4 1968 1965 1962 1967
546 4 1969 1965 1962 1959
547 6 1969 1965 1962 1966
548 6 1969 1965 1962 1967
549 4 1970 1965 1962 1959
550 6 1970 1965 1962 1966
551 6 1970 1965 1962 1967
552 11 1318 1315 1312 1309
553 4 1318 1315 1312 1316
554 4 1318 1315 1312 1317
555 4 1319 1315 1312 1309
556 6 1319 1315 1312 1316
557 6 1319 1315 1312 1317
558 4 1320 1315 1312 1309
559 6 1320 1315 1312 1316
560 6 1320 1315 1312 1317
561 11 1321 1318 1315 1312
562 4 1321 1318 1315 1319
563 4 1321 1318 1315 1320
564 4 1322 1318 1315 1312
565 6 1322 1318 1315 1319
566 6 1322 1318 1315 1320
567 4 1323 1318 1315 1312
568 6 1323 1318 1315 1319
569 6 1323 1318 1315 1320
570 11 1965 1962 1959 1956
571 4 1965 1962 1959 1963
572 4 1965 1962 1959 1964
573 4 1966 1962 1959 1956
574 6 1966 1962 1959 1963
575 6 1966 1962 1959 1964
576 4 1967 1962 1959 1956
577 6 1967 1962 1959 1963
578 6 1967 1962 1959 1964
579 4 1824 1821 1818 1815
580 6 1824 1821 1818 1822
581 6 1824 1821 1818 1823
582 4 1825 1821 1818 1815
583 6 1825 1821 1818 1822
584 6 1825 1821 1818 1823
585 4 1826 1821 1818 1815
586 6 1826 1821 1818 1822
587 6 1826 1821 1818 1823
588 4 1324 1321 1318 1315
589 6 1324 1321 1318 1322
590 6 1324 1321 1318 1323
591 4 1325 1321 1318 1315
592 6 1325 1321 1318 1322
593 6 1325 1321 1318 1323
594 4 1326 1321 1318 1315
595 6 1326 1321 1318 1322
596 6 1326 1321 1318 1323
597 11 1818 1815 1812 1809
598 4 1818 1815 1812 1816
599 4 1818 1815 1812 1817
600 4 1819 1815 1812 1809
601 6 1819 1815 1812 1816
602 6 1819 1815 1812 1817
603 4 1820 1815 1812 1809
604 6 1820 1815 1812 1816
605 6 1820 1815 1812 1817
606 11 1821 1818 1815 1812
607 4 1821 1818 1815 1819
608 4 1821 1818 1815 1820
609 4 1822 1818 1815 1812
610 6 1822 1818 1815 1819
611 6 1822 1818 1815 1820
612 4 1823 1818 1815 1812
613 6 1823 1818 1815 1819
614 6 1823 1818 1815 1820
615 7 2081 2078 2077 2079
616 7 2081 2078 2077 2080
617 8 2082 2078 2077 2079
618 8 2082 2078 2077 2080
619 8 2083 2078 2077 2079
620 8 2083 2078 2077 2080
621 4 628 625 622 618
622 6 628 625 622 626
623 6 628 625 622 627
624 4 629 625 622 618
625 6 629 625 622 626
626 6 629 625 622 627
627 4 630 625 622 618
628 6 630 625 622 626
629 6 630 625 622 627
630 11 2087 2084 2081 2078
631 4 2087 2084 2081 2085
632 4 2087 2084 2081 2086
633 4 2088 2084 2081 2078
634 6 2088 2084 2081 2085
635 6 2088 2084 2081 2086
636 4 2089 2084 2081 2078
637 6 2089 2084 2081 2085
638 6 2089 2084 2081 2086
639 4 1074 1071 1068 1065
640 6 1074 1071 1068 1072
641 6 1074 1071 1068 1073
642 4 1075 1071 1068 1065
643 6 1075 1071 1068 1072
644 6 1075 1071 1068 1073
645 4 1076 1071 1068 1065
646 6 1076 1071 1068 1072
647 6 1076 1071 1068 1073
648 3 625 622 618 617
649 4 625 622 618 623
650 4 625 622 618 624
651 5 626 622 618 617
652 6 626 622 618 623
653 6 626 622 618 624
654 5 627 622 618 617
655 6 627 622 618 623
656 6 627 622 618 624
657 1 622 618 617 619
658 1 622 618 617 620
659 1 622 618 617 621
660 2 623 618 617 619
661 2 623 618 617 620
662 2 623 618 617 621
663 2 624 618 617 619
664 2 624 618 617 620
665 2 624 618 617 621
666 11 2090 2087 2084 2081
667 4 2090 2087 2084 2088
668 4 2090 2087 2084 2089
669 4 2091 2087 2084 2081
670 6 2091 2087 2084 2088
671 6 2091 2087 2084 2089
672 4 2092 2087 2084 2081
673 6 2092 2087 2084 2088
674 6 2092 2087 2084 2089
675 9 2084 2081 2078 2077
676 4 2084 2081 2078 2082
677 4 2084 2081 2078 2083
678 10 2085 2081 2078 2077
679 6 2085 2081 2078 2082
680 6 2085 2081 2078 2083
681 10 2086 2081 2078 2077
682 6 2086 2081 2078 2082
683 6 2086 2081 2078 2083
684 11 2093 2090 2087 2084
685 4 2093 2090 2087 2091
686 4 2093 2090 2087 2092
687 4 2094 2090 2087 2084
688 6 2094 2090 2087 2091
689 6 2094 2090 2087 2092
690 4 2095 2090 2087 2084
691 6 2095 2090 2087 2091
692 6 2095 2090 2087 2092
693 12 1803 1804 1802 1805
694 1 790 786 785 787
695 1 790 786 785 788
696 1 790 786 785 789
697 2 791 786 785 787
698 2 791 786 785 788
699 2 791 786 785 789
700 2 792 786 785 787
701 2 792 786 785 788
702 2 792 786 785 789
703 12 1478 1479 1477 1480
704 7 1481 1478 1477 1479
705 7 1481 1478 1477 1480
706 8 1482 1478 1477 1479
707 8 1482 1478 1477 1480
708 8 1483 1478 1477 1479
709 8 1483 1478 1477 1480
710 3 79 76 72 71
711 4 79 76 72 77
712 4 79 76 72 78
713 5 80 76 72 71
714 6 80 76 72 77
715 6 80 76 72 78
716 5 81 76 72 71
717 6 81 76 72 77
718 6 81 76 72 78
719 1 76 72 71 73
720 1 76 72 71 74
721 1 76 72 71 75
722 2 77 72 71 73
723 2 77 72 71 74
724 2 77 72 71 75
725 2 78 72 71 73
726 2 78 72 71 74
727 2 78 72 71 75
728 12 1753 1754 1752 1755
729 12 2203 2204 2202 2205
730 3 793 790 786 785
731 4 793 790 786 791
732 4 793 790 786 792
733 5 794 790 786 785
734 6 794 790 786 791
735 6 794 790 786 792
736 5 795 790 786 785
737 6 795 790 786 791
738 6 795 790 786 792
739 4 796 793 790 786
740 6 796 793 790 794
741 6 796 793 790 795
742 4 797 793 790 786
743 6 797 793 790 794
744 6 797 793 790 795
745 4 798 793 790 786
746 6 798 793 790 794
747 6 798 793 790 795
748 12 1978 1979 1977 1980
749 11 1987 1984 1981 1978
750 4 1987 1984 1981 1985
751 4 1987 1984 1981 1986
752 4 1988 1984 1981 1978
753 6 1988 1984 1981 1985
754 6 1988 1984 1981 1986
755 4 1989 1984 1981 1978
756 6 1989 1984 1981 1985
757 6 1989 1984 1981 1986
758 7 1981 1978 1977 1979
759 7 1981 1978 1977 1980
760 8 1982 1978 1977 1979
761 8 1982 1978 1977 1980
762 8 1983 1978 1977 1979
763 8 1983 1978 1977 1980
764 9 1984 1981 1978 1977
765 4 1984 1981 1978 1982
766 4 1984 1981 1978 1983
767 10 1985 1981 1978 1977
768 6 1985 1981 1978 1982
769 6 1985 1981 1978 1983
770 10 1986 1981 1978 1977
771 6 1986 1981 1978 1982
772 6 1986 1981 1978 1983
773 11 1990 1987 1984 1981
774 4 1990 1987 1984 1988
775 4 1990 1987 1984 1989
776 4 1991 1987 1984 1981
777 6 1991 1987 1984 1988
778 6 1991 1987 1984 1989
779 4 1992 1987 1984 1981
780 6 1992 1987 1984 1988
781 6 1992 1987 1984 1989
782 3 681 678 674 673
783 4 681 678 674 679
784 4 681 678 674 680
785 5 682 678 674 673
786 6 682 678 674 679
787 6 682 678 674 680
788 5 683 678 674 673
789 6 683 678 674 679
790 6 683 678 674 680
791 1 678 674 673 675
792 1 678 674 673 676
793 1 678 674 673 677
794 2 679 674 673 675
795 2 679 674 673 676
796 2 679 674 673 677
797 2 680 674 673 675
798 2 680 674 673 676
799 2 680 674 673 677
800 1 188 184 183 185
801 1 188 184 183 186
802 1 188 184 183 187
803 2 189 184 183 185
804 2 189 184 183 186
805 2 189 184 183 187
806 2 190 184 183 185
807 2 190 184 183 186
808 2 190 184 183 187
809 11 1312 1309 1306 1303
810 4 1312 1309 1306 1310
811 4 1312 1309 1306 1311
812 4 1313 1309 1306 1303
813 6 1313 1309 1306 1310
814 6 1313 1309 1306 1311
815 4 1314 1309 1306 1303
816 6 1314 1309 1306 1310
817 6 1314 1309 1306 1311
818 11 1290 1287 1284 1281
819 4 1290 1287 1284 1288
820 4 1290 1287 1284 1289
821 4 1291 1287 1284 1281
822 6 1291 1287 1284 1288
823 6 1291 1287 1284 1289
824 4 1292 1287 1284 1281
825 6 1292 1287 1284 1288
826 6 1292 1287 1284 1289
827 4 1299 1296 1293 1290
828 6 1299 1296 1293 1297
829 6 1299 1296 1293 1298
830 4 1300 1296 1293 1290
831 6 1300 1296 1293 1297
832 6 1300 1296 1293 1298
833 4 1301 1296 1293 1290
834 6 1301 1296 1293 1297
835 6 1301 1296 1293 1298
836 11 1296 1293 1290 1287
837 4 1296 1293 1290 1294
838 4 1296 1293 1290 1295
839 4 1297 1293 1290 1287
840 6 1297 1293 1290 1294
841 6 1297 1293 1290 1295
842 4 1298 1293 1290 1287
843 6 1298 1293 1290 1294
844 6 1298 1293 1290 1295
845 11 1293 1290 1287 1284
846 4 1293 1290 1287 1291
847 4 1293 1290 1287 1292
848 4 1294 1290 1287 1284
849 6 1294 1290 1287 1291
850 6 1294 1290 1287 1292
851 4 1295 1290 1287 1284
852 6 1295 1290 1287 1291
853 6 1295 1290 1287 1292
854 4 362 359 356 352
855 6 362 359 356 360
856 6 362 359 356 361
857 4 363 359 356 352
858 6 363 359 356 360
859 6 363 359 356 361
860 4 364 359 356 352
861 6 364 359 356 360
862 6 364 359 356 361
863 1 356 352 351 353
864 1 356 352 351 354
865 1 356 352 351 355
866 2 357 352 351 353
867 2 357 352 351 354
868 2 357 352 351 355
869 2 358 352 351 353
870 2 358 352 351 354
871 2 358 352 351 355
872 3 359 356 352 351
873 4 359 356 352 357
874 4 359 356 352 358
875 5 360 356 352 351
876 6 360 356 352 357
877 6 360 356 352 358
878 5 361 356 352 351
879 6 361 356 352 357
880 6 361 356 352 358
881 4 82 79 76 72
882 6 82 79 76 80
883 6 82 79 76 81
884 4 83 79 76 72
885 6 83 79 76 80
886 6 83 79 76 81
887 4 84 79 76 72
888 6 84 79 76 80
889 6 84 79 76 81
890 4 278 275 272 268
891 6 278 275 272 276
892 6 278 275 272 277
893 4 279 275 272 268
894 6 279 275 272 276
895 6 279 275 272 277
896 4 280 275 272 268
897 6 280 275 272 276
898 6 280 275 272 277
899 12 2078 2079 2077 2080
900 12 928 929 927 930
901 3 275 272 268 267
902 4 275 272 268 273
903 4 275 272 268 274
904 5 276 272 268 267
905 6 276 272 268 273
906 6 276 272 268 274
907 5 277 272 268 267
908 6 277 272 268 273
909 6 277 272 268 274
910 7 931 928 927 929
911 7 931 928 927 930
912 8 932 928 927 929
913 8 932 928 927 930
914 8 933 928 927 929
915 8 933 928 927 930
916 1 272 268 267 269
917 1 272 268 267 270
918 1 272 268 267 271
919 2 273 268 267 269
920 2 273 268 267 270
921 2 273 268 267 271
922 2 274 268 267 269
923 2 274 268 267 270
924 2 274 268 267 271
925 12 1003 1004 1002 1005
926 9 934 931 928 927
927 4 934 931 928 932
928 4 934 931 928 933
929 10 935 931 928 927
930 6 935 931 928 932
931 6 935 931 928 933
932 10 936 931 928 927
933 6 936 931 928 932
934 6 936 931 928 933
935 11 937 934 931 928
936 4 937 934 931 935
937 4 937 934 931 936
938 4 938 934 931 928
939 6 938 934 931 935
940 6 938 934 931 936
941 4 939 934 931 928
942 6 939 934 931 935
943 6 939 934 931 936
944 11 1187 1184 1181 1178
945 4 1187 1184 1181 1185
946 4 1187 1184 1181 1186
947 4 1188 1184 1181 1178
948 6 1188 1184 1181 1185
949 6 1188 1184 1181 1186
950 4 1189 1184 1181 1178
951 6 1189 1184 1181 1185
952 6 1189 1184 1181 1186
953 9 1484 1481 1478 1477
954 4 1484 1481 1478 1482
955 4 1484 1481 1478 1483
956 10 1485 1481 1478 1477
957 6 1485 1481 1478 1482
958 6 1485 1481 1478 1483
959 10 1486 1481 1478 1477
960 6 1486 1481 1478 1482
961 6 1486 1481 1478 1483
962 11 1496 1493 1490 1487
963 4 1496 1493 1490 1494
964 4 1496 1493 1490 1495
965 4 1497 1493 1490 1487
966 6 1497 1493 1490 1494
967 6 1497 1493 1490 1495
968 4 1498 1493 1490 1487
969 6 1498 1493 1490 1494
970 6 1498 1493 1490 1495
971 11 1490 1487 1484 1481
972 4 1490 1487 1484 1488
973 4 1490 1487 1484 1489
974 4 1491 1487 1484 1481
975 6 1491 1487 1484 1488
976 6 1491 1487 1484 1489
977 4 1492 1487 1484 1481
978 6 1492 1487 1484 1488
979 6 1492 1487 1484 1489
980 11 1487 1484 1481 1478
981 4 1487 1484 1481 1485
982 4 1487 1484 1481 1486
983 4 1488 1484 1481 1478
984 6 1488 1484 1481 1485
985 6 1488 1484 1481 1486
986 4 1489 1484 1481 1478
987 6 1489 1484 1481 1485
988 6 1489 1484 1481 1486
989 11 1493 1490 1487 1484
990 4 1493 1490 1487 1491
991 4 1493 1490 1487 1492
992 4 1494 1490 1487 1484
993 6 1494 1490 1487 1491
994 6 1494 1490 1487 1492
995 4 1495 1490 1487 1484
996 6 1495 1490 1487 1491
997 6 1495 1490 1487 1492
998 11 865 862 859 856
999 4 865 862 859 863
1000 4 865 862 859 864
1001 4 866 862 859 856
1002 6 866 862 859 863
1003 6 866 862 859 864
1004 4 867 862 859 856
1005 6 867 862 859 863
1006 6 867 862 859 864
1007 4 1499 1496 1493 1490
1008 6 1499 1496 1493 1497
1009 6 1499 1496 1493 1498
1010 4 1500 1496 1493 1490
1011 6 1500 1496 1493 1497
1012 6 1500 1496 1493 1498
1013 4 1501 1496 1493 1490
1014 6 1501 1496 1493 1497
1015 6 1501 1496 1493 1498
1016 11 1193 1190 1187 1184
1017 4 1193 1190 1187 1191
1018 4 1193 1190 1187 1192
1019 4 1194 1190 1187 1184
1020 6 1194 1190 1187 1191
1021 6 1194 1190 1187 1192
1022 4 1195 1190 1187 1184
1023 6 1195 1190 1187 1191
1024 6 1195 1190 1187 1192
1025 4 726 723 720 716
1026 6 726 723 720 724
1027 6 726 723 720 725
1028 4 727 723 720 716
1029 6 727 723 720 724
1030 6 727 723 720 725
1031 4 728 723 720 716
1032 6 728 723 720 724
1033 6 728 723 720 725
1034 4 1999 1996 1993 1990
1035 6 1999 1996 1993 1997
1036 6 1999 1996 1993 1998
1037 4 2000 1996 1993 1990
1038 6 2000 1996 1993 1997
1039 6 2000 1996 1993 1998
1040 4 2001 1996 1993 1990
1041 6 2001 1996 1993 1997
1042 6 2001 1996 1993 1998
1043 4 1199 1196 1193 1190
1044 6 1199 1196 1193 1197
1045 6 1199 1196 1193 1198
1046 4 1200 1196 1193 1190
1047 6 1200 1196 1193 1197
1048 6 1200 1196 1193 1198
1049 4 1201 1196 1193 1190
1050 6 1201 1196 1193 1197
1051 6 1201 1196 1193 1198
1052 11 1993 1990 1987 1984
1053 4 1993 1990 1987 1991
1054 4 1993 1990 1987 1992
1055 4 1994 1990 1987 1984
1056 6 1994 1990 1987 1991
1057 6 1994 1990 1987 1992
1058 4 1995 1990 1987 1984
1059 6 1995 1990 1987 1991
1060 6 1995 1990 1987 1992
1061 11 1996 1993 1990 1987
1062 4 1996 1993 1990 1994
1063 4 1996 1993 1990 1995
1064 4 1997 1993 1990 1987
1065 6 1997 1993 1990 1994
1066 6 1997 1993 1990 1995
1067 4 1998 1993 1990 1987
1068 6 1998 1993 1990 1994
1069 6 1998 1993 1990 1995
1070 4 1124 1121 1118 1115
1071 6 1124 1121 1118 1122
1072 6 1124 1121 1118 1123
1073 4 1125 1121 1118 1115
1074 6 1125 1121 1118 1122
1075 6 1125 1121 1118 1123
1076 4 1126 1121 1118 1115
1077 6 1126 1121 1118 1122
1078 6 1126 1121 1118 1123
1079 7 1281 1278 1277 1279
1080 7 1281 1278 1277 1280
1081 8 1282 1278 1277 1279
1082 8 1282 1278 1277 1280
1083 8 1283 1278 1277 1279
1084 8 1283 1278 1277 1280
1085 11 1121 1118 1115 1112
1086 4 1121 1118 1115 1119
1087 4 1121 1118 1115 1120
1088 4 1122 1118 1115 1112
1089 6 1122 1118 1115 1119
1090 6 1122 1118 1115 1120
1091 4 1123 1118 1115 1112
1092 6 1123 1118 1115 1119
1093 6 1123 1118 1115 1120
1094 9 1284 1281 1278 1277
1095 4 1284 1281 1278 1282
1096 4 1284 1281 1278 1283
1097 10 1285 1281 1278 1277
1098 6 1285 1281 1278 1282
1099 6 1285 1281 1278 1283
1100 10 1286 1281 1278 1277
1101 6 1286 1281 1278 1282
1102 6 1286 1281 1278 1283
1103 4 1399 1396 1393 1390
1104 6 1399 1396 1393 1397
1105 6 1399 1396 1393 1398
1106 4 1400 1396 1393 1390
1107 6 1400 1396 1393 1397
1108 6 1400 1396 1393 1398
1109 4 1401 1396 1393 1390
1110 6 1401 1396 1393 1397
1111 6 1401 1396 1393 1398
1112 7 1406 1403 1402 1404
1113 7 1406 1403 1402 1405
1114 8 1407 1403 1402 1404
1115 8 1407 1403 1402 1405
1116 8 1408 1403 1402 1404
1117 8 1408 1403 1402 1405
1118 11 1287 1284 1281 1278
1119 4 1287 1284 1281 1285
1120 4 1287 1284 1281 1286
1121 4 1288 1284 1281 1278
1122 6 1288 1284 1281 1285
1123 6 1288 1284 1281 1286
1124 4 1289 1284 1281 1278
1125 6 1289 1284 1281 1285
1126 6 1289 1284 1281 1286
1127 12 1278 1279 1277 1280
1128 1 216 212 211 213
1129 1 216 212 211 214
1130 1 216 212 211 215
1131 2 217 212 211 213
1132 2 217 212 211 214
1133 2 217 212 211 215
1134 2 218 212 211 213
1135 2 218 212 211 214
1136 2 218 212 211 215
1137 12 1078 1079 1077 1080
1138 4 222 219 216 212
1139 6 222 219 216 220
1140 6 222 219 216 221
1141 4 223 219 216 212
1142 6 223 219 216 220
1143 6 223 219 216 221
1144 4 224 219 216 212
1145 6 224 219 216 220
1146 6 224 219 216 221
1147 3 219 216 212 211
1148 4 219 216 212 217
1149 4 219 216 212 218
1150 5 220 216 212 211
1151 6 220 216 212 217
1152 6 220 216 212 218
1153 5 221 216 212 211
1154 6 221 216 212 217
1155 6 221 216 212 218
1156 1 146 142 141 143
1157 1 146 142 141 144
1158 1 146 142 141 145
1159 2 147 142 141 143
1160 2 147 142 141 144
1161 2 147 142 141 145
1162 2 148 142 141 143
1163 2 148 142 141 144
1164 2 148 142 141 145
1165 7 1081 1078 1077 1079
1166 7 1081 1078 1077 1080
1167 8 1082 1078 1077 1079
1168 8 1082 1078 1077 1080
1169 8 1083 1078 1077 1079
1170 8 1083 1078 1077 1080
1171 1 608 604 603 605
1172 1 608 604 603 606
1173 1 608 604 603 607
1174 2 609 604 603 605
1175 2 609 604 603 606
1176 2 609 604 603 607
1177 2 610 604 603 605
1178 2 610 604 603 606
1179 2 610 604 603 607
1180 12 1403 1404 1402 1405
1181 3 611 608 604 603
1182 4 611 608 604 609
1183 4 611 608 604 610
1184 5 612 608 604 603
1185 6 612 608 604 609
1186 6 612 608 604 610
1187 5 613 608 604 603
1188 6 613 608 604 609
1189 6 613 608 604 610
1190 4 2124 2121 2118 2115
1191 6 2124 2121 2118 2122
1192 6 2124 2121 2118 2123
1193 4 2125 2121 2118 2115
1194 6 2125 2121 2118 2122
1195 6 2125 2121 2118 2123
1196 4 2126 2121 2118 2115
1197 6 2126 2121 2118 2122
1198 6 2126 2121 2118 2123
1199 11 871 868 865 862
1200 4 871 868 865 869
1201 4 871 868 865 870
1202 4 872 868 865 862
1203 6 872 868 865 869
1204 6 872 868 865 870
1205 4 873 868 865 862
1206 6 873 868 865 869
1207 6 873 868 865 870
1208 11 1087 1084 1081 1078
1209 4 1087 1084 1081 1085
1210 4 1087 1084 1081 1086
1211 4 1088 1084 1081 1078
1212 6 1088 1084 1081 1085
1213 6 1088 1084 1081 1086
1214 4 1089 1084 1081 1078
1215 6 1089 1084 1081 1085
1216 6 1089 1084 1081 1086
1217 9 1084 1081 1078 1077
1218 4 1084 1081 1078 1082
1219 4 1084 1081 1078 1083
1220 10 1085 1081 1078 1077
1221 6 1085 1081 1078 1082
1222 6 1085 1081 1078 1083
1223 10 1086 1081 1078 1077
1224 6 1086 1081 1078 1082
1225 6 1086 1081 1078 1083
1226 4 1099 1096 1093 1090
1227 6 1099 1096 1093 1097
1228 6 1099 1096 1093 1098
1229 4 1100 1096 1093 1090
1230 6 1100 1096 1093 1097
1231 6 1100 1096 1093 1098
1232 4 1101 1096 1093 1090
1233 6 1101 1096 1093 1097
1234 6 1101 1096 1093 1098
1235 11 1090 1087 1084 1081
1236 4 1090 1087 1084 1088
1237 4 1090 1087 1084 1089
1238 4 1091 1087 1084 1081
1239 6 1091 1087 1084 1088
1240 6 1091 1087 1084 1089
1241 4 1092 1087 1084 1081
1242 6 1092 1087 1084 1088
1243 6 1092 1087 1084 1089
1244 11 1093 1090 1087 1084
1245 4 1093 1090 1087 1091
1246 4 1093 1090 1087 1092
1247 4 1094 1090 1087 1084
1248 6 1094 1090 1087 1091
1249 6 1094 1090 1087 1092
1250 4 1095 1090 1087 1084
1251 6 1095 1090 1087 1091
1252 6 1095 1090 1087 1092
1253 4 874 871 868 865
1254 6 874 871 868 872
1255 6 874 871 868 873
1256 4 875 871 868 865
1257 6 875 871 868 872
1258 6 875 871 868 873
1259 4 876 871 868 865
1260 6 876 871 868 872
1261 6 876 871 868 873
1262 11 1096 1093 1090 1087
1263 4 1096 1093 1090 1094
1264 4 1096 1093 1090 1095
1265 4 1097 1093 1090 1087
1266 6 1097 1093 1090 1094
1267 6 1097 1093 1090 1095
1268 4 1098 1093 1090 1087
1269 6 1098 1093 1090 1094
1270 6 1098 1093 1090 1095
1271 11 868 865 862 859
1272 4 868 865 862 866
1273 4 868 865 862 867
1274 4 869 865 862 859
1275 6 869 865 862 866
1276 6 869 865 862 867
1277 4 870 865 862 859
1278 6 870 865 862 866
1279 6 870 865 862 867
1280 3 163 160 156 155
1281 4 163 160 156 161
1282 4 163 160 156 162
1283 5 164 160 156 155
1284 6 164 160 156 161
1285 6 164 160 156 162
1286 5 165 160 156 155
1287 6 165 160 156 161
1288 6 165 160 156 162
1289 12 1853 1854 1852 1855
1290 7 1856 1853 1852 1854
1291 7 1856 1853 1852 1855
1292 8 1857 1853 1852 1854
1293 8 1857 1853 1852 1855
1294 8 1858 1853 1852 1854
1295 8 1858 1853 1852 1855
1296 4 166 163 160 156
1297 6 166 163 160 164
1298 6 166 163 160 165
1299 4 167 163 160 156
1300 6 167 163 160 164
1301 6 167 163 160 165
1302 4 168 163 160 156
1303 6 168 163 160 164
1304 6 168 163 160 165
1305 1 118 114 113 115
1306 1 118 114 113 116
1307 1 118 114 113 117
1308 2 119 114 113 115
1309 2 119 114 113 116
1310 2 119 114 113 117
1311 2 120 114 113 115
1312 2 120 114 113 116
1313 2 120 114 113 117
1314 12 2128 2129 2127 2130
1315 1 160 156 155 157
1316 1 160 156 155 158
1317 1 160 156 155 159
1318 2 161 156 155 157
1319 2 161 156 155 158
1320 2 161 156 155 159
1321 2 162 156 155 157
1322 2 162 156 155 158
1323 2 162 156 155 159
1324 4 474 471 468 464
1325 6 474 471 468 472
1326 6 474 471 468 473
1327 4 475 471 468 464
1328 6 475 471 468 472
1329 6 475 471 468 473
1330 4 476 471 468 464
1331 6 476 471 468 472
1332 6 476 471 468 473
1333 12 1103 1104 1102 1105
1334 7 2131 2128 2127 2129
1335 7 2131 2128 2127 2130
1336 8 2132 2128 2127 2129
1337 8 2132 2128 2127 2130
1338 8 2133 2128 2127 2129
1339 8 2133 2128 2127 2130
1340 9 2134 2131 2128 2127
1341 4 2134 2131 2128 2132
1342 4 2134 2131 2128 2133
1343 10 2135 2131 2128 2127
1344 6 2135 2131 2128 2132
1345 6 2135 2131 2128 2133
1346 10 2136 2131 2128 2127
1347 6 2136 2131 2128 2132
1348 6 2136 2131 2128 2133
1349 11 2137 2134 2131 2128
1350 4 2137 2134 2131 2135
1351 4 2137 2134 2131 2136
1352 4 2138 2134 2131 2128
1353 6 2138 2134 2131 2135
1354 6 2138 2134 2131 2136
1355 4 2139 2134 2131 2128
1356 6 2139 2134 2131 2135
1357 6 2139 2134 2131 2136
1358 11 2140 2137 2134 2131
1359 4 2140 2137 2134 2138
1360 4 2140 2137 2134 2139
1361 4 2141 2137 2134 2131
1362 6 2141 2137 2134 2138
1363 6 2141 2137 2134 2139
1364 4 2142 2137 2134 2131
1365 6 2142 2137 2134 2138
1366 6 2142 2137 2134 2139
1367 11 2143 2140 2137 2134
1368 4 2143 2140 2137 2141
1369 4 2143 2140 2137 2142
1370 4 2144 2140 2137 2134
1371 6 2144 2140 2137 2141
1372 6 2144 2140 2137 2142
1373 4 2145 2140 2137 2134
1374 6 2145 2140 2137 2141
1375 6 2145 2140 2137 2142
1376 7 1106 1103 1102 1104
1377 7 1106 1103 1102 1105
1378 8 1107 1103 1102 1104
1379 8 1107 1103 1102 1105
1380 8 1108 1103 1102 1104
1381 8 1108 1103 1102 1105
1382 9 1109 1106 1103 1102
1383 4 1109 1106 1103 1107
1384 4 1109 1106 1103 1108
1385 10 1110 1106 1103 1102
1386 6 1110 1106 1103 1107
1387 6 1110 1106 1103 1108
1388 10 1111 1106 1103 1102
1389 6 1111 1106 1103 1107
1390 6 1111 1106 1103 1108
1391 11 2146 2143 2140 2137
1392 4 2146 2143 2140 2144
1393 4 2146 2143 2140 2145
1394 4 2147 2143 2140 2137
1395 6 2147 2143 2140 2144
1396 6 2147 2143 2140 2145
1397 4 2148 2143 2140 2137
1398 6 2148 2143 2140 2144
1399 6 2148 2143 2140 2145
1400 11 1593 1590 1587 1584
1401 4 1593 1590 1587 1591
1402 4 1593 1590 1587 1592
1403 4 1594 1590 1587 1584
1404 6 1594 1590 1587 1591
1405 6 1594 1590 1587 1592
1406 4 1595 1590 1587 1584
1407 6 1595 1590 1587 1591
1408 6 1595 1590 1587 1592
1409 4 1599 1596 1593 1590
1410 6 1599 1596 1593 1597
1411 6 1599 1596 1593 1598
1412 4 1600 1596 1593 1590
1413 6 1600 1596 1593 1597
1414 6 1600 1596 1593 1598
1415 4 1601 1596 1593 1590
1416 6 1601 1596 1593 1597
1417 6 1601 1596 1593 1598
1418 4 152 149 146 142
1419 6 152 149 146 150
1420 6 152 149 146 151
1421 4 153 149 146 142
1422 6 153 149 146 150
1423 6 153 149 146 151
1424 4 154 149 146 142
1425 6 154 149 146 150
1426 6 154 149 146 151
1427 11 1346 1343 1340 1337
1428 4 1346 1343 1340 1344
1429 4 1346 1343 1340 1345
1430 4 1347 1343 1340 1337
1431 6 1347 1343 1340 1344
1432 6 1347 1343 1340 1345
1433 4 1348 1343 1340 1337
1434 6 1348 1343 1340 1344
1435 6 1348 1343 1340 1345
1436 4 2149 2146 2143 2140
1437 6 2149 2146 2143 2147
1438 6 2149 2146 2143 2148
1439 4 2150 2146 2143 2140
1440 6 2150 2146 2143 2147
1441 6 2150 2146 2143 2148
1442 4 2151 2146 2143 2140
1443 6 2151 2146 2143 2147
1444 6 2151 2146 2143 2148
1445 4 376 373 370 366
1446 6 376 373 370 374
1447 6 376 373 370 375
1448 4 377 373 370 366
1449 6 377 373 370 374
1450 6 377 373 370 375
1451 4 378 373 370 366
1452 6 378 373 370 374
1453 6 378 373 370 375
1454 4 1349 1346 1343 1340
1455 6 1349 1346 1343 1347
1456 6 1349 1346 1343 1348
1457 4 1350 1346 1343 1340
1458 6 1350 1346 1343 1347
1459 6 1350 1346 1343 1348
1460 4 1351 1346 1343 1340
1461 6 1351 1346 1343 1347
1462 6 1351 1346 1343 1348
1463 11 1590 1587 1584 1581
1464 4 1590 1587 1584 1588
1465 4 1590 1587 1584 1589
1466 4 1591 1587 1584 1581
1467 6 1591 1587 1584 1588
1468 6 1591 1587 1584 1589
1469 4 1592 1587 1584 1581
1470 6 1592 1587 1584 1588
1471 6 1592 1587 1584 1589
1472 11 1596 1593 1590 1587
1473 4 1596 1593 1590 1594
1474 4 1596 1593 1590 1595
1475 4 1597 1593 1590 1587
1476 6 1597 1593 1590 1594
1477 6 1597 1593 1590 1595
1478 4 1598 1593 1590 1587
1479 6 1598 1593 1590 1594
1480 6 1598 1593 1590 1595
1481 9 1859 1856 1853 1852
1482 4 1859 1856 1853 1857
1483 4 1859 1856 1853 1858
1484 10 1860 1856 1853 1852
1485 6 1860 1856 1853 1857
1486 6 1860 1856 1853 1858
1487 10 1861 1856 1853 1852
1488 6 1861 1856 1853 1857
1489 6 1861 1856 1853 1858
1490 4 1874 1871 1868 1865
1491 6 1874 1871 1868 1872
1492 6 1874 1871 1868 1873
1493 4 1875 1871 1868 1865
1494 6 1875 1871 1868 1872
1495 6 1875 1871 1868 1873
1496 4 1876 1871 1868 1865
1497 6 1876 1871 1868 1872
1498 6 1876 1871 1868 1873
1499 11 1871 1868 1865 1862
1500 4 1871 1868 1865 1869
1501 4 1871 1868 1865 1870
1502 4 1872 1868 1865 1862
1503 6 1872 1868 1865 1869
1504 6 1872 1868 1865 1870
1505 4 1873 1868 1865 1862
1506 6 1873 1868 1865 1869
1507 6 1873 1868 1865 1870
1508 11 1862 1859 1856 1853
1509 4 1862 1859 1856 1860
1510 4 1862 1859 1856 1861
1511 4 1863 1859 1856 1853
1512 6 1863 1859 1856 1860
1513 6 1863 1859 1856 1861
1514 4 1864 1859 1856 1853
1515 6 1864 1859 1856 1860
1516 6 1864 1859 1856 1861
1517 11 1868 1865 1862 1859
1518 4 1868 1865 1862 1866
1519 4 1868 1865 1862 1867
1520 4 1869 1865 1862 1859
1521 6 1869 1865 1862 1866
1522 6 1869 1865 1862 1867
1523 4 1870 1865 1862 1859
1524 6 1870 1865 1862 1866
1525 6 1870 1865 1862 1867
1526 11 1865 1862 1859 1856
1527 4 1865 1862 1859 1863
1528 4 1865 1862 1859 1864
1529 4 1866 1862 1859 1856
1530 6 1866 1862 1859 1863
1531 6 1866 1862 1859 1864
1532 4 1867 1862 1859 1856
1533 6 1867 1862 1859 1863
1534 6 1867 1862 1859 1864
1535 4 1699 1696 1693 1690
1536 6 1699 1696 1693 1697
1537 6 1699 1696 1693 1698
1538 4 1700 1696 1693 1690
1539 6 1700 1696 1693 1697
1540 6 1700 1696 1693 1698
1541 4 1701 1696 1693 1690
1542 6 1701 1696 1693 1697
1543 6 1701 1696 1693 1698
1544 11 1696 1693 1690 1687
1545 4 1696 1693 1690 1694
1546 4 1696 1693 1690 1695
1547 4 1697 1693 1690 1687
1548 6 1697 1693 1690 1694
1549 6 1697 1693 1690 1695
1550 4 1698 1693 1690 1687
1551 6 1698 1693 1690 1694
1552 6 1698 1693 1690 1695
1553 1 566 562 561 563
1554 1 566 562 561 564
1555 1 566 562 561 565
1556 2 567 562 561 563
1557 2 567 562 561 564
1558 2 567 562 561 565
1559 2 568 562 561 563
1560 2 568 562 561 564
1561 2 568 562 561 565
1562 4 1374 1371 1368 1365
1563 6 1374 1371 1368 1372
1564 6 1374 1371 1368 1373
1565 4 1375 1371 1368 1365
1566 6 1375 1371 1368 1372
1567 6 1375 1371 1368 1373
1568 4 1376 1371 1368 1365
1569 6 1376 1371 1368 1372
1570 6 1376 1371 1368 1373
1571 11 965 962 959 956
1572 4 965 962 959 963
1573 4 965 962 959 964
1574 4 966 962 959 956
1575 6 966 962 959 963
1576 6 966 962 959 964
1577 4 967 962 959 956
1578 6 967 962 959 963
1579 6 967 962 959 964
1580 4 712 709 706 702
1581 6 712 709 706 710
1582 6 712 709 706 711
1583 4 713 709 706 702
1584 6 713 709 706 710
1585 6 713 709 706 711
1586 4 714 709 706 702
1587 6 714 709 706 710
1588 6 714 709 706 711
1589 7 2206 2203 2202 2204
1590 7 2206 2203 2202 2205
1591 8 2207 2203 2202 2204
1592 8 2207 2203 2202 2205
1593 8 2208 2203 2202 2204
1594 8 2208 2203 2202 2205
1595 11 2246 2243 2240 2237
1596 4 2246 2243 2240 2244
1597 4 2246 2243 2240 2245
1598 4 2247 2243 2240 2237
1599 6 2247 2243 2240 2244
1600 6 2247 2243 2240 2245
1601 4 2248 2243 2240 2237
1602 6 2248 2243 2240 2244
1603 6 2248 2243 2240 2245
1604 9 2209 2206 2203 2202
1605 4 2209 2206 2203 2207
1606 4 2209 2206 2203 2208
1607 10 2210 2206 2203 2202
1608 6 2210 2206 2203 2207
1609 6 2210 2206 2203 2208
1610 10 2211 2206 2203 2202
1611 6 2211 2206 2203 2207
1612 6 2211 2206 2203 2208
1613 11 1371 1368 1365 1362
1614 4 1371 1368 1365 1369
1615 4 1371 1368 1365 1370
1616 4 1372 1368 1365 1362
1617 6 1372 1368 1365 1369
1618 6 1372 1368 1365 1370
1619 4 1373 1368 1365 1362
1620 6 1373 1368 1365 1369
1621 6 1373 1368 1365 1370
1622 3 709 706 702 701
1623 4 709 706 702 707
1624 4 709 706 702 708
1625 5 710 706 702 701
1626 6 710 706 702 707
1627 6 710 706 702 708
1628 5 711 706 702 701
1629 6 711 706 702 707
1630 6 711 706 702 708
1631 1 706 702 701 703
1632 1 706 702 701 704
1633 1 706 702 701 705
1634 2 707 702 701 703
1635 2 707 702 701 704
1636 2 707 702 701 705
1637 2 708 702 701 703
1638 2 708 702 701 704
1639 2 708 702 701 705
1640 11 2212 2209 2206 2203
1641 4 2212 2209 2206 2210
1642 4 2212 2209 2206 2211
1643 4 2213 2209 2206 2203
1644 6 2213 2209 2206 2210
1645 6 2213 2209 2206 2211
1646 4 2214 2209 2206 2203
1647 6 2214 2209 2206 2210
1648 6 2214 2209 2206 2211
1649 12 1503 1504 1502 1505
1650 11 2215 2212 2209 2206
1651 4 2215 2212 2209 2213
1652 4 2215 2212 2209 2214
1653 4 2216 2212 2209 2206
1654 6 2216 2212 2209 2213
1655 6 2216 2212 2209 2214
1656 4 2217 2212 2209 2206
1657 6 2217 2212 2209 2213
1658 6 2217 2212 2209 2214
1659 11 2218 2215 2212 2209
1660 4 2218 2215 2212 2216
1661 4 2218 2215 2212 2217
1662 4 2219 2215 2212 2209
1663 6 2219 2215 2212 2216
1664 6 2219 2215 2212 2217
1665 4 2220 2215 2212 2209
1666 6 2220 2215 2212 2216
1667 6 2220 2215 2212 2217
1668 7 1506 1503 1502 1504
1669 7 1506 1503 1502 1505
1670 8 1507 1503 1502 1504
1671 8 1507 1503 1502 1505
1672 8 1508 1503 1502 1504
1673 8 1508 1503 1502 1505
1674 9 1509 1506 1503 1502
1675 4 1509 1506 1503 1507
1676 4 1509 1506 1503 1508
1677 10 1510 1506 1503 1502
1678 6 1510 1506 1503 1507
1679 6 1510 1506 1503 1508
1680 10 1511 1506 1503 1502
1681 6 1511 1506 1503 1507
1682 6 1511 1506 1503 1508
1683 11 1368 1365 1362 1359
1684 4 1368 1365 1362 1366
1685 4 1368 1365 1362 1367
1686 4 1369 1365 1362 1359
1687 6 1369 1365 1362 1366
1688 6 1369 1365 1362 1367
1689 4 1370 1365 1362 1359
1690 6 1370 1365 1362 1366
1691 6 1370 1365 1362 1367
1692 4 516 513 510 506
1693 6 516 513 510 514
1694 6 516 513 510 515
1695 4 517 513 510 506
1696 6 517 513 510 514
1697 6 517 513 510 515
1698 4 518 513 510 506
1699 6 518 513 510 514
1700 6 518 513 510 515
1701 11 962 959 956 953
1702 4 962 959 956 960
1703 4 962 959 956 961
1704 4 963 959 956 953
1705 6 963 959 956 960
1706 6 963 959 956 961
1707 4 964 959 956 953
1708 6 964 959 956 960
1709 6 964 959 956 961
1710 11 1512 1509 1506 1503
1711 4 1512 1509 1506 1510
1712 4 1512 1509 1506 1511
1713 4 1513 1509 1506 1503
1714 6 1513 1509 1506 1510
1715 6 1513 1509 1506 1511
1716 4 1514 1509 1506 1503
1717 6 1514 1509 1506 1510
1718 6 1514 1509 1506 1511
1719 1 174 170 169 171
1720 1 174 170 169 172
1721 1 174 170 169 173
1722 2 175 170 169 171
1723 2 175 170 169 172
1724 2 175 170 169 173
1725 2 176 170 169 171
1726 2 176 170 169 172
1727 2 176 170 169 173
1728 3 177 174 170 169
1729 4 177 174 170 175
1730 4 177 174 170 176
1731 5 178 174 170 169
1732 6 178 174 170 175
1733 6 178 174 170 176
1734 5 179 174 170 169
1735 6 179 174 170 175
1736 6 179 174 170 176
1737 4 180 177 174 170
1738 6 180 177 174 178
1739 6 180 177 174 179
1740 4 181 177 174 170
1741 6 181 177 174 178
1742 6 181 177 174 179
1743 4 182 177 174 170
1744 6 182 177 174 178
1745 6 182 177 174 179
1746 9 959 956 953 952
1747 4 959 956 953 957
1748 4 959 956 953 958
1749 10 960 956 953 952
1750 6 960 956 953 957
1751 6 960 956 953 958
1752 10 961 956 953 952
1753 6 961 956 953 957
1754 6 961 956 953 958
1755 7 956 953 952 954
1756 7 956 953 952 955
1757 8 957 953 952 954
1758 8 957 953 952 955
1759 8 958 953 952 954
1760 8 958 953 952 955
1761 12 953 954 952 955
1762 3 513 510 506 505
1763 4 513 510 506 511
1764 4 513 510 506 512
1765 5 514 510 506 505
1766 6 514 510 506 511
1767 6 514 510 506 512
1768 5 515 510 506 505
1769 6 515 510 506 511
1770 6 515 510 506 512
1771 1 510 506 505 507
1772 1 510 506 505 508
1773 1 510 506 505 509
1774 2 511 506 505 507
1775 2 511 506 505 508
1776 2 511 506 505 509
1777 2 512 506 505 507
1778 2 512 506 505 508
1779 2 512 506 505 509
1780 1 244 240 239 241
1781 1 244 240 239 242
1782 1 244 240 239 243
1783 2 245 240 239 241
1784 2 245 240 239 242
1785 2 245 240 239 243
1786 2 246 240 239 241
1787 2 246 240 239 242
1788 2 246 240 239 243
1789 11 1587 1584 1581 1578
1790 4 1587 1584 1581 1585
1791 4 1587 1584 1581 1586
1792 4 1588 1584 1581 1578
1793 6 1588 1584 1581 1585
1794 6 1588 1584 1581 1586
1795 4 1589 1584 1581 1578
1796 6 1589 1584 1581 1585
1797 6 1589 1584 1581 1586
1798 12 1578 1579 1577 1580
1799 4 1549 1546 1543 1540
1800 6 1549 1546 1543 1547
1801 6 1549 1546 1543 1548
1802 4 1550 1546 1543 1540
1803 6 1550 1546 1543 1547
1804 6 1550 1546 1543 1548
1805 4 1551 1546 1543 1540
1806 6 1551 1546 1543 1547
1807 6 1551 1546 1543 1548
1808 9 1584 1581 1578 1577
1809 4 1584 1581 1578 1582
1810 4 1584 1581 1578 1583
1811 10 1585 1581 1578 1577
1812 6 1585 1581 1578 1582
1813 6 1585 1581 1578 1583
1814 10 1586 1581 1578 1577
1815 6 1586 1581 1578 1582
1816 6 1586 1581 1578 1583
1817 3 233 230 226 225
1818 4 233 230 226 231
1819 4 233 230 226 232
1820 5 234 230 226 225
1821 6 234 230 226 231
1822 6 234 230 226 232
1823 5 235 230 226 225
1824 6 235 230 226 231
1825 6 235 230 226 232
1826 7 1581 1578 1577 1579
1827 7 1581 1578 1577 1580
1828 8 1582 1578 1577 1579
1829 8 1582 1578 1577 1580
1830 8 1583 1578 1577 1579
1831 8 1583 1578 1577 1580
1832 1 230 226 225 227
1833 1 230 226 225 228
1834 1 230 226 225 229
1835 2 231 226 225 227
1836 2 231 226 225 228
1837 2 231 226 225 229
1838 2 232 226 225 227
1839 2 232 226 225 228
1840 2 232 226 225 229
1841 4 236 233 230 226
1842 6 236 233 230 234
1843 6 236 233 230 235
1844 4 237 233 230 226
1845 6 237 233 230 234
1846 6 237 233 230 235
1847 4 238 233 230 226
1848 6 238 233 230 234
1849 6 238 233 230 235
1850 11 1546 1543 1540 1537
1851 4 1546 1543 1540 1544
1852 4 1546 1543 1540 1545
1853 4 1547 1543 1540 1537
1854 6 1547 1543 1540 1544
1855 6 1547 1543 1540 1545
1856 4 1548 1543 1540 1537
1857 6 1548 1543 1540 1544
1858 6 1548 1543 1540 1545
1859 9 1309 1306 1303 1302
1860 4 1309 1306 1303 1307
1861 4 1309 1306 1303 1308
1862 10 1310 1306 1303 1302
1863 6 1310 1306 1303 1307
1864 6 1310 1306 1303 1308
1865 10 1311 1306 1303 1302
1866 6 1311 1306 1303 1307
1867 6 1311 1306 1303 1308
1868 12 1303 1304 1302 1305
1869 4 2224 2221 2218 2215
1870 6 2224 2221 2218 2222
1871 6 2224 2221 2218 2223
1872 4 2225 2221 2218 2215
1873 6 2225 2221 2218 2222
1874 6 2225 2221 2218 2223
1875 4 2226 2221 2218 2215
1876 6 2226 2221 2218 2222
1877 6 2226 2221 2218 2223
1878 11 2221 2218 2215 2212
1879 4 2221 2218 2215 2219
1880 4 2221 2218 2215 2220
1881 4 2222 2218 2215 2212
1882 6 2222 2218 2215 2219
1883 6 2222 2218 2215 2220
1884 4 2223 2218 2215 2212
1885 6 2223 2218 2215 2219
1886 6 2223 2218 2215 2220
1887 11 1071 1068 1065 1062
1888 4 1071 1068 1065 1069
1889 4 1071 1068 1065 1070
1890 4 1072 1068 1065 1062
1891 6 1072 1068 1065 1069
1892 6 1072 1068 1065 1070
1893 4 1073 1068 1065 1062
1894 6 1073 1068 1065 1069
1895 6 1073 1068 1065 1070
1896 4 2249 2246 2243 2240
1897 6 2249 2246 2243 2247
1898 6 2249 2246 2243 2248
1899 4 2250 2246 2243 2240
1900 6 2250 2246 2243 2247
1901 6 2250 2246 2243 2248
1902 4 2251 2246 2243 2240
1903 6 2251 2246 2243 2247
1904 6 2251 2246 2243 2248
1905 11 1068 1065 1062 1059
1906 4 1068 1065 1062 1066
1907 4 1068 1065 1062 1067
1908 4 1069 1065 1062 1059
1909 6 1069 1065 1062 1066
1910 6 1069 1065 1062 1067
1911 4 1070 1065 1062 1059
1912 6 1070 1065 1062 1066
1913 6 1070 1065 1062 1067
1914 11 1065 1062 1059 1056
1915 4 1065 1062 1059 1063
1916 4 1065 1062 1059 1064
1917 4 1066 1062 1059 1056
1918 6 1066 1062 1059 1063
1919 6 1066 1062 1059 1064
1920 4 1067 1062 1059 1056
1921 6 1067 1062 1059 1063
1922 6 1067 1062 1059 1064
1923 11 1062 1059 1056 1053
1924 4 1062 1059 1056 1060
1925 4 1062 1059 1056 1061
1926 4 1063 1059 1056 1053
1927 6 1063 1059 1056 1060
1928 6 1063 1059 1056 1061
1929 4 1064 1059 1056 1053
1930 6 1064 1059 1056 1060
1931 6 1064 1059 1056 1061
1932 9 1059 1056 1053 1052
1933 4 1059 1056 1053 1057
1934 4 1059 1056 1053 1058
1935 10 1060 1056 1053 1052
1936 6 1060 1056 1053 1057
1937 6 1060 1056 1053 1058
1938 10 1061 1056 1053 1052
1939 6 1061 1056 1053 1057
1940 6 1061 1056 1053 1058
1941 11 1693 1690 1687 1684
1942 4 1693 1690 1687 1691
1943 4 1693 1690 1687 1692
1944 4 1694 1690 1687 1684
1945 6 1694 1690 1687 1691
1946 6 1694 1690 1687 1692
1947 4 1695 1690 1687 1684
1948 6 1695 1690 1687 1691
1949 6 1695 1690 1687 1692
1950 7 1056 1053 1052 1054
1951 7 1056 1053 1052 1055
1952 8 1057 1053 1052 1054
1953 8 1057 1053 1052 1055
1954 8 1058 1053 1052 1054
1955 8 1058 1053 1052 1055
1956 11 1365 1362 1359 1356
1957 4 1365 1362 1359 1363
1958 4 1365 1362 1359 1364
1959 4 1366 1362 1359 1356
1960 6 1366 1362 1359 1363
1961 6 1366 1362 1359 1364
1962 4 1367 1362 1359 1356
1963 6 1367 1362 1359 1363
1964 6 1367 1362 1359 1364
1965 1 748 744 743 745
1966 1 748 744 743 746
1967 1 748 744 743 747
1968 2 749 744 743 745
1969 2 749 744 743 746
1970 2 749 744 743 747
1971 2 750 744 743 745
1972 2 750 744 743 746
1973 2 750 744 743 747
1974 3 751 748 744 743
1975 4 751 748 744 749
1976 4 751 748 744 750
1977 5 752 748 744 743
1978 6 752 748 744 749
1979 6 752 748 744 750
1980 5 753 748 744 743
1981 6 753 748 744 749
1982 6 753 748 744 750
1983 4 754 751 748 744
1984 6 754 751 748 752
1985 6 754 751 748 753
1986 4 755 751 748 744
1987 6 755 751 748 752
1988 6 755 751 748 753
1989 4 756 751 748 744
1990 6 756 751 748 752
1991 6 756 751 748 753
1992 3 23 20 16 15
1993 4 23 20 16 21
1994 4 23 20 16 22
1995 5 24 20 16 15
1996 6 24 20 16 21
1997 6 24 20 16 22
1998 5 25 20 16 15
1999 6 25 20 16 21
2000 6 25 20 16 22
2001 3 261 258 254 253
2002 4 261 258 254 259
2003 4 261 258 254 260
2004 5 262 258 254 253
2005 6 262 258 254 259
2006 6 262 258 254 260
2007 5 263 258 254 253
2008 6 263 258 254 259
2009 6 263 258 254 260
2010 4 26 23 20 16
2011 6 26 23 20 24
2012 6 26 23 20 25
2013 4 27 23 20 16
2014 6 27 23 20 24
2015 6 27 23 20 25
2016 4 28 23 20 16
2017 6 28 23 20 24
2018 6 28 23 20 25
2019 1 20 16 15 17
2020 1 20 16 15 18
2021 1 20 16 15 19
2022 2 21 16 15 17
2023 2 21 16 15 18
2024 2 21 16 15 19
2025 2 22 16 15 17
2026 2 22 16 15 18
2027 2 22 16 15 19
2028 4 264 261 258 254
2029 6 264 261 258 262
2030 6 264 261 258 263
2031 4 265 261 258 254
2032 6 265 261 258 262
2033 6 265 261 258 263
2034 4 266 261 258 254
2035 6 266 261 258 262
2036 6 266 261 258 263
2037 12 853 854 852 855
2038 1 258 254 253 255
2039 1 258 254 253 256
2040 1 258 254 253 257
2041 2 259 254 253 255
2042 2 259 254 253 256
2043 2 259 254 253 257
2044 2 260 254 253 255
2045 2 260 254 253 256
2046 2 260 254 253 257
2047 1 594 590 589 591
2048 1 594 590 589 592
2049 1 594 590 589 593
2050 2 595 590 589 591
2051 2 595 590 589 592
2052 2 595 590 589 593
2053 2 596 590 589 591
2054 2 596 590 589 592
2055 2 596 590 589 593
2056 11 1515 1512 1509 1506
2057 4 1515 1512 1509 1513
2058 4 1515 1512 1509 1514
2059 4 1516 1512 1509 1506
2060 6 1516 1512 1509 1513
2061 6 1516 1512 1509 1514
2062 4 1517 1512 1509 1506
2063 6 1517 1512 1509 1513
2064 6 1517 1512 1509 1514
2065 4 250 247 244 240
2066 6 250 247 244 248
2067 6 250 247 244 249
2068 4 251 247 244 240
2069 6 251 247 244 248
2070 6 251 247 244 249
2071 4 252 247 244 240
2072 6 252 247 244 248
2073 6 252 247 244 249
2074 3 247 244 240 239
2075 4 247 244 240 245
2076 4 247 244 240 246
2077 5 248 244 240 239
2078 6 248 244 240 245
2079 6 248 244 240 246
2080 5 249 244 240 239
2081 6 249 244 240 245
2082 6 249 244 240 246
2083 11 1518 1515 1512 1509
2084 4 1518 1515 1512 1516
2085 4 1518 1515 1512 1517
2086 4 1519 1515 1512 1509
2087 6 1519 1515 1512 1516
2088 6 1519 1515 1512 1517
2089 4 1520 1515 1512 1509
2090 6 1520 1515 1512 1516
2091 6 1520 1515 1512 1517
2092 11 1521 1518 1515 1512
2093 4 1521 1518 1515 1519
2094 4 1521 1518 1515 1520
2095 4 1522 1518 1515 1512
2096 6 1522 1518 1515 1519
2097 6 1522 1518 1515 1520
2098 4 1523 1518 1515 1512
2099 6 1523 1518 1515 1519
2100 6 1523 1518 1515 1520
2101 4 1524 1521 1518 1515
2102 6 1524 1521 1518 1522
2103 6 1524 1521 1518 1523
2104 4 1525 1521 1518 1515
2105 6 1525 1521 1518 1522
2106 6 1525 1521 1518 1523
2107 4 1526 1521 1518 1515
2108 6 1526 1521 1518 1522
2109 6 1526 1521 1518 1523
2110 9 1384 1381 1378 1377
2111 4 1384 1381 1378 1382
2112 4 1384 1381 1378 1383
2113 10 1385 1381 1378 1377
2114 6 1385 1381 1378 1382
2115 6 1385 1381 1378 1383
2116 10 1386 1381 1378 1377
2117 6 1386 1381 1378 1382
2118 6 1386 1381 1378 1383
2119 4 768 765 762 758
2120 6 768 765 762 766
2121 6 768 765 762 767
2122 4 769 765 762 758
2123 6 769 765 762 766
2124 6 769 765 762 767
2125 4 770 765 762 758
2126 6 770 765 762 766
2127 6 770 765 762 767
2128 7 1381 1378 1377 1379
2129 7 1381 1378 1377 1380
2130 8 1382 1378 1377 1379
2131 8 1382 1378 1377 1380
2132 8 1383 1378 1377 1379
2133 8 1383 1378 1377 1380
2134 11 1387 1384 1381 1378
2135 4 1387 1384 1381 1385
2136 4 1387 1384 1381 1386
2137 4 1388 1384 1381 1378
2138 6 1388 1384 1381 1385
2139 6 1388 1384 1381 1386
2140 4 1389 1384 1381 1378
2141 6 1389 1384 1381 1385
2142 6 1389 1384 1381 1386
2143 11 1390 1387 1384 1381
2144 4 1390 1387 1384 1388
2145 4 1390 1387 1384 1389
2146 4 1391 1387 1384 1381
2147 6 1391 1387 1384 1388
2148 6 1391 1387 1384 1389
2149 4 1392 1387 1384 1381
2150 6 1392 1387 1384 1388
2151 6 1392 1387 1384 1389
2152 11 1393 1390 1387 1384
2153 4 1393 1390 1387 1391
2154 4 1393 1390 1387 1392
2155 4 1394 1390 1387 1384
2156 6 1394 1390 1387 1391
2157 6 1394 1390 1387 1392
2158 4 1395 1390 1387 1384
2159 6 1395 1390 1387 1391
2160 6 1395 1390 1387 1392
2161 11 1396 1393 1390 1387
2162 4 1396 1393 1390 1394
2163 4 1396 1393 1390 1395
2164 4 1397 1393 1390 1387
2165 6 1397 1393 1390 1394
2166 6 1397 1393 1390 1395
2167 4 1398 1393 1390 1387
2168 6 1398 1393 1390 1394
2169 6 1398 1393 1390 1395
2170 4 824 821 818 814
2171 6 824 821 818 822
2172 6 824 821 818 823
2173 4 825 821 818 814
2174 6 825 821 818 822
2175 6 825 821 818 823
2176 4 826 821 818 814
2177 6 826 821 818 822
2178 6 826 821 818 823
2179 7 1306 1303 1302 1304
2180 7 1306 1303 1302 1305
2181 8 1307 1303 1302 1304
2182 8 1307 1303 1302 1305
2183 8 1308 1303 1302 1304
2184 8 1308 1303 1302 1305
2185 12 1378 1379 1377 1380
2186 9 1434 1431 1428 1427
2187 4 1434 1431 1428 1432
2188 4 1434 1431 1428 1433
2189 10 1435 1431 1428 1427
2190 6 1435 1431 1428 1432
2191 6 1435 1431 1428 1433
2192 10 1436 1431 1428 1427
2193 6 1436 1431 1428 1432
2194 6 1436 1431 1428 1433
2195 4 614 611 608 604
2196 6 614 611 608 612
2197 6 614 611 608 613
2198 4 615 611 608 604
2199 6 615 611 608 612
2200 6 615 611 608 613
2201 4 616 611 608 604
2202 6 616 611 608 612
2203 6 616 611 608 613
2204 7 1431 1428 1427 1429
2205 7 1431 1428 1427 1430
2206 8 1432 1428 1427 1429
2207 8 1432 1428 1427 1430
2208 8 1433 1428 1427 1429
2209 8 1433 1428 1427 1430
2210 11 1440 1437 1434 1431
2211 4 1440 1437 1434 1438
2212 4 1440 1437 1434 1439
2213 4 1441 1437 1434 1431
2214 6 1441 1437 1434 1438
2215 6 1441 1437 1434 1439
2216 4 1442 1437 1434 1431
2217 6 1442 1437 1434 1438
2218 6 1442 1437 1434 1439
2219 11 1437 1434 1431 1428
2220 4 1437 1434 1431 1435
2221 4 1437 1434 1431 1436
2222 4 1438 1434 1431 1428
2223 6 1438 1434 1431 1435
2224 6 1438 1434 1431 1436
2225 4 1439 1434 1431 1428
2226 6 1439 1434 1431 1435
2227 6 1439 1434 1431 1436
2228 4 1449 1446 1443 1440
2229 6 1449 1446 1443 1447
2230 6 1449 1446 1443 1448
2231 4 1450 1446 1443 1440
2232 6 1450 1446 1443 1447
2233 6 1450 1446 1443 1448
2234 4 1451 1446 1443 1440
2235 6 1451 1446 1443 1447
2236 6 1451 1446 1443 1448
2237 11 946 943 940 937
2238 4 946 943 940 944
2239 4 946 943 940 945
2240 4 947 943 940 937
2241 6 947 943 940 944
2242 6 947 943 940 945
2243 4 948 943 940 937
2244 6 948 943 940 944
2245 6 948 943 940 945
2246 11 1443 1440 1437 1434
2247 4 1443 1440 1437 1441
2248 4 1443 1440 1437 1442
2249 4 1444 1440 1437 1434
2250 6 1444 1440 1437 1441
2251 6 1444 1440 1437 1442
2252 4 1445 1440 1437 1434
2253 6 1445 1440 1437 1441
2254 6 1445 1440 1437 1442
2255 4 949 946 943 940
2256 6 949 946 943 947
2257 6 949 946 943 948
2258 4 950 946 943 940
2259 6 950 946 943 947
2260 6 950 946 943 948
2261 4 951 946 943 940
2262 6 951 946 943 947
2263 6 951 946 943 948
2264 11 1446 1443 1440 1437
2265 4 1446 1443 1440 1444
2266 4 1446 1443 1440 1445
2267 4 1447 1443 1440 1437
2268 6 1447 1443 1440 1444
2269 6 1447 1443 1440 1445
2270 4 1448 1443 1440 1437
2271 6 1448 1443 1440 1444
2272 6 1448 1443 1440 1445
2273 11 940 937 934 931
2274 4 940 937 934 938
2275 4 940 937 934 939
2276 4 941 937 934 931
2277 6 941 937 934 938
2278 6 941 937 934 939
2279 4 942 937 934 931
2280 6 942 937 934 938
2281 6 942 937 934 939
2282 11 943 940 937 934
2283 4 943 940 937 941
2284 4 943 940 937 942
2285 4 944 940 937 934
2286 6 944 940 937 941
2287 6 944 940 937 942
2288 4 945 940 937 934
2289 6 945 940 937 941
2290 6 945 940 937 942
2291 3 597 594 590 589
2292 4 597 594 590 595
2293 4 597 594 590 596
2294 5 598 594 590 589
2295 6 598 594 590 595
2296 6 598 594 590 596
2297 5 599 594 590 589
2298 6 599 594 590 595
2299 6 599 594 590 596
2300 12 1053 1054 1052 1055
2301 4 600 597 594 590
2302 6 600 597 594 598
2303 6 600 597 594 599
2304 4 601 597 594 590
2305 6 601 597 594 598
2306 6 601 597 594 599
2307 4 602 597 594 590
2308 6 602 597 594 598
2309 6 602 597 594 599
2310 11 2018 2015 2012 2009
2311 4 2018 2015 2012 2016
2312 4 2018 2015 2012 2017
2313 4 2019 2015 2012 2009
2314 6 2019 2015 2012 2016
2315 6 2019 2015 2012 2017
2316 4 2020 2015 2012 2009
2317 6 2020 2015 2012 2016
2318 6 2020 2015 2012 2017
2319 11 2015 2012 2009 2006
2320 4 2015 2012 2009 2013
2321 4 2015 2012 2009 2014
2322 4 2016 2012 2009 2006
2323 6 2016 2012 2009 2013
2324 6 2016 2012 2009 2014
2325 4 2017 2012 2009 2006
2326 6 2017 2012 2009 2013
2327 6 2017 2012 2009 2014
2328 7 856 853 852 854
2329 7 856 853 852 855
2330 8 857 853 852 854
2331 8 857 853 852 855
2332 8 858 853 852 854
2333 8 858 853 852 855
2334 11 862 859 856 853
2335 4 862 859 856 860
2336 4 862 859 856 861
2337 4 863 859 856 853
2338 6 863 859 856 860
2339 6 863 859 856 861
2340 4 864 859 856 853
2341 6 864 859 856 860
2342 6 864 859 856 861
2343 9 2009 2006 2003 2002
2344 4 2009 2006 2003 2007
2345 4 2009 2006 2003 2008
2346 10 2010 2006 2003 2002
2347 6 2010 2006 2003 2007
2348 6 2010 2006 2003 2008
2349 10 2011 2006 2003 2002
2350 6 2011 2006 2003 2007
2351 6 2011 2006 2003 2008
2352 9 859 856 853 852
2353 4 859 856 853 857
2354 4 859 856 853 858
2355 10 860 856 853 852
2356 6 860 856 853 857
2357 6 860 856 853 858
2358 10 861 856 853 852
2359 6 861 856 853 857
2360 6 861 856 853 858
2361 3 121 118 114 113
2362 4 121 118 114 119
2363 4 121 118 114 120
2364 5 122 118 114 113
2365 6 122 118 114 119
2366 6 122 118 114 120
2367 5 123 118 114 113
2368 6 123 118 114 119
2369 6 123 118 114 120
2370 4 124 121 118 114
2371 6 124 121 118 122
2372 6 124 121 118 123
2373 4 125 121 118 114
2374 6 125 121 118 122
2375 6 125 121 118 123
2376 4 126 121 118 114
2377 6 126 121 118 122
2378 6 126 121 118 123
2379 11 2012 2009 2006 2003
2380 4 2012 2009 2006 2010
2381 4 2012 2009 2006 2011
2382 4 2013 2009 2006 2003
2383 6 2013 2009 2006 2010
2384 6 2013 2009 2006 2011
2385 4 2014 2009 2006 2003
2386 6 2014 2009 2006 2010
2387 6 2014 2009 2006 2011
2388 7 2006 2003 2002 2004
2389 7 2006 2003 2002 2005
2390 8 2007 2003 2002 2004
2391 8 2007 2003 2002 2005
2392 8 2008 2003 2002 2004
2393 8 2008 2003 2002 2005
2394 12 2003 2004 2002 2005
2395 3 765 762 758 757
2396 4 765 762 758 763
2397 4 765 762 758 764
2398 5 766 762 758 757
2399 6 766 762 758 763
2400 6 766 762 758 764
2401 5 767 762 758 757
2402 6 767 762 758 763
2403 6 767 762 758 764
2404 11 1112 1109 1106 1103
2405 4 1112 1109 1106 1110
2406 4 1112 1109 1106 1111
2407 4 1113 1109 1106 1103
2408 6 1113 1109 1106 1110
2409 6 1113 1109 1106 1111
2410 4 1114 1109 1106 1103
2411 6 1114 1109 1106 1110
2412 6 1114 1109 1106 1111
2413 11 1118 1115 1112 1109
2414 4 1118 1115 1112 1116
2415 4 1118 1115 1112 1117
2416 4 1119 1115 1112 1109
2417 6 1119 1115 1112 1116
2418 6 1119 1115 1112 1117
2419 4 1120 1115 1112 1109
2420 6 1120 1115 1112 1116
2421 6 1120 1115 1112 1117
2422 11 1115 1112 1109 1106
2423 4 1115 1112 1109 1113
2424 4 1115 1112 1109 1114
2425 4 1116 1112 1109 1106
2426 6 1116 1112 1109 1113
2427 6 1116 1112 1109 1114
2428 4 1117 1112 1109 1106
2429 6 1117 1112 1109 1113
2430 6 1117 1112 1109 1114
2431 3 93 90 86 85
2432 4 93 90 86 91
2433 4 93 90 86 92
2434 5 94 90 86 85
2435 6 94 90 86 91
2436 6 94 90 86 92
2437 5 95 90 86 85
2438 6 95 90 86 91
2439 6 95 90 86 92
2440 4 96 93 90 86
2441 6 96 93 90 94
2442 6 96 93 90 95
2443 4 97 93 90 86
2444 6 97 93 90 94
2445 6 97 93 90 95
2446 4 98 93 90 86
2447 6 98 93 90 94
2448 6 98 93 90 95
2449 1 90 86 85 87
2450 1 90 86 85 88
2451 1 90 86 85 89
2452 2 91 86 85 87
2453 2 91 86 85 88
2454 2 91 86 85 89
2455 2 92 86 85 87
2456 2 92 86 85 88
2457 2 92 86 85 89
2458 4 502 499 496 492
2459 6 502 499 496 500
2460 6 502 499 496 501
2461 4 503 499 496 492
2462 6 503 499 496 500
2463 6 503 499 496 501
2464 4 504 499 496 492
2465 6 504 499 496 500
2466 6 504 499 496 501
2467 3 499 496 492 491
2468 4 499 496 492 497
2469 4 499 496 492 498
2470 5 500 496 492 491
2471 6 500 496 492 497
2472 6 500 496 492 498
2473 5 501 496 492 491
2474 6 501 496 492 497
2475 6 501 496 492 498
2476 3 149 146 142 141
2477 4 149 146 142 147
2478 4 149 146 142 148
2479 5 150 146 142 141
2480 6 150 146 142 147
2481 6 150 146 142 148
2482 5 151 146 142 141
2483 6 151 146 142 147
2484 6 151 146 142 148
2485 3 373 370 366 365
2486 4 373 370 366 371
2487 4 373 370 366 372
2488 5 374 370 366 365
2489 6 374 370 366 371
2490 6 374 370 366 372
2491 5 375 370 366 365
2492 6 375 370 366 371
2493 6 375 370 366 372
2494 12 1428 1429 1427 1430
2495 1 370 366 365 367
2496 1 370 366 365 368
2497 1 370 366 365 369
2498 2 371 366 365 367
2499 2 371 366 365 368
2500 2 371 366 365 369
2501 2 372 366 365 367
2502 2 372 366 365 368
2503 2 372 366 365 369
2504 1 496 492 491 493
2505 1 496 492 491 494
2506 1 496 492 491 495
2507 2 497 492 491 493
2508 2 497 492 491 494
2509 2 497 492 491 495
2510 2 498 492 491 493
2511 2 498 492 491 494
2512 2 498 492 491 495
2513 12 1553 1554 1552 1555
2514 11 1037 1034 1031 1028
2515 4 1037 1034 1031 1035
2516 4 1037 1034 1031 1036
2517 4 1038 1034 1031 1028
2518 6 1038 1034 1031 1035
2519 6 1038 1034 1031 1036
2520 4 1039 1034 1031 1028
2521 6 1039 1034 1031 1035
2522 6 1039 1034 1031 1036
2523 9 1034 1031 1028 1027
2524 4 1034 1031 1028 1032
2525 4 1034 1031 1028 1033
2526 10 1035 1031 1028 1027
2527 6 1035 1031 1028 1032
2528 6 1035 1031 1028 1033
2529 10 1036 1031 1028 1027
2530 6 1036 1031 1028 1032
2531 6 1036 1031 1028 1033
2532 12 1028 1029 1027 1030
2533 7 1031 1028 1027 1029
2534 7 1031 1028 1027 1030
2535 8 1032 1028 1027 1029
2536 8 1032 1028 1027 1030
2537 8 1033 1028 1027 1029
2538 8 1033 1028 1027 1030
2539 7 1931 1928 1927 1929
2540 7 1931 1928 1927 1930
2541 8 1932 1928 1927 1929
2542 8 1932 1928 1927 1930
2543 8 1933 1928 1927 1929
2544 8 1933 1928 1927 1930
2545 11 2071 2068 2065 2062
2546 4 2071 2068 2065 2069
2547 4 2071 2068 2065 2070
2548 4 2072 2068 2065 2062
2549 6 2072 2068 2065 2069
2550 6 2072 2068 2065 2070
2551 4 2073 2068 2065 2062
2552 6 2073 2068 2065 2069
2553 6 2073 2068 2065 2070
2554 11 1040 1037 1034 1031
2555 4 1040 1037 1034 1038
2556 4 1040 1037 1034 1039
2557 4 1041 1037 1034 1031
2558 6 1041 1037 1034 1038
2559 6 1041 1037 1034 1039
2560 4 1042 1037 1034 1031
2561 6 1042 1037 1034 1038
2562 6 1042 1037 1034 1039
2563 4 2074 2071 2068 2065
2564 6 2074 2071 2068 2072
2565 6 2074 2071 2068 2073
2566 4 2075 2071 2068 2065
2567 6 2075 2071 2068 2072
2568 6 2075 2071 2068 2073
2569 4 2076 2071 2068 2065
2570 6 2076 2071 2068 2072
2571 6 2076 2071 2068 2073
2572 11 2065 2062 2059 2056
2573 4 2065 2062 2059 2063
2574 4 2065 2062 2059 2064
2575 4 2066 2062 2059 2056
2576 6 2066 2062 2059 2063
2577 6 2066 2062 2059 2064
2578 4 2067 2062 2059 2056
2579 6 2067 2062 2059 2063
2580 6 2067 2062 2059 2064
2581 9 2059 2056 2053 2052
2582 4 2059 2056 2053 2057
2583 4 2059 2056 2053 2058
2584 10 2060 2056 2053 2052
2585 6 2060 2056 2053 2057
2586 6 2060 2056 2053 2058
2587 10 2061 2056 2053 2052
2588 6 2061 2056 2053 2057
2589 6 2061 2056 2053 2058
2590 4 2024 2021 2018 2015
2591 6 2024 2021 2018 2022
2592 6 2024 2021 2018 2023
2593 4 2025 2021 2018 2015
2594 6 2025 2021 2018 2022
2595 6 2025 2021 2018 2023
2596 4 2026 2021 2018 2015
2597 6 2026 2021 2018 2022
2598 6 2026 2021 2018 2023
2599 11 2062 2059 2056 2053
2600 4 2062 2059 2056 2060
2601 4 2062 2059 2056 2061
2602 4 2063 2059 2056 2053
2603 6 2063 2059 2056 2060
2604 6 2063 2059 2056 2061
2605 4 2064 2059 2056 2053
2606 6 2064 2059 2056 2060
2607 6 2064 2059 2056 2061
2608 11 2021 2018 2015 2012
2609 4 2021 2018 2015 2019
2610 4 2021 2018 2015 2020
2611 4 2022 2018 2015 2012
2612 6 2022 2018 2015 2019
2613 6 2022 2018 2015 2020
2614 4 2023 2018 2015 2012
2615 6 2023 2018 2015 2019
2616 6 2023 2018 2015 2020
2617 11 2068 2065 2062 2059
2618 4 2068 2065 2062 2066
2619 4 2068 2065 2062 2067
2620 4 2069 2065 2062 2059
2621 6 2069 2065 2062 2066
2622 6 2069 2065 2062 2067
2623 4 2070 2065 2062 2059
2624 6 2070 2065 2062 2066
2625 6 2070 2065 2062 2067
2626 11 2043 2040 2037 2034
2627 4 2043 2040 2037 2041
2628 4 2043 2040 2037 2042
2629 4 2044 2040 2037 2034
2630 6 2044 2040 2037 2041
2631 6 2044 2040 2037 2042
2632 4 2045 2040 2037 2034
2633 6 2045 2040 2037 2041
2634 6 2045 2040 2037 2042
2635 11 2046 2043 2040 2037
2636 4 2046 2043 2040 2044
2637 4 2046 2043 2040 2045
2638 4 2047 2043 2040 2037
2639 6 2047 2043 2040 2044
2640 6 2047 2043 2040 2045
2641 4 2048 2043 2040 2037
2642 6 2048 2043 2040 2044
2643 6 2048 2043 2040 2045
2644 4 1849 1846 1843 1840
2645 6 1849 1846 1843 1847
2646 6 1849 1846 1843 1848
2647 4 1850 1846 1843 1840
2648 6 1850 1846 1843 1847
2649 6 1850 1846 1843 1848
2650 4 1851 1846 1843 1840
2651 6 1851 1846 1843 1847
2652 6 1851 1846 1843 1848
2653 11 2037 2034 2031 2028
2654 4 2037 2034 2031 2035
2655 4 2037 2034 2031 2036
2656 4 2038 2034 2031 2028
2657 6 2038 2034 2031 2035
2658 6 2038 2034 2031 2036
2659 4 2039 2034 2031 2028
2660 6 2039 2034 2031 2035
2661 6 2039 2034 2031 2036
2662 11 2040 2037 2034 2031
2663 4 2040 2037 2034 2038
2664 4 2040 2037 2034 2039
2665 4 2041 2037 2034 2031
2666 6 2041 2037 2034 2038
2667 6 2041 2037 2034 2039
2668 4 2042 2037 2034 2031
2669 6 2042 2037 2034 2038
2670 6 2042 2037 2034 2039
2671 7 2031 2028 2027 2029
2672 7 2031 2028 2027 2030
2673 8 2032 2028 2027 2029
2674 8 2032 2028 2027 2030
2675 8 2033 2028 2027 2029
2676 8 2033 2028 2027 2030
2677 9 2034 2031 2028 2027
2678 4 2034 2031 2028 2032
2679 4 2034 2031 2028 2033
2680 10 2035 2031 2028 2027
2681 6 2035 2031 2028 2032
2682 6 2035 2031 2028 2033
2683 10 2036 2031 2028 2027
2684 6 2036 2031 2028 2032
2685 6 2036 2031 2028 2033
2686 7 2231 2228 2227 2229
2687 7 2231 2228 2227 2230
2688 8 2232 2228 2227 2229
2689 8 2232 2228 2227 2230
2690 8 2233 2228 2227 2229
2691 8 2233 2228 2227 2230
2692 11 1846 1843 1840 1837
2693 4 1846 1843 1840 1844
2694 4 1846 1843 1840 1845
2695 4 1847 1843 1840 1837
2696 6 1847 1843 1840 1844
2697 6 1847 1843 1840 1845
2698 4 1848 1843 1840 1837
2699 6 1848 1843 1840 1844
2700 6 1848 1843 1840 1845
2701 12 2228 2229 2227 2230
2702 11 1843 1840 1837 1834
2703 4 1843 1840 1837 1841
2704 4 1843 1840 1837 1842
2705 4 1844 1840 1837 1834
2706 6 1844 1840 1837 1841
2707 6 1844 1840 1837 1842
2708 4 1845 1840 1837 1834
2709 6 1845 1840 1837 1841
2710 6 1845 1840 1837 1842
2711 11 1840 1837 1834 1831
2712 4 1840 1837 1834 1838
2713 4 1840 1837 1834 1839
2714 4 1841 1837 1834 1831
2715 6 1841 1837 1834 1838
2716 6 1841 1837 1834 1839
2717 4 1842 1837 1834 1831
2718 6 1842 1837 1834 1838
2719 6 1842 1837 1834 1839
2720 11 1837 1834 1831 1828
2721 4 1837 1834 1831 1835
2722 4 1837 1834 1831 1836
2723 4 1838 1834 1831 1828
2724 6 1838 1834 1831 1835
2725 6 1838 1834 1831 1836
2726 4 1839 1834 1831 1828
2727 6 1839 1834 1831 1835
2728 6 1839 1834 1831 1836
2729 1 524 520 519 521
2730 1 524 520 519 522
2731 1 524 520 519 523
2732 2 525 520 519 521
2733 2 525 520 519 522
2734 2 525 520 519 523
2735 2 526 520 519 521
2736 2 526 520 519 522
2737 2 526 520 519 523
2738 11 1571 1568 1565 1562
2739 4 1571 1568 1565 1569
2740 4 1571 1568 1565 1570
2741 4 1572 1568 1565 1562
2742 6 1572 1568 1565 1569
2743 6 1572 1568 1565 1570
2744 4 1573 1568 1565 1562
2745 6 1573 1568 1565 1569
2746 6 1573 1568 1565 1570
2747 11 1568 1565 1562 1559
2748 4 1568 1565 1562 1566
2749 4 1568 1565 1562 1567
2750 4 1569 1565 1562 1559
2751 6 1569 1565 1562 1566
2752 6 1569 1565 1562 1567
2753 4 1570 1565 1562 1559
2754 6 1570 1565 1562 1566
2755 6 1570 1565 1562 1567
2756 11 1562 1559 1556 1553
2757 4 1562 1559 1556 1560
2758 4 1562 1559 1556 1561
2759 4 1563 1559 1556 1553
2760 6 1563 1559 1556 1560
2761 6 1563 1559 1556 1561
2762 4 1564 1559 1556 1553
2763 6 1564 1559 1556 1560
2764 6 1564 1559 1556 1561
2765 4 530 527 524 520
2766 6 530 527 524 528
2767 6 530 527 524 529
2768 4 531 527 524 520
2769 6 531 527 524 528
2770 6 531 527 524 529
2771 4 532 527 524 520
2772 6 532 527 524 528
2773 6 532 527 524 529
2774 3 527 524 520 519
2775 4 527 524 520 525
2776 4 527 524 520 526
2777 5 528 524 520 519
2778 6 528 524 520 525
2779 6 528 524 520 526
2780 5 529 524 520 519
2781 6 529 524 520 525
2782 6 529 524 520 526
2783 11 1565 1562 1559 1556
2784 4 1565 1562 1559 1563
2785 4 1565 1562 1559 1564
2786 4 1566 1562 1559 1556
2787 6 1566 1562 1559 1563
2788 6 1566 1562 1559 1564
2789 4 1567 1562 1559 1556
2790 6 1567 1562 1559 1563
2791 6 1567 1562 1559 1564
2792 9 1834 1831 1828 1827
2793 4 1834 1831 1828 1832
2794 4 1834 1831 1828 1833
2795 10 1835 1831 1828 1827
2796 6 1835 1831 1828 1832
2797 6 1835 1831 1828 1833
2798 10 1836 1831 1828 1827
2799 6 1836 1831 1828 1832
2800 6 1836 1831 1828 1833
2801 7 1831 1828 1827 1829
2802 7 1831 1828 1827 1830
2803 8 1832 1828 1827 1829
2804 8 1832 1828 1827 1830
2805 8 1833 1828 1827 1829
2806 8 1833 1828 1827 1830
2807 11 1337 1334 1331 1328
2808 4 1337 1334 1331 1335
2809 4 1337 1334 1331 1336
2810 4 1338 1334 1331 1328
2811 6 1338 1334 1331 1335
2812 6 1338 1334 1331 1336
2813 4 1339 1334 1331 1328
2814 6 1339 1334 1331 1335
2815 6 1339 1334 1331 1336
2816 9 1334 1331 1328 1327
2817 4 1334 1331 1328 1332
2818 4 1334 1331 1328 1333
2819 10 1335 1331 1328 1327
2820 6 1335 1331 1328 1332
2821 6 1335 1331 1328 1333
2822 10 1336 1331 1328 1327
2823 6 1336 1331 1328 1332
2824 6 1336 1331 1328 1333
2825 7 1331 1328 1327 1329
2826 7 1331 1328 1327 1330
2827 8 1332 1328 1327 1329
2828 8 1332 1328 1327 1330
2829 8 1333 1328 1327 1329
2830 8 1333 1328 1327 1330
2831 1 552 548 547 549
2832 1 552 548 547 550
2833 1 552 548 547 551
2834 2 553 548 547 549
2835 2 553 548 547 550
2836 2 553 548 547 551
2837 2 554 548 547 549
2838 2 554 548 547 550
2839 2 554 548 547 551
2840 3 555 552 548 547
2841 4 555 552 548 553
2842 4 555 552 548 554
2843 5 556 552 548 547
2844 6 556 552 548 553
2845 6 556 552 548 554
2846 5 557 552 548 547
2847 6 557 552 548 553
2848 6 557 552 548 554
2849 1 34 30 29 31
2850 1 34 30 29 32
2851 1 34 30 29 33
2852 2 35 30 29 31
2853 2 35 30 29 32
2854 2 35 30 29 33
2855 2 36 30 29 31
2856 2 36 30 29 32
2857 2 36 30 29 33
2858 11 1340 1337 1334 1331
2859 4 1340 1337 1334 1338
2860 4 1340 1337 1334 1339
2861 4 1341 1337 1334 1331
2862 6 1341 1337 1334 1338
2863 6 1341 1337 1334 1339
2864 4 1342 1337 1334 1331
2865 6 1342 1337 1334 1338
2866 6 1342 1337 1334 1339
2867 12 1328 1329 1327 1330
2868 12 1528 1529 1527 1530
2869 4 558 555 552 548
2870 6 558 555 552 556
2871 6 558 555 552 557
2872 4 559 555 552 548
2873 6 559 555 552 556
2874 6 559 555 552 557
2875 4 560 555 552 548
2876 6 560 555 552 556
2877 6 560 555 552 557
2878 11 1343 1340 1337 1334
2879 4 1343 1340 1337 1341
2880 4 1343 1340 1337 1342
2881 4 1344 1340 1337 1334
2882 6 1344 1340 1337 1341
2883 6 1344 1340 1337 1342
2884 4 1345 1340 1337 1334
2885 6 1345 1340 1337 1341
2886 6 1345 1340 1337 1342
2887 4 2049 2046 2043 2040
2888 6 2049 2046 2043 2047
2889 6 2049 2046 2043 2048
2890 4 2050 2046 2043 2040
2891 6 2050 2046 2043 2047
2892 6 2050 2046 2043 2048
2893 4 2051 2046 2043 2040
2894 6 2051 2046 2043 2047
2895 6 2051 2046 2043 2048
2896 3 37 34 30 29
2897 4 37 34 30 35
2898 4 37 34 30 36
2899 5 38 34 30 29
2900 6 38 34 30 35
2901 6 38 34 30 36
2902 5 39 34 30 29
2903 6 39 34 30 35
2904 6 39 34 30 36
2905 4 849 846 843 840
2906 6 849 846 843 847
2907 6 849 846 843 848
2908 4 850 846 843 840
2909 6 850 846 843 847
2910 6 850 846 843 848
2911 4 851 846 843 840
2912 6 851 846 843 847
2913 6 851 846 843 848
2914 11 846 843 840 837
2915 4 846 843 840 844
2916 4 846 843 840 845
2917 4 847 843 840 837
2918 6 847 843 840 844
2919 6 847 843 840 845
2920 4 848 843 840 837
2921 6 848 843 840 844
2922 6 848 843 840 845
2923 11 840 837 834 831
2924 4 840 837 834 838
2925 4 840 837 834 839
2926 4 841 837 834 831
2927 6 841 837 834 838
2928 6 841 837 834 839
2929 4 842 837 834 831
2930 6 842 837 834 838
2931 6 842 837 834 839
2932 7 1631 1628 1627 1629
2933 7 1631 1628 1627 1630
2934 8 1632 1628 1627 1629
2935 8 1632 1628 1627 1630
2936 8 1633 1628 1627 1629
2937 8 1633 1628 1627 1630
2938 11 843 840 837 834
2939 4 843 840 837 841
2940 4 843 840 837 842
2941 4 844 840 837 834
2942 6 844 840 837 841
2943 6 844 840 837 842
2944 4 845 840 837 834
2945 6 845 840 837 841
2946 6 845 840 837 842
2947 12 1628 1629 1627 1630
2948 9 1634 1631 1628 1627
2949 4 1634 1631 1628 1632
2950 4 1634 1631 1628 1633
2951 10 1635 1631 1628 1627
2952 6 1635 1631 1628 1632
2953 6 1635 1631 1628 1633
2954 10 1636 1631 1628 1627
2955 6 1636 1631 1628 1632
2956 6 1636 1631 1628 1633
2957 4 40 37 34 30
2958 6 40 37 34 38
2959 6 40 37 34 39
2960 4 41 37 34 30
2961 6 41 37 34 38
2962 6 41 37 34 39
2963 4 42 37 34 30
2964 6 42 37 34 38
2965 6 42 37 34 39
2966 11 1637 1634 1631 1628
2967 4 1637 1634 1631 1635
2968 4 1637 1634 1631 1636
2969 4 1638 1634 1631 1628
2970 6 1638 1634 1631 1635
2971 6 1638 1634 1631 1636
2972 4 1639 1634 1631 1628
2973 6 1639 1634 1631 1635
2974 6 1639 1634 1631 1636
2975 11 2237 2234 2231 2228
2976 4 2237 2234 2231 2235
2977 4 2237 2234 2231 2236
2978 4 2238 2234 2231 2228
2979 6 2238 2234 2231 2235
2980 6 2238 2234 2231 2236
2981 4 2239 2234 2231 2228
2982 6 2239 2234 2231 2235
2983 6 2239 2234 2231 2236
2984 11 2243 2240 2237 2234
2985 4 2243 2240 2237 2241
2986 4 2243 2240 2237 2242
2987 4 2244 2240 2237 2234
2988 6 2244 2240 2237 2241
2989 6 2244 2240 2237 2242
2990 4 2245 2240 2237 2234
2991 6 2245 2240 2237 2241
2992 6 2245 2240 2237 2242
2993 9 2234 2231 2228 2227
2994 4 2234 2231 2228 2232
2995 4 2234 2231 2228 2233
2996 10 2235 2231 2228 2227
2997 6 2235 2231 2228 2232
2998 6 2235 2231 2228 2233
2999 10 2236 2231 2228 2227
3000 6 2236 2231 2228 2232
3001 6 2236 2231 2228 2233
3002 11 2240 2237 2234 2231
3003 4 2240 2237 2234 2238
3004 4 2240 2237 2234 2239
3005 4 2241 2237 2234 2231
3006 6 2241 2237 2234 2238
3007 6 2241 2237 2234 2239
3008 4 2242 2237 2234 2231
3009 6 2242 2237 2234 2238
3010 6 2242 2237 2234 2239
3011 4 1474 1471 1468 1465
3012 6 1474 1471 1468 1472
3013 6 1474 1471 1468 1473
3014 4 1475 1471 1468 1465
3015 6 1475 1471 1468 1472
3016 6 1475 1471 1468 1473
3017 4 1476 1471 1468 1465
3018 6 1476 1471 1468 1472
3019 6 1476 1471 1468 1473
3020 7 1881 1878 1877 1879
3021 7 1881 1878 1877 1880
3022 8 1882 1878 1877 1879
3023 8 1882 1878 1877 1880
3024 8 1883 1878 1877 1879
3025 8 1883 1878 1877 1880
3026 3 443 440 436 435
3027 4 443 440 436 441
3028 4 443 440 436 442
3029 5 444 440 436 435
3030 6 444 440 436 441
3031 6 444 440 436 442
3032 5 445 440 436 435
3033 6 445 440 436 441
3034 6 445 440 436 442
3035 9 1884 1881 1878 1877
3036 4 1884 1881 1878 1882
3037 4 1884 1881 1878 1883
3038 10 1885 1881 1878 1877
3039 6 1885 1881 1878 1882
3040 6 1885 1881 1878 1883
3041 10 1886 1881 1878 1877
3042 6 1886 1881 1878 1882
3043 6 1886 1881 1878 1883
3044 11 1471 1468 1465 1462
3045 4 1471 1468 1465 1469
3046 4 1471 1468 1465 1470
3047 4 1472 1468 1465 1462
3048 6 1472 1468 1465 1469
3049 6 1472 1468 1465 1470
3050 4 1473 1468 1465 1462
3051 6 1473 1468 1465 1469
3052 6 1473 1468 1465 1470
3053 12 1828 1829 1827 1830
3054 11 1468 1465 1462 1459
3055 4 1468 1465 1462 1466
3056 4 1468 1465 1462 1467
3057 4 1469 1465 1462 1459
3058 6 1469 1465 1462 1466
3059 6 1469 1465 1462 1467
3060 4 1470 1465 1462 1459
3061 6 1470 1465 1462 1466
3062 6 1470 1465 1462 1467
3063 3 135 132 128 127
3064 4 135 132 128 133
3065 4 135 132 128 134
3066 5 136 132 128 127
3067 6 136 132 128 133
3068 6 136 132 128 134
3069 5 137 132 128 127
3070 6 137 132 128 133
3071 6 137 132 128 134
3072 1 132 128 127 129
3073 1 132 128 127 130
3074 1 132 128 127 131
3075 2 133 128 127 129
3076 2 133 128 127 130
3077 2 133 128 127 131
3078 2 134 128 127 129
3079 2 134 128 127 130
3080 2 134 128 127 131
3081 4 138 135 132 128
3082 6 138 135 132 136
3083 6 138 135 132 137
3084 4 139 135 132 128
3085 6 139 135 132 136
3086 6 139 135 132 137
3087 4 140 135 132 128
3088 6 140 135 132 136
3089 6 140 135 132 137
3090 11 1465 1462 1459 1456
3091 4 1465 1462 1459 1463
3092 4 1465 1462 1459 1464
3093 4 1466 1462 1459 1456
3094 6 1466 1462 1459 1463
3095 6 1466 1462 1459 1464
3096 4 1467 1462 1459 1456
3097 6 1467 1462 1459 1463
3098 6 1467 1462 1459 1464
3099 7 1531 1528 1527 1529
3100 7 1531 1528 1527 1530
3101 8 1532 1528 1527 1529
3102 8 1532 1528 1527 1530
3103 8 1533 1528 1527 1529
3104 8 1533 1528 1527 1530
3105 11 1537 1534 1531 1528
3106 4 1537 1534 1531 1535
3107 4 1537 1534 1531 1536
3108 4 1538 1534 1531 1528
3109 6 1538 1534 1531 1535
3110 6 1538 1534 1531 1536
3111 4 1539 1534 1531 1528
3112 6 1539 1534 1531 1535
3113 6 1539 1534 1531 1536
3114 11 1540 1537 1534 1531
3115 4 1540 1537 1534 1538
3116 4 1540 1537 1534 1539
3117 4 1541 1537 1534 1531
3118 6 1541 1537 1534 1538
3119 6 1541 1537 1534 1539
3120 4 1542 1537 1534 1531
3121 6 1542 1537 1534 1538
3122 6 1542 1537 1534 1539
3123 9 1534 1531 1528 1527
3124 4 1534 1531 1528 1532
3125 4 1534 1531 1528 1533
3126 10 1535 1531 1528 1527
3127 6 1535 1531 1528 1532
3128 6 1535 1531 1528 1533
3129 10 1536 1531 1528 1527
3130 6 1536 1531 1528 1532
3131 6 1536 1531 1528 1533
3132 7 1606 1603 1602 1604
3133 7 1606 1603 1602 1605
3134 8 1607 1603 1602 1604
3135 8 1607 1603 1602 1605
3136 8 1608 1603 1602 1604
3137 8 1608 1603 1602 1605
3138 12 2178 2179 2177 2180
3139 9 1609 1606 1603 1602
3140 4 1609 1606 1603 1607
3141 4 1609 1606 1603 1608
3142 10 1610 1606 1603 1602
3143 6 1610 1606 1603 1607
3144 6 1610 1606 1603 1608
3145 10 1611 1606 1603 1602
3146 6 1611 1606 1603 1607
3147 6 1611 1606 1603 1608
3148 4 586 583 580 576
3149 6 586 583 580 584
3150 6 586 583 580 585
3151 4 587 583 580 576
3152 6 587 583 580 584
3153 6 587 583 580 585
3154 4 588 583 580 576
3155 6 588 583 580 584
3156 6 588 583 580 585
3157 3 583 580 576 575
3158 4 583 580 576 581
3159 4 583 580 576 582
3160 5 584 580 576 575
3161 6 584 580 576 581
3162 6 584 580 576 582
3163 5 585 580 576 575
3164 6 585 580 576 581
3165 6 585 580 576 582
3166 12 1603 1604 1602 1605
3167 1 580 576 575 577
3168 1 580 576 575 578
3169 1 580 576 575 579
3170 2 581 576 575 577
3171 2 581 576 575 578
3172 2 581 576 575 579
3173 2 582 576 575 577
3174 2 582 576 575 578
3175 2 582 576 575 579
3176 11 1543 1540 1537 1534
3177 4 1543 1540 1537 1541
3178 4 1543 1540 1537 1542
3179 4 1544 1540 1537 1534
3180 6 1544 1540 1537 1541
3181 6 1544 1540 1537 1542
3182 4 1545 1540 1537 1534
3183 6 1545 1540 1537 1541
3184 6 1545 1540 1537 1542
3185 11 1612 1609 1606 1603
3186 4 1612 1609 1606 1610
3187 4 1612 1609 1606 1611
3188 4 1613 1609 1606 1603
3189 6 1613 1609 1606 1610
3190 6 1613 1609 1606 1611
3191 4 1614 1609 1606 1603
3192 6 1614 1609 1606 1610
3193 6 1614 1609 1606 1611
3194 11 1690 1687 1684 1681
3195 4 1690 1687 1684 1688
3196 4 1690 1687 1684 1689
3197 4 1691 1687 1684 1681
3198 6 1691 1687 1684 1688
3199 6 1691 1687 1684 1689
3200 4 1692 1687 1684 1681
3201 6 1692 1687 1684 1688
3202 6 1692 1687 1684 1689
3203 11 1687 1684 1681 1678
3204 4 1687 1684 1681 1685
3205 4 1687 1684 1681 1686
3206 4 1688 1684 1681 1678
3207 6 1688 1684 1681 1685
3208 6 1688 1684 1681 1686
3209 4 1689 1684 1681 1678
3210 6 1689 1684 1681 1685
3211 6 1689 1684 1681 1686
3212 11 837 834 831 828
3213 4 837 834 831 835
3214 4 837 834 831 836
3215 4 838 834 831 828
3216 6 838 834 831 835
3217 6 838 834 831 836
3218 4 839 834 831 828
3219 6 839 834 831 835
3220 6 839 834 831 836
3221 9 834 831 828 827
3222 4 834 831 828 832
3223 4 834 831 828 833
3224 10 835 831 828 827
3225 6 835 831 828 832
3226 6 835 831 828 833
3227 10 836 831 828 827
3228 6 836 831 828 832
3229 6 836 831 828 833
3230 4 446 443 440 436
3231 6 446 443 440 444
3232 6 446 443 440 445
3233 4 447 443 440 436
3234 6 447 443 440 444
3235 6 447 443 440 445
3236 4 448 443 440 436
3237 6 448 443 440 444
3238 6 448 443 440 445
3239 7 831 828 827 829
3240 7 831 828 827 830
3241 8 832 828 827 829
3242 8 832 828 827 830
3243 8 833 828 827 829
3244 8 833 828 827 830
3245 12 1678 1679 1677 1680
3246 1 440 436 435 437
3247 1 440 436 435 438
3248 1 440 436 435 439
3249 2 441 436 435 437
3250 2 441 436 435 438
3251 2 441 436 435 439
3252 2 442 436 435 437
3253 2 442 436 435 438
3254 2 442 436 435 439
3255 12 828 829 827 830
3256 1 776 772 771 773
3257 1 776 772 771 774
3258 1 776 772 771 775
3259 2 777 772 771 773
3260 2 777 772 771 774
3261 2 777 772 771 775
3262 2 778 772 771 773
3263 2 778 772 771 774
3264 2 778 772 771 775
3265 7 1681 1678 1677 1679
3266 7 1681 1678 1677 1680
3267 8 1682 1678 1677 1679
3268 8 1682 1678 1677 1680
3269 8 1683 1678 1677 1679
3270 8 1683 1678 1677 1680
3271 9 1684 1681 1678 1677
3272 4 1684 1681 1678 1682
3273 4 1684 1681 1678 1683
3274 10 1685 1681 1678 1677
3275 6 1685 1681 1678 1682
3276 6 1685 1681 1678 1683
3277 10 1686 1681 1678 1677
3278 6 1686 1681 1678 1682
3279 6 1686 1681 1678 1683
3280 1 202 198 197 199
3281 1 202 198 197 200
3282 1 202 198 197 201
3283 2 203 198 197 199
3284 2 203 198 197 200
3285 2 203 198 197 201
3286 2 204 198 197 199
3287 2 204 198 197 200
3288 2 204 198 197 201
3289 4 208 205 202 198
3290 6 208 205 202 206
3291 6 208 205 202 207
3292 4 209 205 202 198
3293 6 209 205 202 206
3294 6 209 205 202 207
3295 4 210 205 202 198
3296 6 210 205 202 206
3297 6 210 205 202 207
3298 7 1356 1353 1352 1354
3299 7 1356 1353 1352 1355
3300 8 1357 1353 1352 1354
3301 8 1357 1353 1352 1355
3302 8 1358 1353 1352 1354
3303 8 1358 1353 1352 1355
3304 12 1353 1354 1352 1355
3305 3 205 202 198 197
3306 4 205 202 198 203
3307 4 205 202 198 204
3308 5 206 202 198 197
3309 6 206 202 198 203
3310 6 206 202 198 204
3311 5 207 202 198 197
3312 6 207 202 198 203
3313 6 207 202 198 204
3314 11 1362 1359 1356 1353
3315 4 1362 1359 1356 1360
3316 4 1362 1359 1356 1361
3317 4 1363 1359 1356 1353
3318 6 1363 1359 1356 1360
3319 6 1363 1359 1356 1361
3320 4 1364 1359 1356 1353
3321 6 1364 1359 1356 1360
3322 6 1364 1359 1356 1361
3323 1 650 646 645 647
3324 1 650 646 645 648
3325 1 650 646 645 649
3326 2 651 646 645 647
3327 2 651 646 645 648
3328 2 651 646 645 649
3329 2 652 646 645 647
3330 2 652 646 645 648
3331 2 652 646 645 649
3332 9 1359 1356 1353 1352
3333 4 1359 1356 1353 1357
3334 4 1359 1356 1353 1358
3335 10 1360 1356 1353 1352
3336 6 1360 1356 1353 1357
3337 6 1360 1356 1353 1358
3338 10 1361 1356 1353 1352
3339 6 1361 1356 1353 1357
3340 6 1361 1356 1353 1358
3341 11 2290 2287 2284 2281
3342 4 2290 2287 2284 2288
3343 4 2290 2287 2284 2289
3344 4 2291 2287 2284 2281
3345 6 2291 2287 2284 2288
3346 6 2291 2287 2284 2289
3347 4 2292 2287 2284 2281
3348 6 2292 2287 2284 2288
3349 6 2292 2287 2284 2289
3350 11 2287 2284 2281 2278
3351 4 2287 2284 2281 2285
3352 4 2287 2284 2281 2286
3353 4 2288 2284 2281 2278
3354 6 2288 2284 2281 2285
3355 6 2288 2284 2281 2286
3356 4 2289 2284 2281 2278
3357 6 2289 2284 2281 2285
3358 6 2289 2284 2281 2286
3359 4 924 921 918 915
3360 6 924 921 918 922
3361 6 924 921 918 923
3362 4 925 921 918 915
3363 6 925 921 918 922
3364 6 925 921 918 923
3365 4 926 921 918 915
3366 6 926 921 918 922
3367 6 926 921 918 923
3368 1 762 758 757 759
3369 1 762 758 757 760
3370 1 762 758 757 761
3371 2 763 758 757 759
3372 2 763 758 757 760
3373 2 763 758 757 761
3374 2 764 758 757 759
3375 2 764 758 757 760
3376 2 764 758 757 761
3377 11 1462 1459 1456 1453
3378 4 1462 1459 1456 1460
3379 4 1462 1459 1456 1461
3380 4 1463 1459 1456 1453
3381 6 1463 1459 1456 1460
3382 6 1463 1459 1456 1461
3383 4 1464 1459 1456 1453
3384 6 1464 1459 1456 1460
3385 6 1464 1459 1456 1461
3386 7 1456 1453 1452 1454
3387 7 1456 1453 1452 1455
3388 8 1457 1453 1452 1454
3389 8 1457 1453 1452 1455
3390 8 1458 1453 1452 1454
3391 8 1458 1453 1452 1455
3392 9 1659 1656 1653 1652
3393 4 1659 1656 1653 1657
3394 4 1659 1656 1653 1658
3395 10 1660 1656 1653 1652
3396 6 1660 1656 1653 1657
3397 6 1660 1656 1653 1658
3398 10 1661 1656 1653 1652
3399 6 1661 1656 1653 1657
3400 6 1661 1656 1653 1658
3401 9 1459 1456 1453 1452
3402 4 1459 1456 1453 1457
3403 4 1459 1456 1453 1458
3404 10 1460 1456 1453 1452
3405 6 1460 1456 1453 1457
3406 6 1460 1456 1453 1458
3407 10 1461 1456 1453 1452
3408 6 1461 1456 1453 1457
3409 6 1461 1456 1453 1458
3410 12 1453 1454 1452 1455
3411 11 1668 1665 1662 1659
3412 4 1668 1665 1662 1666
3413 4 1668 1665 1662 1667
3414 4 1669 1665 1662 1659
3415 6 1669 1665 1662 1666
3416 6 1669 1665 1662 1667
3417 4 1670 1665 1662 1659
3418 6 1670 1665 1662 1666
3419 6 1670 1665 1662 1667
3420 7 1656 1653 1652 1654
3421 7 1656 1653 1652 1655
3422 8 1657 1653 1652 1654
3423 8 1657 1653 1652 1655
3424 8 1658 1653 1652 1654
3425 8 1658 1653 1652 1655
3426 11 921 918 915 912
3427 4 921 918 915 919
3428 4 921 918 915 920
3429 4 922 918 915 912
3430 6 922 918 915 919
3431 6 922 918 915 920
3432 4 923 918 915 912
3433 6 923 918 915 919
3434 6 923 918 915 920
3435 12 1653 1654 1652 1655
3436 4 1674 1671 1668 1665
3437 6 1674 1671 1668 1672
3438 6 1674 1671 1668 1673
3439 4 1675 1671 1668 1665
3440 6 1675 1671 1668 1672
3441 6 1675 1671 1668 1673
3442 4 1676 1671 1668 1665
3443 6 1676 1671 1668 1672
3444 6 1676 1671 1668 1673
3445 11 1662 1659 1656 1653
3446 4 1662 1659 1656 1660
3447 4 1662 1659 1656 1661
3448 4 1663 1659 1656 1653
3449 6 1663 1659 1656 1660
3450 6 1663 1659 1656 1661
3451 4 1664 1659 1656 1653
3452 6 1664 1659 1656 1660
3453 6 1664 1659 1656 1661
3454 11 1615 1612 1609 1606
3455 4 1615 1612 1609 1613
3456 4 1615 1612 1609 1614
3457 4 1616 1612 1609 1606
3458 6 1616 1612 1609 1613
3459 6 1616 1612 1609 1614
3460 4 1617 1612 1609 1606
3461 6 1617 1612 1609 1613
3462 6 1617 1612 1609 1614
3463 4 740 737 734 730
3464 6 740 737 734 738
3465 6 740 737 734 739
3466 4 741 737 734 730
3467 6 741 737 734 738
3468 6 741 737 734 739
3469 4 742 737 734 730
3470 6 742 737 734 738
3471 6 742 737 734 739
3472 1 734 730 729 731
3473 1 734 730 729 732
3474 1 734 730 729 733
3475 2 735 730 729 731
3476 2 735 730 729 732
3477 2 735 730 729 733
3478 2 736 730 729 731
3479 2 736 730 729 732
3480 2 736 730 729 733
3481 3 737 734 730 729
3482 4 737 734 730 735
3483 4 737 734 730 736
3484 5 738 734 730 729
3485 6 738 734 730 735
3486 6 738 734 730 736
3487 5 739 734 730 729
3488 6 739 734 730 735
3489 6 739 734 730 736
3490 3 541 538 534 533
3491 4 541 538 534 539
3492 4 541 538 534 540
3493 5 542 538 534 533
3494 6 542 538 534 539
3495 6 542 538 534 540
3496 5 543 538 534 533
3497 6 543 538 534 539
3498 6 543 538 534 540
3499 4 544 541 538 534
3500 6 544 541 538 542
3501 6 544 541 538 543
3502 4 545 541 538 534
3503 6 545 541 538 542
3504 6 545 541 538 543
3505 4 546 541 538 534
3506 6 546 541 538 542
3507 6 546 541 538 543
3508 11 1618 1615 1612 1609
3509 4 1618 1615 1612 1616
3510 4 1618 1615 1612 1617
3511 4 1619 1615 1612 1609
3512 6 1619 1615 1612 1616
3513 6 1619 1615 1612 1617
3514 4 1620 1615 1612 1609
3515 6 1620 1615 1612 1616
3516 6 1620 1615 1612 1617
3517 1 818 814 813 815
3518 1 818 814 813 816
3519 1 818 814 813 817
3520 2 819 814 813 815
3521 2 819 814 813 816
3522 2 819 814 813 817
3523 2 820 814 813 815
3524 2 820 814 813 816
3525 2 820 814 813 817
3526 11 1621 1618 1615 1612
3527 4 1621 1618 1615 1619
3528 4 1621 1618 1615 1620
3529 4 1622 1618 1615 1612
3530 6 1622 1618 1615 1619
3531 6 1622 1618 1615 1620
3532 4 1623 1618 1615 1612
3533 6 1623 1618 1615 1619
3534 6 1623 1618 1615 1620
3535 4 1624 1621 1618 1615
3536 6 1624 1621 1618 1622
3537 6 1624 1621 1618 1623
3538 4 1625 1621 1618 1615
3539 6 1625 1621 1618 1622
3540 6 1625 1621 1618 1623
3541 4 1626 1621 1618 1615
3542 6 1626 1621 1618 1622
3543 6 1626 1621 1618 1623
3544 1 538 534 533 535
3545 1 538 534 533 536
3546 1 538 534 533 537
3547 2 539 534 533 535
3548 2 539 534 533 536
3549 2 539 534 533 537
3550 2 540 534 533 535
3551 2 540 534 533 536
3552 2 540 534 533 537
3553 3 821 818 814 813
3554 4 821 818 814 819
3555 4 821 818 814 820
3556 5 822 818 814 813
3557 6 822 818 814 819
3558 6 822 818 814 820
3559 5 823 818 814 813
3560 6 823 818 814 819
3561 6 823 818 814 820
3562 11 1237 1234 1231 1228
3563 4 1237 1234 1231 1235
3564 4 1237 1234 1231 1236
3565 4 1238 1234 1231 1228
3566 6 1238 1234 1231 1235
3567 6 1238 1234 1231 1236
3568 4 1239 1234 1231 1228
3569 6 1239 1234 1231 1235
3570 6 1239 1234 1231 1236
3571 11 1240 1237 1234 1231
3572 4 1240 1237 1234 1238
3573 4 1240 1237 1234 1239
3574 4 1241 1237 1234 1231
3575 6 1241 1237 1234 1238
3576 6 1241 1237 1234 1239
3577 4 1242 1237 1234 1231
3578 6 1242 1237 1234 1238
3579 6 1242 1237 1234 1239
3580 7 2281 2278 2277 2279
3581 7 2281 2278 2277 2280
3582 8 2282 2278 2277 2279
3583 8 2282 2278 2277 2280
3584 8 2283 2278 2277 2279
3585 8 2283 2278 2277 2280
3586 12 2278 2279 2277 2280
3587 11 2296 2293 2290 2287
3588 4 2296 2293 2290 2294
3589 4 2296 2293 2290 2295
3590 4 2297 2293 2290 2287
3591 6 2297 2293 2290 2294
3592 6 2297 2293 2290 2295
3593 4 2298 2293 2290 2287
3594 6 2298 2293 2290 2294
3595 6 2298 2293 2290 2295
3596 11 1243 1240 1237 1234
3597 4 1243 1240 1237 1241
3598 4 1243 1240 1237 1242
3599 4 1244 1240 1237 1234
3600 6 1244 1240 1237 1241
3601 6 1244 1240 1237 1242
3602 4 1245 1240 1237 1234
3603 6 1245 1240 1237 1241
3604 6 1245 1240 1237 1242
3605 11 2293 2290 2287 2284
3606 4 2293 2290 2287 2291
3607 4 2293 2290 2287 2292
3608 4 2294 2290 2287 2284
3609 6 2294 2290 2287 2291
3610 6 2294 2290 2287 2292
3611 4 2295 2290 2287 2284
3612 6 2295 2290 2287 2291
3613 6 2295 2290 2287 2292
3614 11 1246 1243 1240 1237
3615 4 1246 1243 1240 1244
3616 4 1246 1243 1240 1245
3617 4 1247 1243 1240 1237
3618 6 1247 1243 1240 1244
3619 6 1247 1243 1240 1245
3620 4 1248 1243 1240 1237
3621 6 1248 1243 1240 1244
3622 6 1248 1243 1240 1245
3623 4 1249 1246 1243 1240
3624 6 1249 1246 1243 1247
3625 6 1249 1246 1243 1248
3626 4 1250 1246 1243 1240
3627 6 1250 1246 1243 1247
3628 6 1250 1246 1243 1248
3629 4 1251 1246 1243 1240
3630 6 1251 1246 1243 1247
3631 6 1251 1246 1243 1248
3632 9 2284 2281 2278 2277
3633 4 2284 2281 2278 2282
3634 4 2284 2281 2278 2283
3635 10 2285 2281 2278 2277
3636 6 2285 2281 2278 2282
3637 6 2285 2281 2278 2283
3638 10 2286 2281 2278 2277
3639 6 2286 2281 2278 2282
3640 6 2286 2281 2278 2283
3641 4 2299 2296 2293 2290
3642 6 2299 2296 2293 2297
3643 6 2299 2296 2293 2298
3644 4 2300 2296 2293 2290
3645 6 2300 2296 2293 2297
3646 6 2300 2296 2293 2298
3647 4 2301 2296 2293 2290
3648 6 2301 2296 2293 2297
3649 6 2301 2296 2293 2298
3650 7 1731 1728 1727 1729
3651 7 1731 1728 1727 1730
3652 8 1732 1728 1727 1729
3653 8 1732 1728 1727 1730
3654 8 1733 1728 1727 1729
3655 8 1733 1728 1727 1730
3656 3 471 468 464 463
3657 4 471 468 464 469
3658 4 471 468 464 470
3659 5 472 468 464 463
3660 6 472 468 464 469
3661 6 472 468 464 470
3662 5 473 468 464 463
3663 6 473 468 464 469
3664 6 473 468 464 470
3665 1 468 464 463 465
3666 1 468 464 463 466
3667 1 468 464 463 467
3668 2 469 464 463 465
3669 2 469 464 463 466
3670 2 469 464 463 467
3671 2 470 464 463 465
3672 2 470 464 463 466
3673 2 470 464 463 467
3674 1 328 324 323 325
3675 1 328 324 323 326
3676 1 328 324 323 327
3677 2 329 324 323 325
3678 2 329 324 323 326
3679 2 329 324 323 327
3680 2 330 324 323 325
3681 2 330 324 323 326
3682 2 330 324 323 327
3683 3 331 328 324 323
3684 4 331 328 324 329
3685 4 331 328 324 330
3686 5 332 328 324 323
3687 6 332 328 324 329
3688 6 332 328 324 330
3689 5 333 328 324 323
3690 6 333 328 324 329
3691 6 333 328 324 330
3692 4 334 331 328 324
3693 6 334 331 328 332
3694 6 334 331 328 333
3695 4 335 331 328 324
3696 6 335 331 328 332
3697 6 335 331 328 333
3698 4 336 331 328 324
3699 6 336 331 328 332
3700 6 336 331 328 333
3701 12 1128 1129 1127 1130
3702 4 348 345 342 338
3703 6 348 345 342 346
3704 6 348 345 342 347
3705 4 349 345 342 338
3706 6 349 345 342 346
3707 6 349 345 342 347
3708 4 350 345 342 338
3709 6 350 345 342 346
3710 6 350 345 342 347
3711 7 1131 1128 1127 1129
3712 7 1131 1128 1127 1130
3713 8 1132 1128 1127 1129
3714 8 1132 1128 1127 1130
3715 8 1133 1128 1127 1129
3716 8 1133 1128 1127 1130
3717 3 345 342 338 337
3718 4 345 342 338 343
3719 4 345 342 338 344
3720 5 346 342 338 337
3721 6 346 342 338 343
3722 6 346 342 338 344
3723 5 347 342 338 337
3724 6 347 342 338 343
3725 6 347 342 338 344
3726 9 1134 1131 1128 1127
3727 4 1134 1131 1128 1132
3728 4 1134 1131 1128 1133
3729 10 1135 1131 1128 1127
3730 6 1135 1131 1128 1132
3731 6 1135 1131 1128 1133
3732 10 1136 1131 1128 1127
3733 6 1136 1131 1128 1132
3734 6 1136 1131 1128 1133
3735 7 1556 1553 1552 1554
3736 7 1556 1553 1552 1555
3737 8 1557 1553 1552 1554
3738 8 1557 1553 1552 1555
3739 8 1558 1553 1552 1554
3740 8 1558 1553 1552 1555
3741 4 1574 1571 1568 1565
3742 6 1574 1571 1568 1572
3743 6 1574 1571 1568 1573
3744 4 1575 1571 1568 1565
3745 6 1575 1571 1568 1572
3746 6 1575 1571 1568 1573
3747 4 1576 1571 1568 1565
3748 6 1576 1571 1568 1572
3749 6 1576 1571 1568 1573
3750 9 1559 1556 1553 1552
3751 4 1559 1556 1553 1557
3752 4 1559 1556 1553 1558
3753 10 1560 1556 1553 1552
3754 6 1560 1556 1553 1557
3755 6 1560 1556 1553 1558
3756 10 1561 1556 1553 1552
3757 6 1561 1556 1553 1557
3758 6 1561 1556 1553 1558
3759 1 342 338 337 339
3760 1 342 338 337 340
3761 1 342 338 337 341
3762 2 343 338 337 339
3763 2 343 338 337 340
3764 2 343 338 337 341
3765 2 344 338 337 339
3766 2 344 338 337 340
3767 2 344 338 337 341
3768 12 1153 1154 1152 1155
3769 7 1156 1153 1152 1154
3770 7 1156 1153 1152 1155
3771 8 1157 1153 1152 1154
3772 8 1157 1153 1152 1155
3773 8 1158 1153 1152 1154
3774 8 1158 1153 1152 1155
3775 9 1159 1156 1153 1152
3776 4 1159 1156 1153 1157
3777 4 1159 1156 1153 1158
3778 10 1160 1156 1153 1152
3779 6 1160 1156 1153 1157
3780 6 1160 1156 1153 1158
3781 10 1161 1156 1153 1152
3782 6 1161 1156 1153 1157
3783 6 1161 1156 1153 1158
3784 11 1162 1159 1156 1153
3785 4 1162 1159 1156 1160
3786 4 1162 1159 1156 1161
3787 4 1163 1159 1156 1153
3788 6 1163 1159 1156 1160
3789 6 1163 1159 1156 1161
3790 4 1164 1159 1156 1153
3791 6 1164 1159 1156 1160
3792 6 1164 1159 1156 1161
3793 11 1165 1162 1159 1156
3794 4 1165 1162 1159 1163
3795 4 1165 1162 1159 1164
3796 4 1166 1162 1159 1156
3797 6 1166 1162 1159 1163
3798 6 1166 1162 1159 1164
3799 4 1167 1162 1159 1156
3800 6 1167 1162 1159 1163
3801 6 1167 1162 1159 1164
3802 11 918 915 912 909
3803 4 918 915 912 916
3804 4 918 915 912 917
3805 4 919 915 912 909
3806 6 919 915 912 916
3807 6 919 915 912 917
3808 4 920 915 912 909
3809 6 920 915 912 916
3810 6 920 915 912 917
3811 11 1168 1165 1162 1159
3812 4 1168 1165 1162 1166
3813 4 1168 1165 1162 1167
3814 4 1169 1165 1162 1159
3815 6 1169 1165 1162 1166
3816 6 1169 1165 1162 1167
3817 4 1170 1165 1162 1159
3818 6 1170 1165 1162 1166
3819 6 1170 1165 1162 1167
3820 11 1171 1168 1165 1162
3821 4 1171 1168 1165 1169
3822 4 1171 1168 1165 1170
3823 4 1172 1168 1165 1162
3824 6 1172 1168 1165 1169
3825 6 1172 1168 1165 1170
3826 4 1173 1168 1165 1162
3827 6 1173 1168 1165 1169
3828 6 1173 1168 1165 1170
3829 4 1174 1171 1168 1165
3830 6 1174 1171 1168 1172
3831 6 1174 1171 1168 1173
3832 4 1175 1171 1168 1165
3833 6 1175 1171 1168 1172
3834 6 1175 1171 1168 1173
3835 4 1176 1171 1168 1165
3836 6 1176 1171 1168 1172
3837 6 1176 1171 1168 1173
3838 3 387 384 380 379
3839 4 387 384 380 385
3840 4 387 384 380 386
3841 5 388 384 380 379
3842 6 388 384 380 385
3843 6 388 384 380 386
3844 5 389 384 380 379
3845 6 389 384 380 385
3846 6 389 384 380 386
3847 4 390 387 384 380
3848 6 390 387 384 388
3849 6 390 387 384 389
3850 4 391 387 384 380
3851 6 391 387 384 388
3852 6 391 387 384 389
3853 4 392 387 384 380
3854 6 392 387 384 388
3855 6 392 387 384 389
3856 1 692 688 687 689
3857 1 692 688 687 690
3858 1 692 688 687 691
3859 2 693 688 687 689
3860 2 693 688 687 690
3861 2 693 688 687 691
3862 2 694 688 687 689
3863 2 694 688 687 690
3864 2 694 688 687 691
3865 12 2053 2054 2052 2055
3866 12 1928 1929 1927 1930
3867 7 2056 2053 2052 2054
3868 7 2056 2053 2052 2055
3869 8 2057 2053 2052 2054
3870 8 2057 2053 2052 2055
3871 8 2058 2053 2052 2054
3872 8 2058 2053 2052 2055
3873 4 1949 1946 1943 1940
3874 6 1949 1946 1943 1947
3875 6 1949 1946 1943 1948
3876 4 1950 1946 1943 1940
3877 6 1950 1946 1943 1947
3878 6 1950 1946 1943 1948
3879 4 1951 1946 1943 1940
3880 6 1951 1946 1943 1947
3881 6 1951 1946 1943 1948
3882 12 1728 1729 1727 1730
3883 11 1937 1934 1931 1928
3884 4 1937 1934 1931 1935
3885 4 1937 1934 1931 1936
3886 4 1938 1934 1931 1928
3887 6 1938 1934 1931 1935
3888 6 1938 1934 1931 1936
3889 4 1939 1934 1931 1928
3890 6 1939 1934 1931 1935
3891 6 1939 1934 1931 1936
3892 11 1940 1937 1934 1931
3893 4 1940 1937 1934 1938
3894 4 1940 1937 1934 1939
3895 4 1941 1937 1934 1931
3896 6 1941 1937 1934 1938
3897 6 1941 1937 1934 1939
3898 4 1942 1937 1934 1931
3899 6 1942 1937 1934 1938
3900 6 1942 1937 1934 1939
3901 11 1943 1940 1937 1934
3902 4 1943 1940 1937 1941
3903 4 1943 1940 1937 1942
3904 4 1944 1940 1937 1934
3905 6 1944 1940 1937 1941
3906 6 1944 1940 1937 1942
3907 4 1945 1940 1937 1934
3908 6 1945 1940 1937 1941
3909 6 1945 1940 1937 1942
3910 11 1946 1943 1940 1937
3911 4 1946 1943 1940 1944
3912 4 1946 1943 1940 1945
3913 4 1947 1943 1940 1937
3914 6 1947 1943 1940 1944
3915 6 1947 1943 1940 1945
3916 4 1948 1943 1940 1937
3917 6 1948 1943 1940 1944
3918 6 1948 1943 1940 1945
3919 9 1934 1931 1928 1927
3920 4 1934 1931 1928 1932
3921 4 1934 1931 1928 1933
3922 10 1935 1931 1928 1927
3923 6 1935 1931 1928 1932
3924 6 1935 1931 1928 1933
3925 10 1936 1931 1928 1927
3926 6 1936 1931 1928 1932
3927 6 1936 1931 1928 1933
3928 4 418 415 412 408
3929 6 418 415 412 416
3930 6 418 415 412 417
3931 4 419 415 412 408
3932 6 419 415 412 416
3933 6 419 415 412 417
3934 4 420 415 412 408
3935 6 420 415 412 416
3936 6 420 415 412 417
3937 3 415 412 408 407
3938 4 415 412 408 413
3939 4 415 412 408 414
3940 5 416 412 408 407
3941 6 416 412 408 413
3942 6 416 412 408 414
3943 5 417 412 408 407
3944 6 417 412 408 413
3945 6 417 412 408 414
3946 1 412 408 407 409
3947 1 412 408 407 410
3948 1 412 408 407 411
3949 2 413 408 407 409
3950 2 413 408 407 410
3951 2 413 408 407 411
3952 2 414 408 407 409
3953 2 414 408 407 410
3954 2 414 408 407 411
3955 4 698 695 692 688
3956 6 698 695 692 696
3957 6 698 695 692 697
3958 4 699 695 692 688
3959 6 699 695 692 696
3960 6 699 695 692 697
3961 4 700 695 692 688
3962 6 700 695 692 696
3963 6 700 695 692 697
3964 9 1734 1731 1728 1727
3965 4 1734 1731 1728 1732
3966 4 1734 1731 1728 1733
3967 10 1735 1731 1728 1727
3968 6 1735 1731 1728 1732
3969 6 1735 1731 1728 1733
3970 10 1736 1731 1728 1727
3971 6 1736 1731 1728 1732
3972 6 1736 1731 1728 1733
3973 11 1712 1709 1706 1703
3974 4 1712 1709 1706 1710
3975 4 1712 1709 1706 1711
3976 4 1713 1709 1706 1703
3977 6 1713 1709 1706 1710
3978 6 1713 1709 1706 1711
3979 4 1714 1709 1706 1703
3980 6 1714 1709 1706 1710
3981 6 1714 1709 1706 1711
3982 3 65 62 58 57
3983 4 65 62 58 63
3984 4 65 62 58 64
3985 5 66 62 58 57
3986 6 66 62 58 63
3987 6 66 62 58 64
3988 5 67 62 58 57
3989 6 67 62 58 63
3990 6 67 62 58 64
3991 4 68 65 62 58
3992 6 68 65 62 66
3993 6 68 65 62 67
3994 4 69 65 62 58
3995 6 69 65 62 66
3996 6 69 65 62 67
3997 4 70 65 62 58
3998 6 70 65 62 66
3999 6 70 65 62 67
4000 1 62 58 57 59
4001 1 62 58 57 60
4002 1 62 58 57 61
4003 2 63 58 57 59
4004 2 63 58 57 60
4005 2 63 58 57 61
4006 2 64 58 57 59
4007 2 64 58 57 60
4008 2 64 58 57 61
4009 12 1178 1179 1177 1180
4010 7 1181 1178 1177 1179
4011 7 1181 1178 1177 1180
4012 8 1182 1178 1177 1179
4013 8 1182 1178 1177 1180
4014 8 1183 1178 1177 1179
4015 8 1183 1178 1177 1180
4016 9 1709 1706 1703 1702
4017 4 1709 1706 1703 1707
4018 4 1709 1706 1703 1708
4019 10 1710 1706 1703 1702
4020 6 1710 1706 1703 1707
4021 6 1710 1706 1703 1708
4022 10 1711 1706 1703 1702
4023 6 1711 1706 1703 1707
4024 6 1711 1706 1703 1708
4025 12 1703 1704 1702 1705
4026 11 1715 1712 1709 1706
4027 4 1715 1712 1709 1713
4028 4 1715 1712 1709 1714
4029 4 1716 1712 1709 1706
4030 6 1716 1712 1709 1713
4031 6 1716 1712 1709 1714
4032 4 1717 1712 1709 1706
4033 6 1717 1712 1709 1713
4034 6 1717 1712 1709 1714
4035 12 2028 2029 2027 2030
4036 1 314 310 309 311
4037 1 314 310 309 312
4038 1 314 310 309 313
4039 2 315 310 309 311
4040 2 315 310 309 312
4041 2 315 310 309 313
4042 2 316 310 309 311
4043 2 316 310 309 312
4044 2 316 310 309 313
4045 7 1781 1778 1777 1779
4046 7 1781 1778 1777 1780
4047 8 1782 1778 1777 1779
4048 8 1782 1778 1777 1780
4049 8 1783 1778 1777 1779
4050 8 1783 1778 1777 1780
4051 12 1253 1254 1252 1255
4052 11 1262 1259 1256 1253
4053 4 1262 1259 1256 1260
4054 4 1262 1259 1256 1261
4055 4 1263 1259 1256 1253
4056 6 1263 1259 1256 1260
4057 6 1263 1259 1256 1261
4058 4 1264 1259 1256 1253
4059 6 1264 1259 1256 1260
4060 6 1264 1259 1256 1261
4061 7 1256 1253 1252 1254
4062 7 1256 1253 1252 1255
4063 8 1257 1253 1252 1254
4064 8 1257 1253 1252 1255
4065 8 1258 1253 1252 1254
4066 8 1258 1253 1252 1255
4067 9 1259 1256 1253 1252
4068 4 1259 1256 1253 1257
4069 4 1259 1256 1253 1258
4070 10 1260 1256 1253 1252
4071 6 1260 1256 1253 1257
4072 6 1260 1256 1253 1258
4073 10 1261 1256 1253 1252
4074 6 1261 1256 1253 1257
4075 6 1261 1256 1253 1258
4076 11 1265 1262 1259 1256
4077 4 1265 1262 1259 1263
4078 4 1265 1262 1259 1264
4079 4 1266 1262 1259 1256
4080 6 1266 1262 1259 1263
4081 6 1266 1262 1259 1264
4082 4 1267 1262 1259 1256
4083 6 1267 1262 1259 1263
4084 6 1267 1262 1259 1264
4085 1 664 660 659 661
4086 1 664 660 659 662
4087 1 664 660 659 663
4088 2 665 660 659 661
4089 2 665 660 659 662
4090 2 665 660 659 663
4091 2 666 660 659 661
4092 2 666 660 659 662
4093 2 666 660 659 663
4094 9 1784 1781 1778 1777
4095 4 1784 1781 1778 1782
4096 4 1784 1781 1778 1783
4097 10 1785 1781 1778 1777
4098 6 1785 1781 1778 1782
4099 6 1785 1781 1778 1783
4100 10 1786 1781 1778 1777
4101 6 1786 1781 1778 1782
4102 6 1786 1781 1778 1783
4103 4 999 996 993 990
4104 6 999 996 993 997
4105 6 999 996 993 998
4106 4 1000 996 993 990
4107 6 1000 996 993 997
4108 6 1000 996 993 998
4109 4 1001 996 993 990
4110 6 1001 996 993 997
4111 6 1001 996 993 998
4112 11 993 990 987 984
4113 4 993 990 987 991
4114 4 993 990 987 992
4115 4 994 990 987 984
4116 6 994 990 987 991
4117 6 994 990 987 992
4118 4 995 990 987 984
4119 6 995 990 987 991
4120 6 995 990 987 992
4121 11 996 993 990 987
4122 4 996 993 990 994
4123 4 996 993 990 995
4124 4 997 993 990 987
4125 6 997 993 990 994
4126 6 997 993 990 995
4127 4 998 993 990 987
4128 6 998 993 990 994
4129 6 998 993 990 995
4130 11 1268 1265 1262 1259
4131 4 1268 1265 1262 1266
4132 4 1268 1265 1262 1267
4133 4 1269 1265 1262 1259
4134 6 1269 1265 1262 1266
4135 6 1269 1265 1262 1267
4136 4 1270 1265 1262 1259
4137 6 1270 1265 1262 1266
4138 6 1270 1265 1262 1267
4139 12 978 979 977 980
4140 11 990 987 984 981
4141 4 990 987 984 988
4142 4 990 987 984 989
4143 4 991 987 984 981
4144 6 991 987 984 988
4145 6 991 987 984 989
4146 4 992 987 984 981
4147 6 992 987 984 988
4148 6 992 987 984 989
4149 11 987 984 981 978
4150 4 987 984 981 985
4151 4 987 984 981 986
4152 4 988 984 981 978
4153 6 988 984 981 985
4154 6 988 984 981 986
4155 4 989 984 981 978
4156 6 989 984 981 985
4157 6 989 984 981 986
4158 9 984 981 978 977
4159 4 984 981 978 982
4160 4 984 981 978 983
4161 10 985 981 978 977
4162 6 985 981 978 982
4163 6 985 981 978 983
4164 10 986 981 978 977
4165 6 986 981 978 982
4166 6 986 981 978 983
4167 7 981 978 977 979
4168 7 981 978 977 980
4169 8 982 978 977 979
4170 8 982 978 977 980
4171 8 983 978 977 979
4172 8 983 978 977 980
4173 4 2099 2096 2093 2090
4174 6 2099 2096 2093 2097
4175 6 2099 2096 2093 2098
4176 4 2100 2096 2093 2090
4177 6 2100 2096 2093 2097
4178 6 2100 2096 2093 2098
4179 4 2101 2096 2093 2090
4180 6 2101 2096 2093 2097
4181 6 2101 2096 2093 2098
4182 11 1643 1640 1637 1634
4183 4 1643 1640 1637 1641
4184 4 1643 1640 1637 1642
4185 4 1644 1640 1637 1634
4186 6 1644 1640 1637 1641
4187 6 1644 1640 1637 1642
4188 4 1645 1640 1637 1634
4189 6 1645 1640 1637 1641
4190 6 1645 1640 1637 1642
4191 3 107 104 100 99
4192 4 107 104 100 105
4193 4 107 104 100 106
4194 5 108 104 100 99
4195 6 108 104 100 105
4196 6 108 104 100 106
4197 5 109 104 100 99
4198 6 109 104 100 105
4199 6 109 104 100 106
4200 1 104 100 99 101
4201 1 104 100 99 102
4202 1 104 100 99 103
4203 2 105 100 99 101
4204 2 105 100 99 102
4205 2 105 100 99 103
4206 2 106 100 99 101
4207 2 106 100 99 102
4208 2 106 100 99 103
4209 4 110 107 104 100
4210 6 110 107 104 108
4211 6 110 107 104 109
4212 4 111 107 104 100
4213 6 111 107 104 108
4214 6 111 107 104 109
4215 4 112 107 104 100
4216 6 112 107 104 108
4217 6 112 107 104 109
4218 11 1896 1893 1890 1887
4219 4 1896 1893 1890 1894
4220 4 1896 1893 1890 1895
4221 4 1897 1893 1890 1887
4222 6 1897 1893 1890 1894
4223 6 1897 1893 1890 1895
4224 4 1898 1893 1890 1887
4225 6 1898 1893 1890 1894
4226 6 1898 1893 1890 1895
4227 4 1899 1896 1893 1890
4228 6 1899 1896 1893 1897
4229 6 1899 1896 1893 1898
4230 4 1900 1896 1893 1890
4231 6 1900 1896 1893 1897
4232 6 1900 1896 1893 1898
4233 4 1901 1896 1893 1890
4234 6 1901 1896 1893 1897
4235 6 1901 1896 1893 1898
4236 7 1706 1703 1702 1704
4237 7 1706 1703 1702 1705
4238 8 1707 1703 1702 1704
4239 8 1707 1703 1702 1705
4240 8 1708 1703 1702 1704
4241 8 1708 1703 1702 1705
4242 12 1878 1879 1877 1880
4243 1 482 478 477 479
4244 1 482 478 477 480
4245 1 482 478 477 481
4246 2 483 478 477 479
4247 2 483 478 477 480
4248 2 483 478 477 481
4249 2 484 478 477 479
4250 2 484 478 477 480
4251 2 484 478 477 481
4252 3 485 482 478 477
4253 4 485 482 478 483
4254 4 485 482 478 484
4255 5 486 482 478 477
4256 6 486 482 478 483
4257 6 486 482 478 484
4258 5 487 482 478 477
4259 6 487 482 478 483
4260 6 487 482 478 484
4261 12 1903 1904 1902 1905
4262 11 1887 1884 1881 1878
4263 4 1887 1884 1881 1885
4264 4 1887 1884 1881 1886
4265 4 1888 1884 1881 1878
4266 6 1888 1884 1881 1885
4267 6 1888 1884 1881 1886
4268 4 1889 1884 1881 1878
4269 6 1889 1884 1881 1885
4270 6 1889 1884 1881 1886
4271 4 488 485 482 478
4272 6 488 485 482 486
4273 6 488 485 482 487
4274 4 489 485 482 478
4275 6 489 485 482 486
4276 6 489 485 482 487
4277 4 490 485 482 478
4278 6 490 485 482 486
4279 6 490 485 482 487
4280 3 303 300 296 295
4281 4 303 300 296 301
4282 4 303 300 296 302
4283 5 304 300 296 295
4284 6 304 300 296 301
4285 6 304 300 296 302
4286 5 305 300 296 295
4287 6 305 300 296 301
4288 6 305 300 296 302
4289 4 306 303 300 296
4290 6 306 303 300 304
4291 6 306 303 300 305
4292 4 307 303 300 296
4293 6 307 303 300 304
4294 6 307 303 300 305
4295 4 308 303 300 296
4296 6 308 303 300 304
4297 6 308 303 300 305
4298 9 1759 1756 1753 1752
4299 4 1759 1756 1753 1757
4300 4 1759 1756 1753 1758
4301 10 1760 1756 1753 1752
4302 6 1760 1756 1753 1757
4303 6 1760 1756 1753 1758
4304 10 1761 1756 1753 1752
4305 6 1761 1756 1753 1757
4306 6 1761 1756 1753 1758
4307 7 1756 1753 1752 1754
4308 7 1756 1753 1752 1755
4309 8 1757 1753 1752 1754
4310 8 1757 1753 1752 1755
4311 8 1758 1753 1752 1754
4312 8 1758 1753 1752 1755
4313 11 1890 1887 1884 1881
4314 4 1890 1887 1884 1888
4315 4 1890 1887 1884 1889
4316 4 1891 1887 1884 1881
4317 6 1891 1887 1884 1888
4318 6 1891 1887 1884 1889
4319 4 1892 1887 1884 1881
4320 6 1892 1887 1884 1888
4321 6 1892 1887 1884 1889
4322 7 1206 1203 1202 1204
4323 7 1206 1203 1202 1205
4324 8 1207 1203 1202 1204
4325 8 1207 1203 1202 1205
4326 8 1208 1203 1202 1204
4327 8 1208 1203 1202 1205
4328 4 2199 2196 2193 2190
4329 6 2199 2196 2193 2197
4330 6 2199 2196 2193 2198
4331 4 2200 2196 2193 2190
4332 6 2200 2196 2193 2197
4333 6 2200 2196 2193 2198
4334 4 2201 2196 2193 2190
4335 6 2201 2196 2193 2197
4336 6 2201 2196 2193 2198
4337 1 300 296 295 297
4338 1 300 296 295 298
4339 1 300 296 295 299
4340 2 301 296 295 297
4341 2 301 296 295 298
4342 2 301 296 295 299
4343 2 302 296 295 297
4344 2 302 296 295 298
4345 2 302 296 295 299
4346 11 2196 2193 2190 2187
4347 4 2196 2193 2190 2194
4348 4 2196 2193 2190 2195
4349 4 2197 2193 2190 2187
4350 6 2197 2193 2190 2194
4351 6 2197 2193 2190 2195
4352 4 2198 2193 2190 2187
4353 6 2198 2193 2190 2194
4354 6 2198 2193 2190 2195
4355 12 1203 1204 1202 1205
4356 3 51 48 44 43
4357 4 51 48 44 49
4358 4 51 48 44 50
4359 5 52 48 44 43
4360 6 52 48 44 49
4361 6 52 48 44 50
4362 5 53 48 44 43
4363 6 53 48 44 49
4364 6 53 48 44 50
4365 1 48 44 43 45
4366 1 48 44 43 46
4367 1 48 44 43 47
4368 2 49 44 43 45
4369 2 49 44 43 46
4370 2 49 44 43 47
4371 2 50 44 43 45
4372 2 50 44 43 46
4373 2 50 44 43 47
4374 4 54 51 48 44
4375 6 54 51 48 52
4376 6 54 51 48 53
4377 4 55 51 48 44
4378 6 55 51 48 52
4379 6 55 51 48 53
4380 4 56 51 48 44
4381 6 56 51 48 52
4382 6 56 51 48 53
4383 12 1953 1954 1952 1955
4384 3 9 6 2 1
4385 4 9 6 2 7
4386 4 9 6 2 8
4387 5 10 6 2 1
4388 6 10 6 2 7
4389 6 10 6 2 8
4390 5 11 6 2 1
4391 6 11 6 2 7
4392 6 11 6 2 8
4393 11 2193 2190 2187 2184
4394 4 2193 2190 2187 2191
4395 4 2193 2190 2187 2192
4396 4 2194 2190 2187 2184
4397 6 2194 2190 2187 2191
4398 6 2194 2190 2187 2192
4399 4 2195 2190 2187 2184
4400 6 2195 2190 2187 2191
4401 6 2195 2190 2187 2192
4402 9 2184 2181 2178 2177
4403 4 2184 2181 2178 2182
4404 4 2184 2181 2178 2183
4405 10 2185 2181 2178 2177
4406 6 2185 2181 2178 2182
4407 6 2185 2181 2178 2183
4408 10 2186 2181 2178 2177
4409 6 2186 2181 2178 2182
4410 6 2186 2181 2178 2183
4411 9 1959 1956 1953 1952
4412 4 1959 1956 1953 1957
4413 4 1959 1956 1953 1958
4414 10 1960 1956 1953 1952
4415 6 1960 1956 1953 1957
4416 6 1960 1956 1953 1958
4417 10 1961 1956 1953 1952
4418 6 1961 1956 1953 1957
4419 6 1961 1956 1953 1958
4420 7 1956 1953 1952 1954
4421 7 1956 1953 1952 1955
4422 8 1957 1953 1952 1954
4423 8 1957 1953 1952 1955
4424 8 1958 1953 1952 1954
4425 8 1958 1953 1952 1955
4426 7 2181 2178 2177 2179
4427 7 2181 2178 2177 2180
4428 8 2182 2178 2177 2179
4429 8 2182 2178 2177 2180
4430 8 2183 2178 2177 2179
4431 8 2183 2178 2177 2180
4432 1 6 2 1 3
4433 1 6 2 1 4
4434 1 6 2 1 5
4435 2 7 2 1 3
4436 2 7 2 1 4
4437 2 7 2 1 5
4438 2 8 2 1 3
4439 2 8 2 1 4
4440 2 8 2 1 5
4441 11 2190 2187 2184 2181
4442 4 2190 2187 2184 2188
4443 4 2190 2187 2184 2189
4444 4 2191 2187 2184 2181
4445 6 2191 2187 2184 2188
4446 6 2191 2187 2184 2189
4447 4 2192 2187 2184 2181
4448 6 2192 2187 2184 2188
4449 6 2192 2187 2184 2189
4450 11 2187 2184 2181 2178
4451 4 2187 2184 2181 2185
4452 4 2187 2184 2181 2186
4453 4 2188 2184 2181 2178
4454 6 2188 2184 2181 2185
4455 6 2188 2184 2181 2186
4456 4 2189 2184 2181 2178
4457 6 2189 2184 2181 2185
4458 6 2189 2184 2181 2186
4459 4 12 9 6 2
4460 6 12 9 6 10
4461 6 12 9 6 11
4462 4 13 9 6 2
4463 6 13 9 6 10
4464 6 13 9 6 11
4465 4 14 9 6 2
4466 6 14 9 6 10
4467 6 14 9 6 11
4468 11 896 893 890 887
4469 4 896 893 890 894
4470 4 896 893 890 895
4471 4 897 893 890 887
4472 6 897 893 890 894
4473 6 897 893 890 895
4474 4 898 893 890 887
4475 6 898 893 890 894
4476 6 898 893 890 895
4477 11 893 890 887 884
4478 4 893 890 887 891
4479 4 893 890 887 892
4480 4 894 890 887 884
4481 6 894 890 887 891
4482 6 894 890 887 892
4483 4 895 890 887 884
4484 6 895 890 887 891
4485 6 895 890 887 892
4486 11 1962 1959 1956 1953
4487 4 1962 1959 1956 1960
4488 4 1962 1959 1956 1961
4489 4 1963 1959 1956 1953
4490 6 1963 1959 1956 1960
4491 6 1963 1959 1956 1961
4492 4 1964 1959 1956 1953
4493 6 1964 1959 1956 1960
4494 6 1964 1959 1956 1961
4495 4 899 896 893 890
4496 6 899 896 893 897
4497 6 899 896 893 898
4498 4 900 896 893 890
4499 6 900 896 893 897
4500 6 900 896 893 898
4501 4 901 896 893 890
4502 6 901 896 893 897
4503 6 901 896 893 898
4504 11 1893 1890 1887 1884
4505 4 1893 1890 1887 1891
4506 4 1893 1890 1887 1892
4507 4 1894 1890 1887 1884
4508 6 1894 1890 1887 1891
4509 6 1894 1890 1887 1892
4510 4 1895 1890 1887 1884
4511 6 1895 1890 1887 1891
4512 6 1895 1890 1887 1892
4513 12 878 879 877 880
4514 11 890 887 884 881
4515 4 890 887 884 888
4516 4 890 887 884 889
4517 4 891 887 884 881
4518 6 891 887 884 888
4519 6 891 887 884 889
4520 4 892 887 884 881
4521 6 892 887 884 888
4522 6 892 887 884 889
4523 3 779 776 772 771
4524 4 779 776 772 777
4525 4 779 776 772 778
4526 5 780 776 772 771
4527 6 780 776 772 777
4528 6 780 776 772 778
4529 5 781 776 772 771
4530 6 781 776 772 777
4531 6 781 776 772 778
4532 11 887 884 881 878
4533 4 887 884 881 885
4534 4 887 884 881 886
4535 4 888 884 881 878
4536 6 888 884 881 885
4537 6 888 884 881 886
4538 4 889 884 881 878
4539 6 889 884 881 885
4540 6 889 884 881 886
4541 7 881 878 877 879
4542 7 881 878 877 880
4543 8 882 878 877 879
4544 8 882 878 877 880
4545 8 883 878 877 879
4546 8 883 878 877 880
4547 1 636 632 631 633
4548 1 636 632 631 634
4549 1 636 632 631 635
4550 2 637 632 631 633
4551 2 637 632 631 634
4552 2 637 632 631 635
4553 2 638 632 631 633
4554 2 638 632 631 634
4555 2 638 632 631 635
4556 3 639 636 632 631
4557 4 639 636 632 637
4558 4 639 636 632 638
4559 5 640 636 632 631
4560 6 640 636 632 637
4561 6 640 636 632 638
4562 5 641 636 632 631
4563 6 641 636 632 637
4564 6 641 636 632 638
4565 9 884 881 878 877
4566 4 884 881 878 882
4567 4 884 881 878 883
4568 10 885 881 878 877
4569 6 885 881 878 882
4570 6 885 881 878 883
4571 10 886 881 878 877
4572 6 886 881 878 882
4573 6 886 881 878 883
4574 4 642 639 636 632
4575 6 642 639 636 640
4576 6 642 639 636 641
4577 4 643 639 636 632
4578 6 643 639 636 640
4579 6 643 639 636 641
4580 4 644 639 636 632
4581 6 644 639 636 640
4582 6 644 639 636 641
4583 3 401 398 394 393
4584 4 401 398 394 399
4585 4 401 398 394 400
4586 5 402 398 394 393
4587 6 402 398 394 399
4588 6 402 398 394 400
4589 5 403 398 394 393
4590 6 403 398 394 399
4591 6 403 398 394 400
4592 3 653 650 646 645
4593 4 653 650 646 651
4594 4 653 650 646 652
4595 5 654 650 646 645
4596 6 654 650 646 651
4597 6 654 650 646 652
4598 5 655 650 646 645
4599 6 655 650 646 651
4600 6 655 650 646 652
4601 4 656 653 650 646
4602 6 656 653 650 654
4603 6 656 653 650 655
4604 4 657 653 650 646
4605 6 657 653 650 654
4606 6 657 653 650 655
4607 4 658 653 650 646
4608 6 658 653 650 654
4609 6 658 653 650 655
4610 9 1909 1906 1903 1902
4611 4 1909 1906 1903 1907
4612 4 1909 1906 1903 1908
4613 10 1910 1906 1903 1902
4614 6 1910 1906 1903 1907
4615 6 1910 1906 1903 1908
4616 10 1911 1906 1903 1902
4617 6 1911 1906 1903 1907
4618 6 1911 1906 1903 1908
4619 4 432 429 426 422
4620 6 432 429 426 430
4621 6 432 429 426 431
4622 4 433 429 426 422
4623 6 433 429 426 430
4624 6 433 429 426 431
4625 4 434 429 426 422
4626 6 434 429 426 430
4627 6 434 429 426 431
4628 3 429 426 422 421
4629 4 429 426 422 427
4630 4 429 426 422 428
4631 5 430 426 422 421
4632 6 430 426 422 427
4633 6 430 426 422 428
4634 5 431 426 422 421
4635 6 431 426 422 427
4636 6 431 426 422 428
4637 7 1906 1903 1902 1904
4638 7 1906 1903 1902 1905
4639 8 1907 1903 1902 1904
4640 8 1907 1903 1902 1905
4641 8 1908 1903 1902 1904
4642 8 1908 1903 1902 1905
4643 9 1009 1006 1003 1002
4644 4 1009 1006 1003 1007
4645 4 1009 1006 1003 1008
4646 10 1010 1006 1003 1002
4647 6 1010 1006 1003 1007
4648 6 1010 1006 1003 1008
4649 10 1011 1006 1003 1002
4650 6 1011 1006 1003 1007
4651 6 1011 1006 1003 1008
4652 4 404 401 398 394
4653 6 404 401 398 402
4654 6 404 401 398 403
4655 4 405 401 398 394
4656 6 405 401 398 402
4657 6 405 401 398 403
4658 4 406 401 398 394
4659 6 406 401 398 402
4660 6 406 401 398 403
4661 1 398 394 393 395
4662 1 398 394 393 396
4663 1 398 394 393 397
4664 2 399 394 393 395
4665 2 399 394 393 396
4666 2 399 394 393 397
4667 2 400 394 393 395
4668 2 400 394 393 396
4669 2 400 394 393 397
4670 11 1671 1668 1665 1662
4671 4 1671 1668 1665 1669
4672 4 1671 1668 1665 1670
4673 4 1672 1668 1665 1662
4674 6 1672 1668 1665 1669
4675 6 1672 1668 1665 1670
4676 4 1673 1668 1665 1662
4677 6 1673 1668 1665 1669
4678 6 1673 1668 1665 1670
4679 11 1665 1662 1659 1656
4680 4 1665 1662 1659 1663
4681 4 1665 1662 1659 1664
4682 4 1666 1662 1659 1656
4683 6 1666 1662 1659 1663
4684 6 1666 1662 1659 1664
4685 4 1667 1662 1659 1656
4686 6 1667 1662 1659 1663
4687 6 1667 1662 1659 1664
4688 11 1915 1912 1909 1906
4689 4 1915 1912 1909 1913
4690 4 1915 1912 1909 1914
4691 4 1916 1912 1909 1906
4692 6 1916 1912 1909 1913
4693 6 1916 1912 1909 1914
4694 4 1917 1912 1909 1906
4695 6 1917 1912 1909 1913
4696 6 1917 1912 1909 1914
4697 11 1912 1909 1906 1903
4698 4 1912 1909 1906 1910
4699 4 1912 1909 1906 1911
4700 4 1913 1909 1906 1903
4701 6 1913 1909 1906 1910
4702 6 1913 1909 1906 1911
4703 4 1914 1909 1906 1903
4704 6 1914 1909 1906 1910
4705 6 1914 1909 1906 1911
4706 11 1918 1915 1912 1909
4707 4 1918 1915 1912 1916
4708 4 1918 1915 1912 1917
4709 4 1919 1915 1912 1909
4710 6 1919 1915 1912 1916
4711 6 1919 1915 1912 1917
4712 4 1920 1915 1912 1909
4713 6 1920 1915 1912 1916
4714 6 1920 1915 1912 1917
4715 4 684 681 678 674
4716 6 684 681 678 682
4717 6 684 681 678 683
4718 4 685 681 678 674
4719 6 685 681 678 682
4720 6 685 681 678 683
4721 4 686 681 678 674
4722 6 686 681 678 682
4723 6 686 681 678 683
4724 4 810 807 804 800
4725 6 810 807 804 808
4726 6 810 807 804 809
4727 4 811 807 804 800
4728 6 811 807 804 808
4729 6 811 807 804 809
4730 4 812 807 804 800
4731 6 812 807 804 808
4732 6 812 807 804 809
4733 3 807 804 800 799
4734 4 807 804 800 805
4735 4 807 804 800 806
4736 5 808 804 800 799
4737 6 808 804 800 805
4738 6 808 804 800 806
4739 5 809 804 800 799
4740 6 809 804 800 805
4741 6 809 804 800 806
4742 9 1234 1231 1228 1227
4743 4 1234 1231 1228 1232
4744 4 1234 1231 1228 1233
4745 10 1235 1231 1228 1227
4746 6 1235 1231 1228 1232
4747 6 1235 1231 1228 1233
4748 10 1236 1231 1228 1227
4749 6 1236 1231 1228 1232
4750 6 1236 1231 1228 1233
4751 9 1409 1406 1403 1402
4752 4 1409 1406 1403 1407
4753 4 1409 1406 1403 1408
4754 10 1410 1406 1403 1402
4755 6 1410 1406 1403 1407
4756 6 1410 1406 1403 1408
4757 10 1411 1406 1403 1402
4758 6 1411 1406 1403 1407
4759 6 1411 1406 1403 1408
4760 1 804 800 799 801
4761 1 804 800 799 802
4762 1 804 800 799 803
4763 2 805 800 799 801
4764 2 805 800 799 802
4765 2 805 800 799 803
4766 2 806 800 799 801
4767 2 806 800 799 802
4768 2 806 800 799 803
4769 7 1231 1228 1227 1229
4770 7 1231 1228 1227 1230
4771 8 1232 1228 1227 1229
4772 8 1232 1228 1227 1230
4773 8 1233 1228 1227 1229
4774 8 1233 1228 1227 1230
4775 12 1228 1229 1227 1230
4776 1 426 422 421 423
4777 1 426 422 421 424
4778 1 426 422 421 425
4779 2 427 422 421 423
4780 2 427 422 421 424
4781 2 427 422 421 425
4782 2 428 422 421 423
4783 2 428 422 421 424
4784 2 428 422 421 425
4785 11 1415 1412 1409 1406
4786 4 1415 1412 1409 1413
4787 4 1415 1412 1409 1414
4788 4 1416 1412 1409 1406
4789 6 1416 1412 1409 1413
4790 6 1416 1412 1409 1414
4791 4 1417 1412 1409 1406
4792 6 1417 1412 1409 1413
4793 6 1417 1412 1409 1414
4794 11 1737 1734 1731 1728
4795 4 1737 1734 1731 1735
4796 4 1737 1734 1731 1736
4797 4 1738 1734 1731 1728
4798 6 1738 1734 1731 1735
4799 6 1738 1734 1731 1736
4800 4 1739 1734 1731 1728
4801 6 1739 1734 1731 1735
4802 6 1739 1734 1731 1736
4803 7 1006 1003 1002 1004
4804 7 1006 1003 1002 1005
4805 8 1007 1003 1002 1004
4806 8 1007 1003 1002 1005
4807 8 1008 1003 1002 1004
4808 8 1008 1003 1002 1005
4809 4 782 779 776 772
4810 6 782 779 776 780
4811 6 782 779 776 781
4812 4 783 779 776 772
4813 6 783 779 776 780
4814 6 783 779 776 781
4815 4 784 779 776 772
4816 6 784 779 776 780
4817 6 784 779 776 781
4818 4 1749 1746 1743 1740
4819 6 1749 1746 1743 1747
4820 6 1749 1746 1743 1748
4821 4 1750 1746 1743 1740
4822 6 1750 1746 1743 1747
4823 6 1750 1746 1743 1748
4824 4 1751 1746 1743 1740
4825 6 1751 1746 1743 1747
4826 6 1751 1746 1743 1748
4827 11 1746 1743 1740 1737
4828 4 1746 1743 1740 1744
4829 4 1746 1743 1740 1745
4830 4 1747 1743 1740 1737
4831 6 1747 1743 1740 1744
4832 6 1747 1743 1740 1745
4833 4 1748 1743 1740 1737
4834 6 1748 1743 1740 1744
4835 6 1748 1743 1740 1745
4836 11 1740 1737 1734 1731
4837 4 1740 1737 1734 1738
4838 4 1740 1737 1734 1739
4839 4 1741 1737 1734 1731
4840 6 1741 1737 1734 1738
4841 6 1741 1737 1734 1739
4842 4 1742 1737 1734 1731
4843 6 1742 1737 1734 1738
4844 6 1742 1737 1734 1739
4845 11 1743 1740 1737 1734
4846 4 1743 1740 1737 1741
4847 4 1743 1740 1737 1742
4848 4 1744 1740 1737 1734
4849 6 1744 1740 1737 1741
4850 6 1744 1740 1737 1742
4851 4 1745 1740 1737 1734
4852 6 1745 1740 1737 1741
4853 6 1745 1740 1737 1742
4854 11 1015 1012 1009 1006
4855 4 1015 1012 1009 1013
4856 4 1015 1012 1009 1014
4857 4 1016 1012 1009 1006
4858 6 1016 1012 1009 1013
4859 6 1016 1012 1009 1014
4860 4 1017 1012 1009 1006
4861 6 1017 1012 1009 1013
4862 6 1017 1012 1009 1014
4863 11 1137 1134 1131 1128
4864 4 1137 1134 1131 1135
4865 4 1137 1134 1131 1136
4866 4 1138 1134 1131 1128
4867 6 1138 1134 1131 1135
4868 6 1138 1134 1131 1136
4869 4 1139 1134 1131 1128
4870 6 1139 1134 1131 1135
4871 6 1139 1134 1131 1136
4872 11 1140 1137 1134 1131
4873 4 1140 1137 1134 1138
4874 4 1140 1137 1134 1139
4875 4 1141 1137 1134 1131
4876 6 1141 1137 1134 1138
4877 6 1141 1137 1134 1139
4878 4 1142 1137 1134 1131
4879 6 1142 1137 1134 1138
4880 6 1142 1137 1134 1139
4881 11 1143 1140 1137 1134
4882 4 1143 1140 1137 1141
4883 4 1143 1140 1137 1142
4884 4 1144 1140 1137 1134
4885 6 1144 1140 1137 1141
4886 6 1144 1140 1137 1142
4887 4 1145 1140 1137 1134
4888 6 1145 1140 1137 1141
4889 6 1145 1140 1137 1142
4890 11 1146 1143 1140 1137
4891 4 1146 1143 1140 1144
4892 4 1146 1143 1140 1145
4893 4 1147 1143 1140 1137
4894 6 1147 1143 1140 1144
4895 6 1147 1143 1140 1145
4896 4 1148 1143 1140 1137
4897 6 1148 1143 1140 1144
4898 6 1148 1143 1140 1145
4899 4 1149 1146 1143 1140
4900 6 1149 1146 1143 1147
4901 6 1149 1146 1143 1148
4902 4 1150 1146 1143 1140
4903 6 1150 1146 1143 1147
4904 6 1150 1146 1143 1148
4905 4 1151 1146 1143 1140
4906 6 1151 1146 1143 1147
4907 6 1151 1146 1143 1148
4908 11 1018 1015 1012 1009
4909 4 1018 1015 1012 1016
4910 4 1018 1015 1012 1017
4911 4 1019 1015 1012 1009
4912 6 1019 1015 1012 1016
4913 6 1019 1015 1012 1017
4914 4 1020 1015 1012 1009
4915 6 1020 1015 1012 1016
4916 6 1020 1015 1012 1017
4917 4 670 667 664 660
4918 6 670 667 664 668
4919 6 670 667 664 669
4920 4 671 667 664 660
4921 6 671 667 664 668
4922 6 671 667 664 669
4923 4 672 667 664 660
4924 6 672 667 664 668
4925 6 672 667 664 669
4926 11 1921 1918 1915 1912
4927 4 1921 1918 1915 1919
4928 4 1921 1918 1915 1920
4929 4 1922 1918 1915 1912
4930 6 1922 1918 1915 1919
4931 6 1922 1918 1915 1920
4932 4 1923 1918 1915 1912
4933 6 1923 1918 1915 1919
4934 6 1923 1918 1915 1920
4935 12 1778 1779 1777 1780
4936 11 915 912 909 906
4937 4 915 912 909 913
4938 4 915 912 909 914
4939 4 916 912 909 906
4940 6 916 912 909 913
4941 6 916 912 909 914
4942 4 917 912 909 906
4943 6 917 912 909 913
4944 6 917 912 909 914
4945 3 723 720 716 715
4946 4 723 720 716 721
4947 4 723 720 716 722
4948 5 724 720 716 715
4949 6 724 720 716 721
4950 6 724 720 716 722
4951 5 725 720 716 715
4952 6 725 720 716 721
4953 6 725 720 716 722
4954 11 912 909 906 903
4955 4 912 909 906 910
4956 4 912 909 906 911
4957 4 913 909 906 903
4958 6 913 909 906 910
4959 6 913 909 906 911
4960 4 914 909 906 903
4961 6 914 909 906 910
4962 6 914 909 906 911
4963 9 909 906 903 902
4964 4 909 906 903 907
4965 4 909 906 903 908
4966 10 910 906 903 902
4967 6 910 906 903 907
4968 6 910 906 903 908
4969 10 911 906 903 902
4970 6 911 906 903 907
4971 6 911 906 903 908
4972 4 1924 1921 1918 1915
4973 6 1924 1921 1918 1922
4974 6 1924 1921 1918 1923
4975 4 1925 1921 1918 1915
4976 6 1925 1921 1918 1922
4977 6 1925 1921 1918 1923
4978 4 1926 1921 1918 1915
4979 6 1926 1921 1918 1922
4980 6 1926 1921 1918 1923
4981 3 667 664 660 659
4982 4 667 664 660 665
4983 4 667 664 660 666
4984 5 668 664 660 659
4985 6 668 664 660 665
4986 6 668 664 660 666
4987 5 669 664 660 659
4988 6 669 664 660 665
4989 6 669 664 660 666
4990 7 906 903 902 904
4991 7 906 903 902 905
4992 8 907 903 902 904
4993 8 907 903 902 905
4994 8 908 903 902 904
4995 8 908 903 902 905
4996 1 286 282 281 283
4997 1 286 282 281 284
4998 1 286 282 281 285
4999 2 287 282 281 283
5000 2 287 282 281 284
5001 2 287 282 281 285
5002 2 288 282 281 283
5003 2 288 282 281 284
5004 2 288 282 281 285
5005 3 289 286 282 281
5006 4 289 286 282 287
5007 4 289 286 282 288
5008 5 290 286 282 281
5009 6 290 286 282 287
5010 6 290 286 282 288
5011 5 291 286 282 281
5012 6 291 286 282 287
5013 6 291 286 282 288
5014 4 292 289 286 282
5015 6 292 289 286 290
5016 6 292 289 286 291
5017 4 293 289 286 282
5018 6 293 289 286 290
5019 6 293 289 286 291
5020 4 294 289 286 282
5021 6 294 289 286 290
5022 6 294 289 286 291
5023 12 903 904 902 905
5024 1 720 716 715 717
5025 1 720 716 715 718
5026 1 720 716 715 719
5027 2 721 716 715 717
5028 2 721 716 715 718
5029 2 721 716 715 719
5030 2 722 716 715 717
5031 2 722 716 715 718
5032 2 722 716 715 719
5033 1 384 380 379 381
5034 1 384 380 379 382
5035 1 384 380 379 383
5036 2 385 380 379 381
5037 2 385 380 379 382
5038 2 385 380 379 383
5039 2 386 380 379 381
5040 2 386 380 379 382
5041 2 386 380 379 383
5042 11 1412 1409 1406 1403
5043 4 1412 1409 1406 1410
5044 4 1412 1409 1406 1411
5045 4 1413 1409 1406 1403
5046 6 1413 1409 1406 1410
5047 6 1413 1409 1406 1411
5048 4 1414 1409 1406 1403
5049 6 1414 1409 1406 1410
5050 6 1414 1409 1406 1411
5051 7 2106 2103 2102 2104
5052 7 2106 2103 2102 2105
5053 8 2107 2103 2102 2104
5054 8 2107 2103 2102 2105
5055 8 2108 2103 2102 2104
5056 8 2108 2103 2102 2105
5057 11 2112 2109 2106 2103
5058 4 2112 2109 2106 2110
5059 4 2112 2109 2106 2111
5060 4 2113 2109 2106 2103
5061 6 2113 2109 2106 2110
5062 6 2113 2109 2106 2111
5063 4 2114 2109 2106 2103
5064 6 2114 2109 2106 2110
5065 6 2114 2109 2106 2111
5066 9 2109 2106 2103 2102
5067 4 2109 2106 2103 2107
5068 4 2109 2106 2103 2108
5069 10 2110 2106 2103 2102
5070 6 2110 2106 2103 2107
5071 6 2110 2106 2103 2108
5072 10 2111 2106 2103 2102
5073 6 2111 2106 2103 2107
5074 6 2111 2106 2103 2108
5075 12 2103 2104 2102 2105
5076 11 1640 1637 1634 1631
5077 4 1640 1637 1634 1638
5078 4 1640 1637 1634 1639
5079 4 1641 1637 1634 1631
5080 6 1641 1637 1634 1638
5081 6 1641 1637 1634 1639
5082 4 1642 1637 1634 1631
5083 6 1642 1637 1634 1638
5084 6 1642 1637 1634 1639
5085 11 1021 1018 1015 1012
5086 4 1021 1018 1015 1019
5087 4 1021 1018 1015 1020
5088 4 1022 1018 1015 1012
5089 6 1022 1018 1015 1019
5090 6 1022 1018 1015 1020
5091 4 1023 1018 1015 1012
5092 6 1023 1018 1015 1019
5093 6 1023 1018 1015 1020
5094 11 2121 2118 2115 2112
5095 4 2121 2118 2115 2119
5096 4 2121 2118 2115 2120
5097 4 2122 2118 2115 2112
5098 6 2122 2118 2115 2119
5099 6 2122 2118 2115 2120
5100 4 2123 2118 2115 2112
5101 6 2123 2118 2115 2119
5102 6 2123 2118 2115 2120
5103 11 1012 1009 1006 1003
5104 4 1012 1009 1006 1010
5105 4 1012 1009 1006 1011
5106 4 1013 1009 1006 1003
5107 6 1013 1009 1006 1010
5108 6 1013 1009 1006 1011
5109 4 1014 1009 1006 1003
5110 6 1014 1009 1006 1010
5111 6 1014 1009 1006 1011
5112 3 695 692 688 687
5113 4 695 692 688 693
5114 4 695 692 688 694
5115 5 696 692 688 687
5116 6 696 692 688 693
5117 6 696 692 688 694
5118 5 697 692 688 687
5119 6 697 692 688 693
5120 6 697 692 688 694
5121 11 1646 1643 1640 1637
5122 4 1646 1643 1640 1644
5123 4 1646 1643 1640 1645
5124 4 1647 1643 1640 1637
5125 6 1647 1643 1640 1644
5126 6 1647 1643 1640 1645
5127 4 1648 1643 1640 1637
5128 6 1648 1643 1640 1644
5129 6 1648 1643 1640 1645
5130 4 1649 1646 1643 1640
5131 6 1649 1646 1643 1647
5132 6 1649 1646 1643 1648
5133 4 1650 1646 1643 1640
5134 6 1650 1646 1643 1647
5135 6 1650 1646 1643 1648
5136 4 1651 1646 1643 1640
5137 6 1651 1646 1643 1647
5138 6 1651 1646 1643 1648
5139 4 1024 1021 1018 1015
5140 6 1024 1021 1018 1022
5141 6 1024 1021 1018 1023
5142 4 1025 1021 1018 1015
5143 6 1025 1021 1018 1022
5144 6 1025 1021 1018 1023
5145 4 1026 1021 1018 1015
5146 6 1026 1021 1018 1022
5147 6 1026 1021 1018 1023
5148 4 1424 1421 1418 1415
5149 6 1424 1421 1418 1422
5150 6 1424 1421 1418 1423
5151 4 1425 1421 1418 1415
5152 6 1425 1421 1418 1422
5153 6 1425 1421 1418 1423
5154 4 1426 1421 1418 1415
5155 6 1426 1421 1418 1422
5156 6 1426 1421 1418 1423
5157 11 2118 2115 2112 2109
5158 4 2118 2115 2112 2116
5159 4 2118 2115 2112 2117
5160 4 2119 2115 2112 2109
5161 6 2119 2115 2112 2116
5162 6 2119 2115 2112 2117
5163 4 2120 2115 2112 2109
5164 6 2120 2115 2112 2116
5165 6 2120 2115 2112 2117
5166 11 1421 1418 1415 1412
5167 4 1421 1418 1415 1419
5168 4 1421 1418 1415 1420
5169 4 1422 1418 1415 1412
5170 6 1422 1418 1415 1419
5171 6 1422 1418 1415 1420
5172 4 1423 1418 1415 1412
5173 6 1423 1418 1415 1419
5174 6 1423 1418 1415 1420
5175 11 2115 2112 2109 2106
5176 4 2115 2112 2109 2113
5177 4 2115 2112 2109 2114
5178 4 2116 2112 2109 2106
5179 6 2116 2112 2109 2113
5180 6 2116 2112 2109 2114
5181 4 2117 2112 2109 2106
5182 6 2117 2112 2109 2113
5183 6 2117 2112 2109 2114
5184 11 1418 1415 1412 1409
5185 4 1418 1415 1412 1416
5186 4 1418 1415 1412 1417
5187 4 1419 1415 1412 1409
5188 6 1419 1415 1412 1416
5189 6 1419 1415 1412 1417
5190 4 1420 1415 1412 1409
5191 6 1420 1415 1412 1416
5192 6 1420 1415 1412 1417
