LAMMPS (10 Dec 2025)
OMP_NUM_THREADS environment is not set. Defaulting to 1 thread.
  using 1 OpenMP thread(s) per MPI task
# created by fftool

units real
boundary p p p

atom_style full
bond_style harmonic
angle_style harmonic
dihedral_style opls

special_bonds lj/coul 0.0 0.0 0.5

# remove hybrid if not necessary
pair_style hybrid lj/cut/coul/long 10.0 10.0
pair_modify mix geometric tail yes
read_data data.lmp
Reading data file ...
  orthogonal box = (0 0 0) to (32.14 32.14 32.14)
  1 by 1 by 2 MPI processor grid
  reading atoms ...
  2301 atoms
  scanning bonds ...
  1 = max bonds/atom
  scanning angles ...
  6 = max angles/atom
  scanning dihedrals ...
  9 = max dihedrals/atom
  orthogonal box = (0 0 0) to (32.14 32.14 32.14)
  1 by 1 by 2 MPI processor grid
  reading bonds ...
  2183 bonds
  reading angles ...
  4071 angles
  reading dihedrals ...
  5192 dihedrals
Finding 1-2 1-3 1-4 neighbors ...
  special bond factors lj:    0        0        0.5     
  special bond factors coul:  0        0        0.5     
     4 = max # of 1-2 neighbors
     6 = max # of 1-3 neighbors
    12 = max # of 1-4 neighbors
    16 = max # of special neighbors
  special bonds CPU = 0.240 seconds
  read_data CPU = 1.112 seconds
# read_restart restart1.lmp

kspace_style pppm 1.0e-5

# remove pair style if not using hybrid
pair_coeff    1    1 lj/cut/coul/long     0.170000     3.250000  # N1 N1
pair_coeff    2    2 lj/cut/coul/long     0.065999     3.500000  # C1N C1N
pair_coeff    3    3 lj/cut/coul/long     0.000000     0.000000  # HN HN
pair_coeff    4    4 lj/cut/coul/long     0.065999     3.500000  # CS CS
pair_coeff    5    5 lj/cut/coul/long     0.030000     2.500000  # H1N H1N
pair_coeff    6    6 lj/cut/coul/long     0.065999     3.500000  # CEN CEN
pair_coeff    7    7 lj/cut/coul/long     0.030000     2.500000  # HC HC
pair_coeff    8    8 lj/cut/coul/long     0.030000     2.500000  # HCN HCN
pair_coeff    9    9 lj/cut/coul/long     0.105000     3.750000  # CO2 CO2
pair_coeff   10   10 lj/cut/coul/long     0.065999     3.500000  # C2C C2C
pair_coeff   11   11 lj/cut/coul/long     0.210000     2.960000  # O2 O2
pair_coeff   12   12 lj/cut/coul/long     0.065999     3.500000  # CT CT

# minimize 1.0e-4 1.0e-6 100 1000
# reset_timestep 0

fix SHAKE all shake 0.0001 20 0 b 2 4
Finding SHAKE clusters ...
       0 = # of size 2 clusters
     472 = # of size 3 clusters
     177 = # of size 4 clusters
       0 = # of frozen angles
  find clusters CPU = 0.009 seconds

neighbor 2.0 bin
neigh_modify delay 0 every 1 check yes








#fix VAVG all ave/time 10 1000 50000 v_vinst

# ---------------------------------------------------------------------------
# RENEU 2026 simulation protocol (stage1 M2 propylammonium octanoate)
# 1 minimise  2 NVT relaxation  3 NPT equilibration  4 NPT production
# ---------------------------------------------------------------------------
timestep 1.0

variable TK      equal 300.0
variable PBAR    equal 1.0
variable NVTRUN  equal 20000
variable EQRUN   equal 100000
variable PRODRUN equal 200000

variable dens equal density
variable vol  equal vol

thermo 1000
thermo_style custom step temp press vol v_dens pe etotal

# --- 1. energy minimisation ------------------------------------------------
print "RENEU >>> stage 1 of 4: energy minimisation"
RENEU >>> stage 1 of 4: energy minimisation
minimize 1.0e-4 1.0e-6 10000 100000
PPPM initialization ...
  using 12-bit tables for long-range coulomb
  G vector (1/distance) = 0.27918523
  grid = 20 20 20
  stencil order = 5
  estimated absolute RMS force accuracy = 0.0023147614
  estimated relative force accuracy = 6.9708351e-06
  using double precision FFTW3
  3d grid and FFT values/proc = 12393 4000
Generated 66 of 66 mixed pair_coeff terms from geometric mixing rule
WARNING: Using fix shake with minimization.
  Substituting constraints with harmonic restraint forces using kbond=1987206.7 (src/RIGID/fix_shake.cpp:397)
Neighbor list info ...
  update: every = 1 steps, delay = 0 steps, check = yes
  max neighbors/atom: 2000, page size: 100000
  master list distance cutoff = 12
  ghost atom cutoff = 12
  binsize = 6, bins = 6 6 6
  1 neighbor lists, perpetual/occasional/extra = 1 0 0
  (1) pair lj/cut/coul/long, perpetual
      attributes: half, newton on
      pair build: half/bin/newton
      stencil: half/bin/3d
      bin: standard
Per MPI rank memory allocation (min/avg/max) = 16.5 | 16.5 | 16.5 Mbytes
   Step          Temp          Press          Volume         v_dens         PotEng         TotEng    
         0   0             -16222943       33199.964      0.60000707     220296.75      220296.75    
      1000   0              3254.0411      33199.964      0.60000707    -4021.2167     -4021.2167    
      1515   0              2004.7202      33199.964      0.60000707    -4595.8459     -4595.8459    
Loop time of 142.403 on 2 procs for 1515 steps with 2301 atoms

96.7% CPU use with 2 MPI tasks x 1 OpenMP threads

Minimization stats:
  Stopping criterion = energy tolerance
  Energy initial, next-to-last, final = 
      220296.749712614  -4595.40198259123  -4595.84586068341
  Force two-norm initial, final = 1630693.4 1999.5828
  Force max component initial, final = 82647.096 303.71275
  Final line search alpha, max atom move = 3.1183195e-05 0.0094707339
  Iterations, force evaluations = 1515 3055

MPI task timing breakdown:
Section |  min time  |  avg time  |  max time  |%varavg| %total
---------------------------------------------------------------
Pair    | 78.807     | 82.223     | 85.639     |  37.7 | 57.74
Bond    | 7.0502     | 7.0507     | 7.0513     |   0.0 |  4.95
Kspace  | 39.145     | 42.527     | 45.909     |  51.9 | 29.86
Neigh   | 0.18719    | 0.1895     | 0.19181    |   0.5 |  0.13
Comm    | 5.5862     | 5.6605     | 5.7348     |   3.1 |  3.97
Output  | 9.29e-05   | 0.00022125 | 0.0003496  |   0.0 |  0.00
Modify  | 1.1755     | 1.2293     | 1.2831     |   4.9 |  0.86
Other   |            | 3.523      |            |       |  2.47

Nlocal:         1150.5 ave        1166 max        1135 min
Histogram: 1 0 0 0 0 0 0 0 0 1
Nghost:         7316.5 ave        7428 max        7205 min
Histogram: 1 0 0 0 0 0 0 0 0 1
Neighs:         314181 ave      331838 max      296524 min
Histogram: 1 0 0 0 0 0 0 0 0 1

Total # of neighbors = 628362
Ave neighs/atom = 273.08214
Ave special neighs/atom = 9.8974359
Neighbor list builds = 4
Dangerous builds = 0
reset_timestep 0

# --- 2. NVT relaxation (lets the packed box relax before the barostat) ------
print "RENEU >>> stage 2 of 4: NVT relaxation"
RENEU >>> stage 2 of 4: NVT relaxation
velocity all create ${TK} 12345 mom yes rot yes dist gaussian
velocity all create 300 12345 mom yes rot yes dist gaussian
fix NVTRELAX all nvt temp ${TK} ${TK} 100
fix NVTRELAX all nvt temp 300 ${TK} 100
fix NVTRELAX all nvt temp 300 300 100
run ${NVTRUN}
run 20000
PPPM initialization ...
  using 12-bit tables for long-range coulomb
  G vector (1/distance) = 0.27918523
  grid = 20 20 20
  stencil order = 5
  estimated absolute RMS force accuracy = 0.0023147614
  estimated relative force accuracy = 6.9708351e-06
  using double precision FFTW3
  3d grid and FFT values/proc = 12393 4000
Generated 66 of 66 mixed pair_coeff terms from geometric mixing rule
Per MPI rank memory allocation (min/avg/max) = 15.38 | 15.38 | 15.38 Mbytes
   Step          Temp          Press          Volume         v_dens         PotEng         TotEng    
         0   300            5068.1131      33199.964      0.60000707    -4596.118      -2979.0286    
      1000   309.66537     -929.43777      33199.964      0.60000707    -6809.7351     -5140.5464    
      2000   297.64656     -534.99617      33199.964      0.60000707    -6967.607      -5363.2033    
      3000   308.07143     -1187.4354      33199.964      0.60000707    -7187.7793     -5527.1824    
      4000   298.75291     -1210.6222      33199.964      0.60000707    -7292.9278     -5682.5605    
      5000   304.31162     -650.83393      33199.964      0.60000707    -7384.1103     -5743.7799    
      6000   296.21515     -386.07558      33199.964      0.60000707    -7436.8326     -5840.1446    
      7000   293.80359     -869.51696      33199.964      0.60000707    -7468.1715     -5884.4825    
      8000   301.69231     -687.98094      33199.964      0.60000707    -7491.5085     -5865.2969    
      9000   295.84094     -1479.71        33199.964      0.60000707    -7547.148      -5952.4771    
     10000   292.5524      -427.34265      33199.964      0.60000707    -7575.0573     -5998.1126    
     11000   295.42752     -204.96463      33199.964      0.60000707    -7596.8384     -6004.3959    
     12000   304.09881     -1182.549       33199.964      0.60000707    -7603.4014     -5964.2181    
     13000   291.94207      74.745173      33199.964      0.60000707    -7578.0782     -6004.4234    
     14000   300.74196     -974.96266      33199.964      0.60000707    -7613.6626     -5992.5738    
     15000   290.40668     -484.8087       33199.964      0.60000707    -7679.3758     -6113.9972    
     16000   300.17966     -825.1895       33199.964      0.60000707    -7631.8928     -6013.835     
     17000   309.75243     -1493.2696      33199.964      0.60000707    -7682.9991     -6013.3411    
     18000   294.87955     -1160.9628      33199.964      0.60000707    -7680.0791     -6090.5903    
     19000   308.90499     -1045.9239      33199.964      0.60000707    -7647.548      -5982.458     
     20000   298.30417     -1627.426       33199.964      0.60000707    -7703.3326     -6095.3842    
Loop time of 867.934 on 2 procs for 20000 steps with 2301 atoms

Performance: 1.991 ns/day, 12.055 hours/ns, 23.043 timesteps/s, 53.022 katom-step/s
96.3% CPU use with 2 MPI tasks x 1 OpenMP threads

MPI task timing breakdown:
Section |  min time  |  avg time  |  max time  |%varavg| %total
---------------------------------------------------------------
Pair    | 391.93     | 401.04     | 410.15     |  45.5 | 46.21
Bond    | 46.633     | 48.955     | 51.278     |  33.2 |  5.64
Kspace  | 271.12     | 282.15     | 293.19     |  65.7 | 32.51
Neigh   | 31.576     | 31.589     | 31.602     |   0.2 |  3.64
Comm    | 58.793     | 59.183     | 59.573     |   5.1 |  6.82
Output  | 0.0023221  | 0.015403   | 0.028484   |  10.5 |  0.00
Modify  | 37.53      | 37.819     | 38.109     |   4.7 |  4.36
Other   |            | 7.176      |            |       |  0.83

Nlocal:         1150.5 ave        1223 max        1078 min
Histogram: 1 0 0 0 0 0 0 0 0 1
Nghost:         7352.5 ave        7536 max        7169 min
Histogram: 1 0 0 0 0 0 0 0 0 1
Neighs:         315198 ave      316680 max      313717 min
Histogram: 1 0 0 0 0 0 0 0 0 1

Total # of neighbors = 630397
Ave neighs/atom = 273.96654
Ave special neighs/atom = 9.8974359
Neighbor list builds = 686
Dangerous builds = 0
unfix NVTRELAX

# --- 3. NPT equilibration (this is where the density finds its own value) ---
# restart files are written every 25000 steps. If the run stops for any
# reason you can pick up from the last one instead of starting over:
#     read_restart rst_a.lmp      (or rst_b.lmp, whichever is newer)
print "RENEU >>> stage 3 of 4: NPT equilibration - watch the density column"
RENEU >>> stage 3 of 4: NPT equilibration - watch the density column
restart 25000 rst_a.lmp rst_b.lmp
fix NPTEQ all npt temp ${TK} ${TK} 100 iso ${PBAR} ${PBAR} 1000
fix NPTEQ all npt temp 300 ${TK} 100 iso ${PBAR} ${PBAR} 1000
fix NPTEQ all npt temp 300 300 100 iso ${PBAR} ${PBAR} 1000
fix NPTEQ all npt temp 300 300 100 iso 1 ${PBAR} 1000
fix NPTEQ all npt temp 300 300 100 iso 1 1 1000
run ${EQRUN}
run 100000
PPPM initialization ...
  using 12-bit tables for long-range coulomb
  G vector (1/distance) = 0.27918523
  grid = 20 20 20
  stencil order = 5
  estimated absolute RMS force accuracy = 0.0023147614
  estimated relative force accuracy = 6.9708351e-06
  using double precision FFTW3
  3d grid and FFT values/proc = 12393 4000
Generated 66 of 66 mixed pair_coeff terms from geometric mixing rule
Per MPI rank memory allocation (min/avg/max) = 15.38 | 15.38 | 15.38 Mbytes
   Step          Temp          Press          Volume         v_dens         PotEng         TotEng    
     20000   298.30417     -1627.2705      33199.964      0.60000707    -7703.3326     -6095.3842    
     21000   306.80474      13.502427      30520.484      0.6526834     -7779.3234     -6125.5543    
     22000   295.58136     -2022.673       29076.552      0.68509545    -7750.7186     -6157.4469    
     23000   296.80952      47.266452      28099.648      0.70891326    -7808.3303     -6208.4385    
     24000   303.41288      1597.7198      27297.957      0.72973276    -7934.7711     -6299.2852    
     25000   302.83364      401.00789      26757.996      0.74445834    -7875.5454     -6243.1818    
     26000   305.28725      573.74863      25870.11       0.77000883    -7876.1789     -6230.5896    
     27000   297.26853      782.86307      26123.521      0.76253939    -7889.8186     -6287.4525    
     28000   302.29444      781.71772      26067.173      0.76418772    -7923.856      -6294.3988    
     29000   294.67653      963.92428      25877.922      0.7697764     -7934.1223     -6345.7279    
     30000   303.54837     -356.88937      25351.841      0.78575019    -7943.8119     -6307.5957    
     31000   301.06107     -212.22838      25278.036      0.78804434    -7918.898      -6296.0891    
     32000   303.24197      114.36563      25003.564      0.79669496    -7862.9135     -6228.3489    
     33000   309.60825      443.09629      24851.479      0.80157053    -8013.8037     -6344.9228    
     34000   298.48035      929.68668      24853.445      0.80150714    -7901.9376     -6293.0395    
     35000   302.40428     -376.59678      24823.474      0.80247485    -7949.2238     -6319.1745    
     36000   296.17752      431.99773      25223.229      0.78975667    -7953.6762     -6357.1911    
     37000   298.11945     -936.48269      24827.004      0.80236075    -7971.4053     -6364.4526    
     38000   309.13971     -965.13591      25042.514      0.79545581    -7942.8876     -6276.5324    
     39000   297.86787      831.23656      24605.54       0.80958247    -7972.0871     -6366.4904    
     40000   307.35978     -357.53417      24229.055      0.8221622     -7966.4546     -6309.6937    
     41000   305.22907      999.53482      24254.217      0.82130929    -8048.6291     -6403.3534    
     42000   304.98296      1448.5793      25170.448      0.79141275    -7965.8172     -6321.8681    
     43000   298.27292      406.55257      24913.306      0.7995813     -8026.4069     -6418.6269    
     44000   310.00162     -957.81405      24390.049      0.81673527    -7968.5339     -6297.5328    
     45000   302.52991     -133.17011      24081.737      0.82719171    -8052.253      -6421.5266    
     46000   307.01951      541.01736      24128.728      0.82558074    -7976.3324     -6321.4057    
     47000   301.89726     -306.38364      23905.447      0.83329182    -7995.5963     -6368.2801    
     48000   294.66861      932.18301      23868.289      0.83458907    -8031.2196     -6442.868     
     49000   293.79796      125.23334      24005.092      0.82983283    -7993.2421     -6409.5835    
     50000   300.43332      1965.6153      23410.424      0.85091211    -7994.5516     -6375.1264    
     51000   300.84146      929.82866      23228.863      0.85756301    -8045.1368     -6423.5116    
     52000   301.94603      600.28663      23294.346      0.85515231    -8046.2177     -6418.6385    
     53000   299.85905      955.08532      23536.781      0.846344      -7995.0698     -6378.7401    
     54000   293.95911     -105.88962      23724.376      0.83965172    -7929.9182     -6345.391     
     55000   307.91283      1234.8411      23420.655      0.85054042    -8030.5997     -6370.8578    
     56000   294.71078      1037.3242      22988.387      0.86653376    -8016.6803     -6428.1013    
     57000   307.4341      -838.55001      23213.643      0.85812526    -8073.8034     -6416.6419    
     58000   297.40427     -1134.3907      23002.883      0.86598767    -8056.5018     -6453.4041    
     59000   302.51891     -480.83255      23342.01       0.85340607    -8077.0821     -6446.415     
     60000   302.51462      363.13771      23019.706      0.86535481    -7998.5469     -6367.9029    
     61000   299.20088      797.17977      23664.136      0.84178918    -8060.1596     -6447.3776    
     62000   300.07099     -802.37586      22846.187      0.87192728    -8010.2481     -6392.7759    
     63000   306.41024      566.93047      23495.833      0.84781901    -7997.0948     -6345.4522    
     64000   305.11657     -1087.3543      23189.773      0.85900855    -8101.013      -6456.3437    
     65000   300.60676     -264.85907      23357.995      0.85282206    -8082.6807     -6462.3207    
     66000   313.50933      453.79487      22972.277      0.86714146    -8124.2754     -6434.3666    
     67000   301.60009      1190.6873      23263.356      0.85629149    -8091.9029     -6466.1885    
     68000   302.97696     -549.19408      23340.397      0.85346508    -8066.0399     -6432.9038    
     69000   296.26644     -151.94654      23054.524      0.86404791    -8065.5305     -6468.5661    
     70000   300.89904     -824.43137      23376.84       0.85213458    -8036.0516     -6414.1161    
     71000   293.69102     -1119.4969      23065.758      0.8636271     -8049.1955     -6466.1133    
     72000   301.61274      273.88441      23187.927      0.85907693    -8012.9653     -6387.1827    
     73000   298.19992      2526.1933      23180.986      0.85933417    -8076.4397     -6469.0533    
     74000   305.27937      122.14713      23140.988      0.86081951    -8010.0039     -6364.4571    
     75000   296.96768     -680.87751      23343.368      0.85335644    -8023.879      -6423.1347    
     76000   293.98651      1306.8881      23091.148      0.86267748    -8000.0951     -6415.4201    
     77000   310.01036      681.26081      22792.368      0.87398614    -8074.5881     -6403.5398    
     78000   297.15019     -1372.7861      23457.23       0.84921422    -8070.8585     -6469.1303    
     79000   303.52918      45.197636      22890.752      0.87022974    -8021.0614     -6384.9487    
     80000   296.44707     -2234.9408      23303.798      0.85480545    -7987.0836     -6389.1455    
     81000   303.13965     -314.41575      24047.644      0.82836444    -8007.1091     -6373.096     
     82000   306.97556     -279.62962      23107.817      0.86205519    -8075.9125     -6421.2227    
     83000   300.71699     -831.1068       23057.686      0.86392944    -8039.6472     -6418.6929    
     84000   300.60694     -674.07963      22980.646      0.86682564    -8064.334      -6443.973     
     85000   293.2598       996.63256      23023.469      0.8652134     -8004.0635     -6423.3057    
     86000   297.59061     -911.27804      23281.451      0.85562592    -8065.9243     -6461.8222    
     87000   296.21553      432.46969      23402.869      0.85118682    -8026.4235     -6429.7335    
     88000   294.70998     -1142.6753      22824.006      0.87277462    -8124.9117     -6536.3371    
     89000   295.26556      1166.4057      22653.046      0.87936137    -8051.2692     -6459.6998    
     90000   301.40587     -1252.6944      23057.371      0.86394122    -8079.9423     -6455.2748    
     91000   291.40727     -1632.696       22848.238      0.87184901    -8075.1642     -6504.3921    
     92000   299.44038      590.69177      22953.888      0.86783614    -8052.4481     -6438.3752    
     93000   296.06152     -388.61241      22883.96       0.87048803    -8030.9294     -6435.0695    
     94000   299.3751      -1373.7037      22788.172      0.87414704    -8075.9683     -6462.2472    
     95000   306.83764     -75.938779      23033.01       0.864855      -8035.8757     -6381.9293    
     96000   296.80876     -2136.9143      23416.423      0.85069411    -8005.7658     -6405.8781    
     97000   301.4368       147.75116      23131.756      0.86116305    -8105.9451     -6481.1108    
     98000   299.90329      334.45304      22716.225      0.87691565    -8101.3265     -6484.7583    
     99000   305.69574     -909.37633      23029.411      0.86499013    -8085.6496     -6437.8584    
    100000   300.51899      407.20545      22918.827      0.86916375    -8054.9278     -6435.0408    
    101000   297.97902      410.32421      22823.745      0.87278463    -8073.6329     -6467.4371    
    102000   307.05957      1969.0774      22768.814      0.87489027    -8063.5344     -6408.3918    
    103000   296.53406      1304.6398      22864.111      0.87124373    -8077.0742     -6478.6672    
    104000   307.21985     -505.96259      23151.566      0.86042619    -8080.9798     -6424.9731    
    105000   294.15085     -2176.5133      23107.115      0.86208137    -8093.7699     -6508.2091    
    106000   304.09039      649.49956      23083.398      0.86296713    -8047.1643     -6408.0264    
    107000   293.12172      1659.131       22801.042      0.87365365    -8123.9728     -6543.9593    
    108000   307.02891      40.727282      22795.194      0.87387776    -8076.1705     -6421.1931    
    109000   300.27129      94.611796      22703.256      0.8774166     -8161.5258     -6542.9741    
    110000   296.27552      168.00462      23038.977      0.86463098    -8055.4772     -6458.4639    
    111000   298.77147     -1371.5588      23091.102      0.8626792     -8025.4047     -6414.9374    
    112000   294.51276     -1104.3795      22860.238      0.87139135    -8076.1293     -6488.6177    
    113000   295.07591     -1048.3055      23334.491      0.8536811     -8078.0072     -6487.46      
    114000   304.72423      489.11424      23044.041      0.86444099    -8057.1779     -6414.6234    
    115000   294.14721     -447.70289      22597.805      0.88151101    -8062.9212     -6477.3801    
    116000   292.78515      556.56748      23065.868      0.86362297    -8102.2608     -6524.0615    
    117000   300.87551     -166.73817      22744.968      0.8758075     -8098.4936     -6476.6848    
    118000   288.03939     -534.49176      22583.084      0.8820856     -8122.1821     -6569.5639    
    119000   298.55137     -75.373467      22787.686      0.87416569    -8049.7623     -6440.4814    
    120000   300.9628       74.520322      22573.551      0.88245813    -8058.5262     -6436.247     
Loop time of 4067.84 on 2 procs for 100000 steps with 2301 atoms

Performance: 2.124 ns/day, 11.300 hours/ns, 24.583 timesteps/s, 56.566 katom-step/s
96.5% CPU use with 2 MPI tasks x 1 OpenMP threads

MPI task timing breakdown:
Section |  min time  |  avg time  |  max time  |%varavg| %total
---------------------------------------------------------------
Pair    | 2102.7     | 2124.7     | 2146.6     |  47.7 | 52.23
Bond    | 222.19     | 228.48     | 234.76     |  41.6 |  5.62
Kspace  | 926.06     | 956.44     | 986.82     |  98.2 | 23.51
Neigh   | 151.61     | 151.7      | 151.8      |   0.8 |  3.73
Comm    | 175.14     | 178.62     | 182.1      |  26.0 |  4.39
Output  | 5.7343     | 5.7779     | 5.8214     |   1.8 |  0.14
Modify  | 348.01     | 353.21     | 358.41     |  27.7 |  8.68
Other   |            | 68.95      |            |       |  1.70

Nlocal:         1150.5 ave        1181 max        1120 min
Histogram: 1 0 0 0 0 0 0 0 0 1
Nghost:           9435 ave        9602 max        9268 min
Histogram: 1 0 0 0 0 0 0 0 0 1
Neighs:         426487 ave      428895 max      424079 min
Histogram: 1 0 0 0 0 0 0 0 0 1

Total # of neighbors = 852974
Ave neighs/atom = 370.69709
Ave special neighs/atom = 9.8974359
Neighbor list builds = 3039
Dangerous builds = 0
unfix NPTEQ
write_data data.after_equilibration.lmp
System init for write_data ...
PPPM initialization ...
  using 12-bit tables for long-range coulomb
  G vector (1/distance) = 0.28099759
  grid = 18 18 18
  stencil order = 5
  estimated absolute RMS force accuracy = 0.0025300316
  estimated relative force accuracy = 7.619115e-06
  using double precision FFTW3
  3d grid and FFT values/proc = 10000 2916
Generated 66 of 66 mixed pair_coeff terms from geometric mixing rule

# --- 4. NPT production - this is the trajectory you analyse ----------------
print "RENEU >>> stage 4 of 4: NPT production"
RENEU >>> stage 4 of 4: NPT production
reset_timestep 0
fix NPTPROD all npt temp ${TK} ${TK} 100 iso ${PBAR} ${PBAR} 1000
fix NPTPROD all npt temp 300 ${TK} 100 iso ${PBAR} ${PBAR} 1000
fix NPTPROD all npt temp 300 300 100 iso ${PBAR} ${PBAR} 1000
fix NPTPROD all npt temp 300 300 100 iso 1 ${PBAR} 1000
fix NPTPROD all npt temp 300 300 100 iso 1 1 1000
fix DENSAVG all ave/time 10 100 1000 v_dens v_vol file density.dat

dump TRAJ all custom 500 dump.lammpstrj id mol type element q xu yu zu
dump_modify TRAJ element N C H C H C H H C C O C

run ${PRODRUN}
run 200000
PPPM initialization ...
  using 12-bit tables for long-range coulomb
  G vector (1/distance) = 0.28099759
  grid = 18 18 18
  stencil order = 5
  estimated absolute RMS force accuracy = 0.0025300316
  estimated relative force accuracy = 7.619115e-06
  using double precision FFTW3
  3d grid and FFT values/proc = 10000 2916
Generated 66 of 66 mixed pair_coeff terms from geometric mixing rule
Per MPI rank memory allocation (min/avg/max) = 15.59 | 15.6 | 15.6 Mbytes
   Step          Temp          Press          Volume         v_dens         PotEng         TotEng    
         0   300.9628       59.994643      22573.551      0.88245813    -8058.4973     -6436.2181    
      1000   294.8702       587.17148      22679.633      0.87833051    -8106.659      -6517.2208    
      2000   310.50182      7.3568608      22225.998      0.89625731    -8085.6828     -6411.9854    
      3000   291.80838      772.36496      23127.4        0.86132525    -8112.2379     -6539.3037    
      4000   296.04537      1077.774       22810.897      0.87327621    -8075.4097     -6479.6369    
      5000   301.9394       900.67346      23075.533      0.86326127    -8024.3348     -6396.7914    
      6000   291.93905     -334.85747      23168.016      0.85981526    -8085.4617     -6511.8232    
      7000   297.29633      1080.8904      23124.514      0.86143276    -8081.05       -6478.5341    
      8000   298.14893     -1594.4597      22683.395      0.87818485    -8078.309      -6471.1974    
      9000   294.12633      24.409796      22686.692      0.87805722    -8034.4584     -6449.0298    
     10000   299.38241      130.90875      22575.116      0.88239694    -8117.7371     -6503.9766    
     11000   293.50912      199.83246      22810.491      0.87329176    -8035.5104     -6453.4087    
     12000   305.54419      530.37644      22550.745      0.88335059    -8055.9791     -6409.0048    
     13000   290.73793     -934.93864      22965.461      0.86739882    -8059.9812     -6492.8171    
     14000   296.59625      428.39352      22428.524      0.88816427    -8046.4318     -6447.6896    
     15000   288.94201      1613.6373      22212.818      0.89678913    -8100.0006     -6542.517     
     16000   304.84038     -134.26556      23111.018      0.8619358     -8051.7559     -6408.5754    
     17000   305.27007      1163.9118      22719.579      0.87678622    -8101.4219     -6455.9252    
     18000   303.19574      179.3894       22794.315      0.87391147    -8074.0016     -6439.6862    
     19000   294.3772       776.76506      22711.823      0.87708563    -8143.453      -6556.6721    
     20000   307.59925     -2371.5792      22923.334      0.86899286    -8083.9546     -6425.903     
     21000   298.70324      393.67652      22785.695      0.87424208    -8078.8082     -6468.7086    
     22000   293.73565     -1008.2829      23395.938      0.85143897    -8020.8972     -6437.5744    
     23000   314.65219     -149.40841      22976.66       0.86697602    -8066.0015     -6369.9324    
     24000   303.89903      1077.4926      22647.822      0.8795642     -8106.3636     -6468.2572    
     25000   297.37411      492.80816      22969.729      0.86723764    -8051.5415     -6448.6064    
     26000   295.69333      686.97734      22976.049      0.86699907    -8082.776      -6488.9008    
     27000   296.2157      -1593.1725      23161.055      0.86007368    -8011.3849     -6414.694     
     28000   294.2251       178.77564      22763.36       0.87509987    -8182.8497     -6596.8887    
     29000   297.94299      908.18904      22924.909      0.86893315    -8054.2091     -6448.2075    
     30000   304.91578     -1359.217       23132.473      0.86113635    -8100.7722     -6457.1852    
     31000   299.64204      428.83792      22676.909      0.87843602    -8053.4412     -6438.2813    
     32000   301.23836      189.62953      22758.596      0.87528305    -8091.7381     -6467.9735    
     33000   291.1086      -1204.9277      23103.278      0.86222456    -8089.9207     -6520.7586    
     34000   292.98556      290.81318      23049.231      0.86424633    -8066.9015     -6487.6219    
     35000   296.40654      5.6848665      23076.345      0.86323087    -8105.0917     -6507.3721    
     36000   305.44127      1236.7269      22796.743      0.87381838    -8074.6006     -6428.1811    
     37000   293.34179      984.48317      22845.624      0.87194875    -8076.8543     -6495.6546    
     38000   294.64357      911.55286      23051.628      0.86415648    -8147.0699     -6558.8532    
     39000   291.76866     -1259.4194      22776.228      0.87460546    -8078.9155     -6506.1955    
     40000   290.53806      1171.7658      23152.923      0.86037574    -8082.0672     -6515.9805    
     41000   307.62739     -1086.0301      22902.968      0.86976559    -8079.898      -6421.6946    
     42000   299.85187      259.05059      22750.988      0.87557576    -8076.2187     -6459.9277    
     43000   305.13321     -1112.9695      22917.078      0.86923008    -8101.6111     -6456.8521    
     44000   303.36839     -822.46023      22667.661      0.87879441    -8033.1268     -6397.8808    
     45000   302.2009      -1178.533       22957.271      0.86770825    -8090.7526     -6461.7996    
     46000   290.62351     -1708.6405      22764.247      0.87506578    -8102.2184     -6535.671     
     47000   298.75261     -389.79948      23038.265      0.86465772    -8102.2133     -6491.8476    
     48000   306.92662      872.98384      22696.577      0.8776748     -8074.1176     -6419.6917    
     49000   292.53072     -990.40648      22832.233      0.87246016    -8064.7164     -6487.8885    
     50000   301.15412     -988.25159      22784.316      0.87429501    -8031.4084     -6408.0979    
     51000   305.73891      333.39383      22623.673      0.88050305    -8136.3623     -6488.3384    
     52000   298.56228      1971.8677      22593.777      0.88166816    -8115.738      -6506.3983    
     53000   313.3598      -621.65848      22772.753      0.87473893    -8037.5302     -6348.4275    
     54000   297.01395      607.64593      22754.614      0.87543623    -8123.0979     -6522.1042    
     55000   302.10068      2056.4672      22836.519      0.87229641    -8085.5482     -6457.1354    
     56000   304.4753      -536.38838      22754.322      0.87544744    -8050.9992     -6409.7865    
     57000   293.87848     -103.78626      22615.499      0.8808213     -8049.6096     -6465.517     
     58000   296.90592      430.73473      22658.839      0.87913655    -8028.6963     -6428.2848    
     59000   289.8223       87.694355      22750.452      0.87559638    -8092.4451     -6530.2164    
     60000   293.84456     -504.99332      22610.766      0.88100569    -8091.8361     -6507.9263    
     61000   301.3381      -550.35756      22609.975      0.88103651    -8049.5768     -6425.2746    
     62000   309.76565      652.78576      23083.019      0.86298131    -8046.9558     -6377.2266    
     63000   298.29715      481.3084       22627.914      0.88033803    -8092.7056     -6484.795     
     64000   306.49344     -1342.8434      22755.402      0.87540592    -8036.6398     -6384.5487    
     65000   288.52983      117.2695       22699.865      0.87754767    -7993.7131     -6438.4513    
     66000   298.14528     -550.09893      22898.123      0.86994962    -8090.4721     -6483.3801    
     67000   305.09202      866.48443      22224.717      0.89630899    -8113.596      -6469.0591    
     68000   295.5511      -210.92389      22631.496      0.88019872    -8052.5497     -6459.4411    
     69000   301.14596     -1050.4674      22375.06       0.89028648    -8062.548      -6439.2815    
     70000   299.85538      1819.1154      22612.082      0.88095441    -8113.6418     -6497.3319    
     71000   298.13243     -1009.7527      22633.641      0.8801153     -8117.9627     -6510.9401    
     72000   303.01686      298.63762      22852.578      0.87168344    -8103.162      -6469.8107    
     73000   293.75004     -839.01225      22974.153      0.86707062    -8019.1725     -6435.7723    
     74000   309.52343      898.16427      22482.283      0.88604051    -8079.3092     -6410.8856    
     75000   303.43081      24.127377      22262.567      0.89478509    -8085.5838     -6450.0013    
     76000   297.35598      153.72781      22217.428      0.89660305    -8158.6066     -6555.7693    
     77000   301.00765      701.73978      21993.927      0.90571428    -8049.5217     -6427.0008    
     78000   290.95934     -764.72808      22495.905      0.88550399    -8138.1555     -6569.7979    
     79000   305.73589      1050.5452      22301.675      0.89321602    -8067.0788     -6419.0712    
     80000   291.27776     -36.453044      22422.218      0.88841405    -8110.3191     -6540.2451    
     81000   301.21583     -566.61129      22418.915      0.88854495    -8045.7656     -6422.1225    
     82000   300.11524      239.12817      22632.011      0.88017868    -8052.293      -6434.5824    
     83000   296.09141      709.72757      22429.532      0.88812435    -8059.1573     -6463.1363    
     84000   298.27133     -517.58953      22045.445      0.90359771    -8094.0171     -6486.2457    
     85000   302.74624     -463.46293      22114.781      0.90076466    -8142.7628     -6510.8703    
     86000   312.91037      824.19924      21749.58       0.91588958    -8137.3107     -6450.6305    
     87000   313.52854      2358.2628      22013.896      0.90489268    -8074.7465     -6384.7342    
     88000   296.93752     -1878.6194      22071.391      0.90253547    -8122.5072     -6521.9255    
     89000   303.12945      168.676        22146.251      0.89948469    -8078.8348     -6444.8767    
     90000   295.29279     -984.1612       21956.891      0.907242      -8073.2197     -6481.5035    
     91000   306.48129      929.35062      22076.314      0.90233423    -8128.0832     -6476.0577    
     92000   290.08352      1193.2353      21774.55       0.91483928    -8122.2784     -6558.6417    
     93000   304.8311       757.58224      21972.34       0.90660408    -8121.8459     -6478.7154    
     94000   302.36843      526.38844      21849.954      0.91168217    -8108.4976     -6478.6416    
     95000   300.4879      -1335.3946      21918.62       0.90882608    -8135.3366     -6515.6172    
     96000   297.97206      398.98451      21944.145      0.90776896    -8057.4717     -6451.3134    
     97000   301.87232     -944.68238      22135.635      0.89991608    -8071.5011     -6444.3193    
     98000   296.64857      247.25649      22236.057      0.89585187    -8158.6202     -6559.596     
     99000   298.54292     -1101.2777      22333.189      0.89195562    -8116.5034     -6507.268     
    100000   308.92707      934.22464      22021.91       0.9045634     -8060.3922     -6395.1832    
    101000   302.57296      1672.2711      22162.515      0.8988246     -8074.9467     -6443.9882    
    102000   301.31422     -890.16875      22198.294      0.89737586    -8156.6368     -6532.4633    
    103000   299.03937      482.91521      22119.444      0.90057479    -8092.7575     -6480.8461    
    104000   287.51196      480.99771      21794.852      0.91398708    -8137.9866     -6588.2115    
    105000   303.7142       633.81024      21846.848      0.91181178    -8106.8213     -6469.7112    
    106000   304.32081     -2377.4591      22221.357      0.89644451    -8126.089      -6485.7091    
    107000   312.33059     -210.5212       22047.496      0.90351365    -8106.9434     -6423.3884    
    108000   299.37985     -1372.411       21892.621      0.90990539    -8138.5587     -6524.812     
    109000   302.40088     -347.47463      22205.837      0.89707103    -8136.0736     -6506.0427    
    110000   296.4679       30.269708      22059.411      0.90302561    -8124.1424     -6526.0921    
    111000   296.06755      1480.2606      21702.3        0.91788491    -8097.3445     -6501.4521    
    112000   308.6332      -149.30016      21944.415      0.90775779    -8085.2535     -6421.6285    
    113000   293.75263      302.35619      22023.726      0.90448882    -8103.8592     -6520.4449    
    114000   299.35707     -1758.3372      21865.573      0.91103092    -8054.6269     -6441.003     
    115000   297.56878     -515.74114      22178.092      0.89819331    -8081.8279     -6477.8435    
    116000   307.33712      741.00175      22129.359      0.90017129    -8084.2824     -6427.6436    
    117000   295.43831     -999.86273      22150.702      0.89930392    -8117.5636     -6525.063     
    118000   298.1724      -2418.9401      22426.34       0.88825077    -8106.2544     -6499.0163    
    119000   305.7909       1235.0776      21913.032      0.90905782    -8091.0237     -6442.7196    
    120000   306.97219      1002.231       22167.99       0.89860261    -8080.4944     -6425.8228    
    121000   296.22943     -227.35006      21921.344      0.90871315    -8147.407      -6550.642     
    122000   302.92571     -238.88672      21932.748      0.90824066    -8109.1845     -6476.3246    
    123000   295.0505      -1737.4966      22002.706      0.9053529     -8066.4567     -6476.0465    
    124000   299.9367      -624.32012      21854.575      0.91148941    -8064.4502     -6447.7019    
    125000   300.01981     -1954.9018      22419.58       0.88851857    -8141.5485     -6524.3522    
    126000   299.76951      1383.622       21916.962      0.90889484    -8079.3644     -6463.5174    
    127000   299.90114     -990.2345       21910.058      0.90918125    -8149.2051     -6532.6485    
    128000   302.50821     -207.16904      22008.796      0.90510237    -8072.1036     -6441.4942    
    129000   302.97962      1901.8298      21934.819      0.90815491    -8105.9333     -6472.7828    
    130000   299.98665     -603.57596      21818.966      0.91297696    -8084.269      -6467.2515    
    131000   302.7257       1855.7186      21859.171      0.91129777    -8154.8783     -6523.0965    
    132000   304.95857      683.049        21910.513      0.90916237    -8156.7297     -6512.9121    
    133000   295.81138     -218.68704      21929.224      0.90838661    -8153.38       -6558.8685    
    134000   300.30794      142.2142       22074.147      0.90242281    -8072.1374     -6453.3881    
    135000   305.81182     -775.46317      22003.913      0.90530324    -8098.2117     -6449.7948    
    136000   297.95624     -650.44633      21915.548      0.90895349    -8088.5878     -6482.5149    
    137000   300.41338     -54.448586      22172.491      0.89842018    -8077.7559     -6458.4382    
    138000   301.50961      674.8268       21889.548      0.91003313    -8159.5776     -6534.3509    
    139000   293.37033     -250.34872      21906.953      0.90931008    -8108.0627     -6526.7091    
    140000   298.24627      748.97063      21905.258      0.90938045    -8143.9599     -6536.3236    
    141000   303.11178     -761.37264      21785.755      0.91436876    -8152.109      -6518.2462    
    142000   298.92968     -1076.635       21958.185      0.90718853    -8155.9415     -6544.6214    
    143000   302.86757      160.76587      21795.117      0.91397597    -8157.5802     -6525.0337    
    144000   295.48377      246.51578      21797.105      0.91389261    -8125.4065     -6532.6609    
    145000   293.09855      2163.1941      21706.565      0.91770454    -8119.4092     -6539.5207    
    146000   296.17021     -1812.6805      21808.862      0.91339995    -8102.5077     -6506.062     
    147000   293.08842     -755.60762      21798.911      0.91381689    -8130.4332     -6550.5992    
    148000   297.7409       2328.3352      21582.993      0.92295879    -8144.5761     -6539.6639    
    149000   296.5047      -175.60684      21752.428      0.91576967    -8142.2076     -6543.9588    
    150000   298.53206     -1321.5317      21777.61       0.91471072    -8116.4954     -6507.3185    
    151000   295.16295     -131.42371      21638.57       0.92058825    -8140.3622     -6549.3459    
    152000   288.66292     -234.60003      21694.625      0.91820963    -8150.2827     -6594.3035    
    153000   299.71282      619.07116      21598.746      0.92228563    -8126.1182     -6510.5767    
    154000   294.41235     -1189.9603      21772.896      0.91490876    -8152.1903     -6565.22      
    155000   306.7282       1367.904       21983.61       0.90613933    -8123.2498     -6469.8933    
    156000   300.82658      885.93882      22155.205      0.89912117    -8120.7546     -6499.2096    
    157000   307.52483      600.99535      22466.986      0.88664377    -8095.6613     -6438.0107    
    158000   305.01176     -2049.4722      22285.107      0.89388007    -8123.2565     -6479.1521    
    159000   293.59216      1756.1423      21799.536      0.91379073    -8139.4218     -6556.8725    
    160000   293.28842     -351.70612      22279.859      0.89409064    -8130.3956     -6549.4836    
    161000   304.89216      1291.501       22313.266      0.89275204    -8076.8622     -6433.4026    
    162000   295.70083     -707.77795      22381.316      0.89003762    -8147.9862     -6554.0706    
    163000   303.80389     -175.02091      22107.835      0.90104768    -8114.5036     -6476.9101    
    164000   304.98709      505.77833      22409.6        0.88891429    -8103.4317     -6459.4604    
    165000   309.48197      560.08591      21954.777      0.90732936    -8188.7503     -6520.5501    
    166000   304.08305     -34.40289       22167.689      0.8986148     -8112.5607     -6473.4624    
    167000   298.32681     -160.64292      21983.733      0.90613425    -8131.4582     -6523.3878    
    168000   311.08698      1012.9122      22125.183      0.90034119    -8116.2848     -6439.4332    
    169000   300.36364      569.9145       21729.534      0.91673448    -8125.6672     -6506.6176    
    170000   286.73891      794.01366      21826.792      0.91264963    -8100.7348     -6555.1266    
    171000   293.73583     -934.27516      21851.782      0.91160591    -8121.7866     -6538.4629    
    172000   310.3222      -472.52095      22251.92       0.89521326    -8134.5496     -6461.8204    
    173000   299.50786      233.1435       21821.268      0.91288065    -8111.7812     -6497.3445    
    174000   295.67637     -1025.0691      21901.694      0.90952845    -8134.5072     -6540.7234    
    175000   292.04112      325.58694      21943.898      0.90777919    -8137.9485     -6563.7598    
    176000   302.75095     -662.37267      22001.067      0.90542034    -8113.221      -6481.3031    
    177000   287.7237      -668.1205       21992.235      0.90578396    -8106.5226     -6555.606     
    178000   311.37262     -911.98679      22019.623      0.90465733    -8118.0992     -6439.7079    
    179000   308.91433      1249.4914      21824.024      0.91276538    -8167.2934     -6502.1531    
    180000   299.69954     -527.45105      21969.483      0.906722      -8033.9288     -6418.459     
    181000   300.6364       161.37538      22112.644      0.90085171    -8136.7506     -6516.2307    
    182000   301.74639     -1300.697       22533.489      0.88402702    -8068.505      -6442.002     
    183000   297.49381     -676.76236      22207.877      0.89698865    -8061.3348     -6457.7545    
    184000   298.90352     -1256.7367      22255.371      0.89507442    -8118.8509     -6507.6718    
    185000   308.88486      463.73044      22242.71       0.89558393    -8108.6684     -6443.6869    
    186000   295.8738       535.7772       22295.863      0.89344888    -8122.9794     -6528.1314    
    187000   294.85772     -623.53248      22210.873      0.89686766    -8099.0651     -6509.6941    
    188000   305.96723      417.59446      22186.714      0.89784425    -8079.6607     -6430.4061    
    189000   295.34132      1898.4739      21743.776      0.91613403    -8100.8616     -6508.8838    
    190000   305.40074      514.92839      22216.604      0.89663631    -8134.1622     -6487.9611    
    191000   297.59131     -87.479933      22118.467      0.90061455    -8115.0996     -6510.9937    
    192000   293.10267      198.95089      22042.372      0.90372366    -8146.7466     -6566.8358    
    193000   298.82415     -1157.1738      22250.16       0.89528404    -8094.5136     -6483.7624    
    194000   290.41105     -1149.9407      22424.98       0.88830461    -8078.8766     -6513.4744    
    195000   297.54515      330.22419      22177.429      0.89822013    -8103.3427     -6499.4856    
    196000   300.40082      660.83849      22029.929      0.9042341     -8101.2401     -6481.9902    
    197000   296.58807      1839.6572      21726.631      0.91685699    -8156.6833     -6557.9851    
    198000   298.47989     -808.85657      22231.288      0.89604405    -8105.4448     -6496.5492    
    199000   294.47521      657.84786      22356.236      0.89103609    -8066.2876     -6478.9784    
    200000   297.52898      973.12691      21836.848      0.91222934    -8084.8214     -6481.0515    
Loop time of 8272.38 on 2 procs for 200000 steps with 2301 atoms

Performance: 2.089 ns/day, 11.489 hours/ns, 24.177 timesteps/s, 55.631 katom-step/s
98.0% CPU use with 2 MPI tasks x 1 OpenMP threads

MPI task timing breakdown:
Section |  min time  |  avg time  |  max time  |%varavg| %total
---------------------------------------------------------------
Pair    | 4568.3     | 4610.7     | 4653.1     |  62.5 | 55.74
Bond    | 442.65     | 442.98     | 443.32     |   1.6 |  5.35
Kspace  | 1813.8     | 1856.5     | 1899.1     |  99.1 | 22.44
Neigh   | 309.77     | 309.9      | 310.03     |   0.7 |  3.75
Comm    | 327.07     | 328.27     | 329.46     |   6.6 |  3.97
Output  | 26.314     | 29.2       | 32.085     |  53.4 |  0.35
Modify  | 591.37     | 591.51     | 591.64     |   0.5 |  7.15
Other   |            | 103.4      |            |       |  1.25

Nlocal:         1150.5 ave        1167 max        1134 min
Histogram: 1 0 0 0 0 0 0 0 0 1
Nghost:           9621 ave        9781 max        9461 min
Histogram: 1 0 0 0 0 0 0 0 0 1
Neighs:         439063 ave      440615 max      437511 min
Histogram: 1 0 0 0 0 0 0 0 0 1

Total # of neighbors = 878126
Ave neighs/atom = 381.62799
Ave special neighs/atom = 9.8974359
Neighbor list builds = 6039
Dangerous builds = 0

write_data data.final.lmp
System init for write_data ...
PPPM initialization ...
  using 12-bit tables for long-range coulomb
  G vector (1/distance) = 0.28194502
  grid = 18 18 18
  stencil order = 5
  estimated absolute RMS force accuracy = 0.002444706
  estimated relative force accuracy = 7.3621595e-06
  using double precision FFTW3
  3d grid and FFT values/proc = 10000 2916
Generated 66 of 66 mixed pair_coeff terms from geometric mixing rule
print "RENEU >>> finished. trajectory = dump.lammpstrj, density log = density.dat"
RENEU >>> finished. trajectory = dump.lammpstrj, density log = density.dat
Total wall time: 3:42:32
