created by fftool

1522 atoms
1018 bonds
527 angles
21 dihedrals
7 atom types
4 bond types
5 angle types
2 dihedral types
0.000000 26.320000 xlo xhi
0.000000 26.320000 ylo yhi
0.000000 26.320000 zlo zhi

Masses

   1  144.242  # Nd
   2   12.011  # CO2
   3   12.011  # CTA
   4   15.999  # O2
   5    1.008  # HC
   6    1.008  # Hw
   7   15.999  # Ow

Bond Coeffs

   1   317.041109     1.522000  # CT-CO
   2   655.951243     1.250000  # CO-O2
   3   339.985660     1.090000  # HC-CT
   4   517.630258     1.000000  # Ow-Hw

Angle Coeffs

   1    70.004780   117.000000  # CT-CO-O2
   2    79.995220   126.000000  # O2-CO-O2
   3    35.002390   109.500000  # HC-CT-CO
   4    32.994742   107.800000  # HC-CT-HC
   5    37.950526   109.470000  # Hw-Ow-Hw

Dihedral Coeffs

   1     0.000000     0.000000     0.000000     0.000000  # HC-CT-CO-O2
   2     0.000000    21.000000     0.000000     0.000000  # CT-O2-CO-O2

Atoms

      1       1    1   3.000000  1.500000e+00  1.500000e+00  1.500000e+00  # Nd Nd3+
      2       2    2   0.700000  3.036493e+00  1.879336e+01  1.756914e+01  # CO2 acetate
      3       2    3  -0.280000  2.136169e+00  1.902572e+01  1.636798e+01  # CTA acetate
      4       2    4  -0.800000  2.921927e+00  1.766277e+01  1.811804e+01  # O2 acetate
      5       2    4  -0.800000  3.786591e+00  1.976557e+01  1.786465e+01  # O2 acetate
      6       2    5   0.060000  1.512451e+00  1.815073e+01  1.616256e+01  # HC acetate
      7       2    5   0.060000  1.480732e+00  1.988125e+01  1.655589e+01  # HC acetate
      8       2    5   0.060000  2.744936e+00  1.923206e+01  1.548273e+01  # HC acetate
      9       3    2   0.700000  2.362119e+01  2.049545e+01  1.604830e+01  # CO2 acetate
     10       3    3  -0.280000  2.327402e+01  1.910268e+01  1.555129e+01  # CTA acetate
     11       3    4  -0.800000  2.264773e+01  2.117113e+01  1.648244e+01  # O2 acetate
     12       3    4  -0.800000  2.484425e+01  2.079871e+01  1.596259e+01  # O2 acetate
     13       3    5   0.060000  2.220370e+01  1.889950e+01  1.565110e+01  # HC acetate
     14       3    5   0.060000  2.354739e+01  1.900663e+01  1.449636e+01  # HC acetate
     15       3    5   0.060000  2.382356e+01  1.835469e+01  1.613038e+01  # HC acetate
     16       4    2   0.700000  1.993562e+01  1.196585e+01  1.509452e+01  # CO2 acetate
     17       4    3  -0.280000  2.000312e+01  1.230380e+01  1.657391e+01  # CTA acetate
     18       4    4  -0.800000  2.024692e+01  1.077938e+01  1.479783e+01  # O2 acetate
     19       4    4  -0.800000  1.957516e+01  1.291976e+01  1.434933e+01  # O2 acetate
     20       4    5   0.060000  2.032024e+01  1.144004e+01  1.716568e+01  # HC acetate
     21       4    5   0.060000  2.071807e+01  1.311574e+01  1.673650e+01  # HC acetate
     22       4    5   0.060000  1.901771e+01  1.262194e+01  1.692688e+01  # HC acetate
     23       5    6   0.423800  1.664406e+01  6.741591e+00  7.723673e+00  # Hw SPCE
     24       5    7  -0.847600  1.608045e+01  7.510167e+00  7.420954e+00  # Ow SPCE
     25       5    6   0.423800  1.594211e+01  8.142591e+00  8.183123e+00  # Hw SPCE
     26       6    6   0.423800  8.473891e+00  2.475872e+01  2.252074e+01  # Hw SPCE
     27       6    7  -0.847600  7.734557e+00  2.482955e+01  2.319034e+01  # Ow SPCE
     28       6    6   0.423800  7.597889e+00  2.394237e+01  2.363106e+01  # Hw SPCE
     29       7    6   0.423800  1.906449e+01  1.214373e+01  4.228897e+00  # Hw SPCE
     30       7    7  -0.847600  1.881413e+01  1.216511e+01  5.196814e+00  # Ow SPCE
     31       7    6   0.423800  1.804500e+01  1.154613e+01  5.355902e+00  # Hw SPCE
     32       8    6   0.423800  1.235153e+01  2.037583e+01  2.029109e+01  # Hw SPCE
     33       8    7  -0.847600  1.331793e+01  2.059909e+01  2.016373e+01  # Ow SPCE
     34       8    6   0.423800  1.386774e+01  1.976997e+01  2.026509e+01  # Hw SPCE
     35       9    6   0.423800  1.263167e+01  9.051679e+00  2.294539e+01  # Hw SPCE
     36       9    7  -0.847600  1.360696e+01  8.845490e+00  2.286601e+01  # Ow SPCE
     37       9    6   0.423800  1.374315e+01  7.855831e+00  2.291103e+01  # Hw SPCE
     38      10    6   0.423800  1.073064e+01  2.057480e+01  1.291157e+01  # Hw SPCE
     39      10    7  -0.847600  9.839165e+00  2.062871e+01  1.336142e+01  # Ow SPCE
     40      10    6   0.423800  9.525935e+00  1.970747e+01  1.359204e+01  # Hw SPCE
     41      11    6   0.423800  1.198074e+01  8.816071e+00  1.954106e+01  # Hw SPCE
     42      11    7  -0.847600  1.101837e+01  8.878927e+00  1.927667e+01  # Ow SPCE
     43      11    6   0.423800  1.044141e+01  8.677716e+00  2.006827e+01  # Hw SPCE
     44      12    6   0.423800  1.556772e+01  3.760578e+00  4.355519e+00  # Hw SPCE
     45      12    7  -0.847600  1.642594e+01  3.470999e+00  4.779315e+00  # Ow SPCE
     46      12    6   0.423800  1.676501e+01  4.198244e+00  5.376095e+00  # Hw SPCE
     47      13    6   0.423800  3.498889e+00  1.217752e+01  1.898895e+01  # Hw SPCE
     48      13    7  -0.847600  3.760445e+00  1.121585e+01  1.890661e+01  # Ow SPCE
     49      13    6   0.423800  3.250284e+00  1.067336e+01  1.957402e+01  # Hw SPCE
     50      14    6   0.423800  2.259144e+01  1.401080e+01  1.746079e+01  # Hw SPCE
     51      14    7  -0.847600  2.306999e+01  1.313686e+01  1.737585e+01  # Ow SPCE
     52      14    6   0.423800  2.340402e+01  1.285107e+01  1.827404e+01  # Hw SPCE
     53      15    6   0.423800  1.113115e+01  1.715004e+01  9.951150e+00  # Hw SPCE
     54      15    7  -0.847600  1.029403e+01  1.769637e+01  9.923878e+00  # Ow SPCE
     55      15    6   0.423800  9.504454e+00  1.709148e+01  9.820584e+00  # Hw SPCE
     56      16    6   0.423800  1.590306e+01  9.777617e+00  1.815555e+00  # Hw SPCE
     57      16    7  -0.847600  1.523101e+01  1.045799e+01  2.107853e+00  # Ow SPCE
     58      16    6   0.423800  1.566595e+01  1.135721e+01  2.155083e+00  # Hw SPCE
     59      17    6   0.423800  8.672541e+00  2.267249e+01  2.550189e+00  # Hw SPCE
     60      17    7  -0.847600  9.670515e+00  2.268859e+01  2.488644e+00  # Ow SPCE
     61      17    6   0.423800  9.971018e+00  2.359170e+01  2.181920e+00  # Hw SPCE
     62      18    6   0.423800  2.419790e+01  4.084846e+00  9.055477e+00  # Hw SPCE
     63      18    7  -0.847600  2.481998e+01  3.329817e+00  9.262714e+00  # Ow SPCE
     64      18    6   0.423800  2.428925e+01  2.508609e+00  9.472323e+00  # Hw SPCE
     65      19    6   0.423800  2.153231e+01  1.172988e+01  1.062173e+01  # Hw SPCE
     66      19    7  -0.847600  2.175284e+01  1.140985e+01  1.154311e+01  # Ow SPCE
     67      19    6   0.423800  2.113988e+01  1.184488e+01  1.220268e+01  # Hw SPCE
     68      20    6   0.423800  1.293092e+01  2.234372e+01  1.471153e+01  # Hw SPCE
     69      20    7  -0.847600  1.214443e+01  2.214603e+01  1.529665e+01  # Ow SPCE
     70      20    6   0.423800  1.147389e+01  2.160991e+01  1.478387e+01  # Hw SPCE
     71      21    6   0.423800  4.544145e+00  1.676644e+01  1.453253e+01  # Hw SPCE
     72      21    7  -0.847600  4.735521e+00  1.658641e+01  1.549739e+01  # Ow SPCE
     73      21    6   0.423800  4.311523e+00  1.572135e+01  1.576553e+01  # Hw SPCE
     74      22    6   0.423800  1.829594e+01  2.551320e+00  5.484555e+00  # Hw SPCE
     75      22    7  -0.847600  1.915489e+01  2.464942e+00  5.989274e+00  # Ow SPCE
     76      22    6   0.423800  1.991853e+01  2.432187e+00  5.344465e+00  # Hw SPCE
     77      23    6   0.423800  1.570620e+01  1.040566e+01  2.280776e+01  # Hw SPCE
     78      23    7  -0.847600  1.509499e+01  1.118194e+01  2.265341e+01  # Ow SPCE
     79      23    6   0.423800  1.561956e+01  1.203235e+01  2.269374e+01  # Hw SPCE
     80      24    6   0.423800  1.322844e+01  9.978349e+00  2.102003e+01  # Hw SPCE
     81      24    7  -0.847600  1.266574e+01  1.073185e+01  2.068001e+01  # Ow SPCE
     82      24    6   0.423800  1.170315e+01  1.054307e+01  2.087439e+01  # Hw SPCE
     83      25    6   0.423800  5.350581e+00  2.467478e+01  1.805111e+01  # Hw SPCE
     84      25    7  -0.847600  5.671057e+00  2.387369e+01  1.855663e+01  # Ow SPCE
     85      25    6   0.423800  5.275873e+00  2.304690e+01  1.815632e+01  # Hw SPCE
     86      26    6   0.423800  4.627799e+00  1.894647e+01  4.490549e+00  # Hw SPCE
     87      26    7  -0.847600  4.281847e+00  1.815693e+01  3.983650e+00  # Ow SPCE
     88      26    6   0.423800  3.809922e+00  1.753828e+01  4.611786e+00  # Hw SPCE
     89      27    6   0.423800  6.519199e+00  7.792329e+00  1.599239e+01  # Hw SPCE
     90      27    7  -0.847600  7.438060e+00  7.613279e+00  1.564077e+01  # Ow SPCE
     91      27    6   0.423800  7.476848e+00  7.854879e+00  1.467117e+01  # Hw SPCE
     92      28    6   0.423800  4.438338e+00  2.463446e+01  9.484375e+00  # Hw SPCE
     93      28    7  -0.847600  3.637186e+00  2.404055e+01  9.557995e+00  # Ow SPCE
     94      28    6   0.423800  3.539252e+00  2.350728e+01  8.717734e+00  # Hw SPCE
     95      29    6   0.423800  3.115884e+00  3.443595e+00  2.466115e+01  # Hw SPCE
     96      29    7  -0.847600  2.130846e+00  3.424432e+00  2.448988e+01  # Ow SPCE
     97      29    6   0.423800  1.718558e+00  4.273584e+00  2.481997e+01  # Hw SPCE
     98      30    6   0.423800  1.243483e+01  1.250407e+01  1.297690e+01  # Hw SPCE
     99      30    7  -0.847600  1.267643e+01  1.153369e+01  1.297697e+01  # Ow SPCE
    100      30    6   0.423800  1.367185e+01  1.143804e+01  1.297886e+01  # Hw SPCE
    101      31    6   0.423800  1.423092e+01  1.468682e+01  1.760189e+01  # Hw SPCE
    102      31    7  -0.847600  1.323610e+01  1.459983e+01  1.765460e+01  # Ow SPCE
    103      31    6   0.423800  1.299182e+01  1.363838e+01  1.778085e+01  # Hw SPCE
    104      32    6   0.423800  1.521730e+01  2.387253e+01  5.408371e+00  # Hw SPCE
    105      32    7  -0.847600  1.531392e+01  2.423648e+01  4.481977e+00  # Ow SPCE
    106      32    6   0.423800  1.612472e+01  2.482000e+01  4.435993e+00  # Hw SPCE
    107      33    6   0.423800  6.427486e+00  1.308399e+01  1.304038e+01  # Hw SPCE
    108      33    7  -0.847600  7.204547e+00  1.371335e+01  1.303154e+01  # Ow SPCE
    109      33    6   0.423800  7.968049e+00  1.330733e+01  1.353375e+01  # Hw SPCE
    110      34    6   0.423800  2.569925e+00  2.211962e+01  1.012235e+01  # Hw SPCE
    111      34    7  -0.847600  1.679204e+00  2.190427e+01  9.722047e+00  # Ow SPCE
    112      34    6   0.423800  1.786600e+00  2.118171e+01  9.039140e+00  # Hw SPCE
    113      35    6   0.423800  1.753626e+01  3.781948e+00  1.879416e+01  # Hw SPCE
    114      35    7  -0.847600  1.811257e+01  4.586472e+00  1.865058e+01  # Ow SPCE
    115      35    6   0.423800  1.871791e+01  4.427944e+00  1.787056e+01  # Hw SPCE
    116      36    6   0.423800  1.000788e+01  6.652624e+00  1.869979e+01  # Hw SPCE
    117      36    7  -0.847600  1.087165e+01  6.684331e+00  1.920268e+01  # Ow SPCE
    118      36    6   0.423800  1.163368e+01  6.703248e+00  1.855542e+01  # Hw SPCE
    119      37    6   0.423800  1.012878e+01  1.867341e+01  1.683879e+01  # Hw SPCE
    120      37    7  -0.847600  9.478489e+00  1.898450e+01  1.753186e+01  # Ow SPCE
    121      37    6   0.423800  9.490977e+00  1.998344e+01  1.757611e+01  # Hw SPCE
    122      38    6   0.423800  1.100414e+01  3.119620e+00  1.218169e+01  # Hw SPCE
    123      38    7  -0.847600  1.139901e+01  2.255481e+00  1.186970e+01  # Ow SPCE
    124      38    6   0.423800  1.079860e+01  1.500360e+00  1.213294e+01  # Hw SPCE
    125      39    6   0.423800  9.871710e+00  4.394715e+00  1.483263e+01  # Hw SPCE
    126      39    7  -0.847600  8.895847e+00  4.289187e+00  1.464144e+01  # Ow SPCE
    127      39    6   0.423800  8.447256e+00  5.181297e+00  1.469535e+01  # Hw SPCE
    128      40    6   0.423800  1.351690e+01  1.470130e+01  1.500378e+00  # Hw SPCE
    129      40    7  -0.847600  1.409676e+01  1.546052e+01  1.795934e+00  # Ow SPCE
    130      40    6   0.423800  1.352191e+01  1.622115e+01  2.097596e+00  # Hw SPCE
    131      41    6   0.423800  8.781636e+00  7.582529e+00  2.126172e+01  # Hw SPCE
    132      41    7  -0.847600  9.343838e+00  6.909762e+00  2.078077e+01  # Ow SPCE
    133      41    6   0.423800  8.764035e+00  6.163388e+00  2.045404e+01  # Hw SPCE
    134      42    6   0.423800  1.063041e+01  4.681816e+00  2.482185e+01  # Hw SPCE
    135      42    7  -0.847600  1.047963e+01  5.670370e+00  2.481660e+01  # Ow SPCE
    136      42    6   0.423800  1.136141e+01  6.142029e+00  2.481527e+01  # Hw SPCE
    137      43    6   0.423800  1.736979e+01  2.028989e+01  2.106524e+01  # Hw SPCE
    138      43    7  -0.847600  1.682706e+01  1.949551e+01  2.133802e+01  # Ow SPCE
    139      43    6   0.423800  1.597778e+01  1.947502e+01  2.081048e+01  # Hw SPCE
    140      44    6   0.423800  4.201649e+00  4.732468e+00  3.229669e+00  # Hw SPCE
    141      44    7  -0.847600  4.205166e+00  3.932690e+00  3.829954e+00  # Ow SPCE
    142      44    6   0.423800  5.144337e+00  3.725857e+00  4.104139e+00  # Hw SPCE
    143      45    6   0.423800  1.728912e+01  1.931510e+01  9.397161e+00  # Hw SPCE
    144      45    7  -0.847600  1.816878e+01  1.883952e+01  9.402044e+00  # Ow SPCE
    145      45    6   0.423800  1.801359e+01  1.785165e+01  9.406074e+00  # Hw SPCE
    146      46    6   0.423800  8.811431e+00  1.389361e+01  2.318142e+01  # Hw SPCE
    147      46    7  -0.847600  8.131752e+00  1.461473e+01  2.304720e+01  # Ow SPCE
    148      46    6   0.423800  8.571269e+00  1.541544e+01  2.264014e+01  # Hw SPCE
    149      47    6   0.423800  6.416338e+00  2.206760e+01  2.219334e+00  # Hw SPCE
    150      47    7  -0.847600  6.520917e+00  2.266555e+01  3.014021e+00  # Ow SPCE
    151      47    6   0.423800  5.660403e+00  2.269780e+01  3.522425e+00  # Hw SPCE
    152      48    6   0.423800  1.355925e+01  2.355979e+01  1.298910e+01  # Hw SPCE
    153      48    7  -0.847600  1.312734e+01  2.313585e+01  1.219303e+01  # Ow SPCE
    154      48    6   0.423800  1.252721e+01  2.239493e+01  1.249450e+01  # Hw SPCE
    155      49    6   0.423800  1.699649e+00  9.139812e+00  1.928457e+01  # Hw SPCE
    156      49    7  -0.847600  1.695629e+00  8.966629e+00  1.829968e+01  # Ow SPCE
    157      49    6   0.423800  2.047412e+00  8.047681e+00  1.812141e+01  # Hw SPCE
    158      50    6   0.423800  5.774564e+00  2.262788e+01  2.155380e+01  # Hw SPCE
    159      50    7  -0.847600  6.405269e+00  2.332947e+01  2.188544e+01  # Ow SPCE
    160      50    6   0.423800  7.339301e+00  2.309029e+01  2.162015e+01  # Hw SPCE
    161      51    6   0.423800  9.597172e+00  1.562267e+01  1.954309e+01  # Hw SPCE
    162      51    7  -0.847600  9.308813e+00  1.529857e+01  2.044410e+01  # Ow SPCE
    163      51    6   0.423800  8.312822e+00  1.521134e+01  2.046389e+01  # Hw SPCE
    164      52    6   0.423800  2.680738e+00  7.025997e+00  1.106893e+01  # Hw SPCE
    165      52    7  -0.847600  2.009723e+00  6.428808e+00  1.062949e+01  # Ow SPCE
    166      52    6   0.423800  1.489909e+00  5.939475e+00  1.132974e+01  # Hw SPCE
    167      53    6   0.423800  1.641422e+01  2.456349e+01  1.397326e+01  # Hw SPCE
    168      53    7  -0.847600  1.553346e+01  2.413621e+01  1.376909e+01  # Ow SPCE
    169      53    6   0.423800  1.565003e+01  2.314488e+01  1.370836e+01  # Hw SPCE
    170      54    6   0.423800  1.890189e+01  8.638674e+00  2.178470e+01  # Hw SPCE
    171      54    7  -0.847600  1.879221e+01  8.308081e+00  2.084732e+01  # Ow SPCE
    172      54    6   0.423800  1.968706e+01  8.065592e+00  2.047255e+01  # Hw SPCE
    173      55    6   0.423800  4.368205e+00  1.498915e+01  9.390115e+00  # Hw SPCE
    174      55    7  -0.847600  4.328054e+00  1.399686e+01  9.507315e+00  # Ow SPCE
    175      55    6   0.423800  3.373730e+00  1.369828e+01  9.496415e+00  # Hw SPCE
    176      56    6   0.423800  2.811509e+00  1.698840e+01  2.321282e+01  # Hw SPCE
    177      56    7  -0.847600  1.839852e+00  1.688500e+01  2.342540e+01  # Ow SPCE
    178      56    6   0.423800  1.657891e+00  1.594164e+01  2.370279e+01  # Hw SPCE
    179      57    6   0.423800  7.895149e+00  2.352815e+01  1.703084e+01  # Hw SPCE
    180      57    7  -0.847600  7.597315e+00  2.436152e+01  1.749645e+01  # Ow SPCE
    181      57    6   0.423800  8.389607e+00  2.481920e+01  1.789993e+01  # Hw SPCE
    182      58    6   0.423800  3.612991e+00  1.156510e+01  7.980133e+00  # Hw SPCE
    183      58    7  -0.847600  2.769895e+00  1.129204e+01  7.516853e+00  # Ow SPCE
    184      58    6   0.423800  2.556916e+00  1.195175e+01  6.796141e+00  # Hw SPCE
    185      59    6   0.423800  1.638277e+01  2.106492e+01  1.430837e+01  # Hw SPCE
    186      59    7  -0.847600  1.720284e+01  2.124679e+01  1.376577e+01  # Ow SPCE
    187      59    6   0.423800  1.774737e+01  2.195671e+01  1.421242e+01  # Hw SPCE
    188      60    6   0.423800  6.761969e+00  4.769005e+00  1.500007e+00  # Hw SPCE
    189      60    7  -0.847600  7.651264e+00  5.226209e+00  1.510956e+00  # Ow SPCE
    190      60    6   0.423800  8.378413e+00  4.540242e+00  1.537463e+00  # Hw SPCE
    191      61    6   0.423800  8.826347e+00  1.587919e+01  2.477443e+01  # Hw SPCE
    192      61    7  -0.847600  9.824641e+00  1.589434e+01  2.483082e+01  # Ow SPCE
    193      61    6   0.423800  1.020814e+01  1.532168e+01  2.410625e+01  # Hw SPCE
    194      62    6   0.423800  1.152003e+01  1.705041e+01  7.788245e+00  # Hw SPCE
    195      62    7  -0.847600  1.080907e+01  1.634921e+01  7.734818e+00  # Ow SPCE
    196      62    6   0.423800  1.016516e+01  1.658226e+01  7.006073e+00  # Hw SPCE
    197      63    6   0.423800  1.356996e+01  1.378988e+01  1.158574e+01  # Hw SPCE
    198      63    7  -0.847600  1.437443e+01  1.434235e+01  1.136755e+01  # Ow SPCE
    199      63    6   0.423800  1.514968e+01  1.374076e+01  1.117502e+01  # Hw SPCE
    200      64    6   0.423800  3.727134e+00  9.213821e+00  1.073774e+01  # Hw SPCE
    201      64    7  -0.847600  4.542450e+00  8.861170e+00  1.027850e+01  # Ow SPCE
    202      64    6   0.423800  4.518439e+00  7.861459e+00  1.027776e+01  # Hw SPCE
    203      65    6   0.423800  1.016816e+01  1.353384e+01  1.716317e+01  # Hw SPCE
    204      65    7  -0.847600  1.084451e+01  1.315464e+01  1.779464e+01  # Ow SPCE
    205      65    6   0.423800  1.094619e+01  1.376508e+01  1.858015e+01  # Hw SPCE
    206      66    6   0.423800  1.078737e+01  1.557748e+01  1.662533e+01  # Hw SPCE
    207      66    7  -0.847600  9.972978e+00  1.572657e+01  1.718617e+01  # Ow SPCE
    208      66    6   0.423800  1.003313e+01  1.662057e+01  1.763017e+01  # Hw SPCE
    209      67    6   0.423800  2.357285e+01  2.403205e+01  2.184761e+01  # Hw SPCE
    210      67    7  -0.847600  2.371439e+01  2.308682e+01  2.214171e+01  # Ow SPCE
    211      67    6   0.423800  2.370944e+01  2.304431e+01  2.314080e+01  # Hw SPCE
    212      68    6   0.423800  2.148063e+01  2.681161e+00  1.402567e+01  # Hw SPCE
    213      68    7  -0.847600  2.242059e+01  2.590517e+00  1.369664e+01  # Ow SPCE
    214      68    6   0.423800  2.292018e+01  3.437696e+00  1.387745e+01  # Hw SPCE
    215      69    6   0.423800  1.581815e+01  9.632648e+00  1.739951e+01  # Hw SPCE
    216      69    7  -0.847600  1.583989e+01  9.941813e+00  1.835027e+01  # Ow SPCE
    217      69    6   0.423800  1.676489e+01  1.024315e+01  1.858170e+01  # Hw SPCE
    218      70    6   0.423800  1.948080e+01  2.437403e+01  1.400979e+01  # Hw SPCE
    219      70    7  -0.847600  1.932778e+01  2.390169e+01  1.314176e+01  # Ow SPCE
    220      70    6   0.423800  1.948286e+01  2.292136e+01  1.326388e+01  # Hw SPCE
    221      71    6   0.423800  2.294176e+01  1.324050e+01  1.132623e+01  # Hw SPCE
    222      71    7  -0.847600  2.265192e+01  1.410331e+01  1.091203e+01  # Ow SPCE
    223      71    6   0.423800  2.258801e+01  1.399206e+01  9.920295e+00  # Hw SPCE
    224      72    6   0.423800  8.522545e+00  1.615235e+01  1.558548e+01  # Hw SPCE
    225      72    7  -0.847600  8.640935e+00  1.516433e+01  1.548655e+01  # Ow SPCE
    226      72    6   0.423800  9.098317e+00  1.496864e+01  1.461908e+01  # Hw SPCE
    227      73    6   0.423800  9.902122e+00  8.641578e+00  1.739521e+01  # Hw SPCE
    228      73    7  -0.847600  9.803995e+00  9.636547e+00  1.741544e+01  # Ow SPCE
    229      73    6   0.423800  1.070920e+01  1.006012e+01  1.744980e+01  # Hw SPCE
    230      74    6   0.423800  2.083024e+01  2.028937e+01  2.482278e+01  # Hw SPCE
    231      74    7  -0.847600  1.986260e+01  2.003963e+01  2.478665e+01  # Ow SPCE
    232      74    6   0.423800  1.977156e+01  1.910900e+01  2.443220e+01  # Hw SPCE
    233      75    6   0.423800  1.348163e+01  6.978843e+00  5.569593e+00  # Hw SPCE
    234      75    7  -0.847600  1.424820e+01  7.612205e+00  5.675479e+00  # Ow SPCE
    235      75    6   0.423800  1.392852e+01  8.549075e+00  5.533778e+00  # Hw SPCE
    236      76    6   0.423800  1.789633e+01  1.591158e+01  1.576305e+01  # Hw SPCE
    237      76    7  -0.847600  1.801612e+01  1.492939e+01  1.590781e+01  # Ow SPCE
    238      76    6   0.423800  1.881772e+01  1.477284e+01  1.648481e+01  # Hw SPCE
    239      77    6   0.423800  1.211617e+01  1.857573e+01  2.478078e+01  # Hw SPCE
    240      77    7  -0.847600  1.189326e+01  1.817262e+01  2.389319e+01  # Ow SPCE
    241      77    6   0.423800  1.247433e+01  1.737444e+01  2.373425e+01  # Hw SPCE
    242      78    6   0.423800  2.354445e+00  8.680118e+00  1.248307e+01  # Hw SPCE
    243      78    7  -0.847600  1.763712e+00  8.980489e+00  1.173420e+01  # Ow SPCE
    244      78    6   0.423800  1.516194e+00  9.939922e+00  1.186919e+01  # Hw SPCE
    245      79    6   0.423800  2.201335e+01  1.327946e+01  4.385600e+00  # Hw SPCE
    246      79    7  -0.847600  2.102404e+01  1.313514e+01  4.364664e+00  # Ow SPCE
    247      79    6   0.423800  2.055697e+01  1.401571e+01  4.444953e+00  # Hw SPCE
    248      80    6   0.423800  1.441205e+01  5.635572e+00  1.527286e+00  # Hw SPCE
    249      80    7  -0.847600  1.390041e+01  4.776807e+00  1.500000e+00  # Ow SPCE
    250      80    6   0.423800  1.293780e+01  4.955725e+00  1.703407e+00  # Hw SPCE
    251      81    6   0.423800  5.088676e+00  6.524450e+00  6.335354e+00  # Hw SPCE
    252      81    7  -0.847600  5.952713e+00  6.140387e+00  6.660830e+00  # Ow SPCE
    253      81    6   0.423800  5.957373e+00  5.152354e+00  6.506657e+00  # Hw SPCE
    254      82    6   0.423800  9.536855e+00  1.100203e+01  2.802259e+00  # Hw SPCE
    255      82    7  -0.847600  8.932439e+00  1.027706e+01  2.471968e+00  # Ow SPCE
    256      82    6   0.423800  8.578266e+00  1.052357e+01  1.569862e+00  # Hw SPCE
    257      83    6   0.423800  2.088922e+01  2.461667e+01  1.922121e+01  # Hw SPCE
    258      83    7  -0.847600  2.121726e+01  2.384345e+01  1.976391e+01  # Ow SPCE
    259      83    6   0.423800  2.208666e+01  2.408412e+01  2.019545e+01  # Hw SPCE
    260      84    6   0.423800  1.936988e+00  6.353739e+00  5.006750e+00  # Hw SPCE
    261      84    7  -0.847600  2.670293e+00  5.691687e+00  5.161511e+00  # Ow SPCE
    262      84    6   0.423800  3.537358e+00  6.073925e+00  4.841995e+00  # Hw SPCE
    263      85    6   0.423800  2.140788e+01  4.575837e+00  2.408006e+01  # Hw SPCE
    264      85    7  -0.847600  2.041863e+01  4.453833e+00  2.416072e+01  # Ow SPCE
    265      85    6   0.423800  2.020371e+01  3.477397e+00  2.418027e+01  # Hw SPCE
    266      86    6   0.423800  2.222192e+01  1.117159e+01  7.531747e+00  # Hw SPCE
    267      86    7  -0.847600  2.305518e+01  1.064343e+01  7.368238e+00  # Ow SPCE
    268      86    6   0.423800  2.281690e+01  9.684996e+00  7.211333e+00  # Hw SPCE
    269      87    6   0.423800  1.452335e+01  2.262911e+01  2.335386e+01  # Hw SPCE
    270      87    7  -0.847600  1.414376e+01  2.180268e+01  2.376972e+01  # Ow SPCE
    271      87    6   0.423800  1.431841e+01  2.181457e+01  2.475427e+01  # Hw SPCE
    272      88    6   0.423800  1.558495e+00  3.096622e+00  1.681760e+01  # Hw SPCE
    273      88    7  -0.847600  1.481966e+00  3.499411e+00  1.590552e+01  # Ow SPCE
    274      88    6   0.423800  1.495414e+00  2.773155e+00  1.521822e+01  # Hw SPCE
    275      89    6   0.423800  5.556755e+00  2.269347e+01  1.390521e+01  # Hw SPCE
    276      89    7  -0.847600  5.442299e+00  2.170327e+01  1.398519e+01  # Ow SPCE
    277      89    6   0.423800  6.314326e+00  2.128660e+01  1.424202e+01  # Hw SPCE
    278      90    6   0.423800  6.117017e+00  1.375304e+01  1.080966e+01  # Hw SPCE
    279      90    7  -0.847600  6.777788e+00  1.450000e+01  1.073595e+01  # Ow SPCE
    280      90    6   0.423800  6.308943e+00  1.533160e+01  1.043823e+01  # Hw SPCE
    281      91    6   0.423800  1.613908e+01  7.361099e+00  1.036885e+01  # Hw SPCE
    282      91    7  -0.847600  1.610729e+01  6.510308e+00  9.844303e+00  # Ow SPCE
    283      91    6   0.423800  1.522419e+01  6.437278e+00  9.380842e+00  # Hw SPCE
    284      92    6   0.423800  1.269543e+01  2.330986e+01  2.480890e+01  # Hw SPCE
    285      92    7  -0.847600  1.352739e+01  2.386466e+01  2.480323e+01  # Ow SPCE
    286      92    6   0.423800  1.328164e+01  2.483399e+01  2.480687e+01  # Hw SPCE
    287      93    6   0.423800  2.247620e+01  9.977267e+00  9.381745e+00  # Hw SPCE
    288      93    7  -0.847600  2.228532e+01  9.008675e+00  9.541097e+00  # Ow SPCE
    289      93    6   0.423800  2.165083e+01  8.674897e+00  8.843944e+00  # Hw SPCE
    290      94    6   0.423800  2.073805e+01  3.574249e+00  7.040061e+00  # Hw SPCE
    291      94    7  -0.847600  2.138007e+01  3.583141e+00  7.806704e+00  # Ow SPCE
    292      94    6   0.423800  2.121577e+01  4.393129e+00  8.369666e+00  # Hw SPCE
    293      95    6   0.423800  6.834181e+00  1.262430e+01  8.904439e+00  # Hw SPCE
    294      95    7  -0.847600  7.528955e+00  1.328513e+01  8.620539e+00  # Ow SPCE
    295      95    6   0.423800  7.123300e+00  1.419821e+01  8.579108e+00  # Hw SPCE
    296      96    6   0.423800  2.459331e+01  6.335792e+00  1.600158e+01  # Hw SPCE
    297      96    7  -0.847600  2.482136e+01  7.106515e+00  1.540662e+01  # Ow SPCE
    298      96    6   0.423800  2.470915e+01  6.834430e+00  1.445091e+01  # Hw SPCE
    299      97    6   0.423800  5.388175e+00  1.945794e+01  1.613306e+00  # Hw SPCE
    300      97    7  -0.847600  5.098926e+00  1.857475e+01  1.982511e+00  # Ow SPCE
    301      97    6   0.423800  4.281495e+00  1.826267e+01  1.498350e+00  # Hw SPCE
    302      98    6   0.423800  1.501351e+01  1.217440e+01  1.856256e+01  # Hw SPCE
    303      98    7  -0.847600  1.535145e+01  1.262031e+01  1.773373e+01  # Ow SPCE
    304      98    6   0.423800  1.621293e+01  1.219611e+01  1.745462e+01  # Hw SPCE
    305      99    6   0.423800  1.387195e+01  2.069438e+01  1.795957e+01  # Hw SPCE
    306      99    7  -0.847600  1.358582e+01  1.973741e+01  1.791109e+01  # Ow SPCE
    307      99    6   0.423800  1.433788e+01  1.914918e+01  1.820840e+01  # Hw SPCE
    308     100    6   0.423800  8.208690e+00  1.828344e+01  1.113949e+01  # Hw SPCE
    309     100    7  -0.847600  8.897342e+00  1.862895e+01  1.177696e+01  # Ow SPCE
    310     100    6   0.423800  9.288729e+00  1.947620e+01  1.141781e+01  # Hw SPCE
    311     101    6   0.423800  5.435405e+00  8.044090e+00  2.223119e+01  # Hw SPCE
    312     101    7  -0.847600  5.982491e+00  7.493699e+00  2.160051e+01  # Ow SPCE
    313     101    6   0.423800  6.303746e+00  8.069205e+00  2.084845e+01  # Hw SPCE
    314     102    6   0.423800  3.537828e+00  1.766969e+01  7.096827e+00  # Hw SPCE
    315     102    7  -0.847600  3.979910e+00  1.850801e+01  7.415858e+00  # Ow SPCE
    316     102    6   0.423800  3.401519e+00  1.929388e+01  7.197061e+00  # Hw SPCE
    317     103    6   0.423800  1.784879e+01  1.673302e+01  7.449605e+00  # Hw SPCE
    318     103    7  -0.847600  1.871432e+01  1.632080e+01  7.734098e+00  # Ow SPCE
    319     103    6   0.423800  1.946770e+01  1.693860e+01  7.508830e+00  # Hw SPCE
    320     104    6   0.423800  1.840360e+01  1.781973e+01  1.866542e+01  # Hw SPCE
    321     104    7  -0.847600  1.935410e+01  1.804874e+01  1.845542e+01  # Ow SPCE
    322     104    6   0.423800  1.995543e+01  1.733172e+01  1.880797e+01  # Hw SPCE
    323     105    6   0.423800  6.986137e+00  1.282636e+01  1.654874e+01  # Hw SPCE
    324     105    7  -0.847600  7.251229e+00  1.378908e+01  1.649503e+01  # Ow SPCE
    325     105    6   0.423800  6.457492e+00  1.433941e+01  1.623594e+01  # Hw SPCE
    326     106    6   0.423800  1.946984e+01  5.832514e+00  1.993593e+01  # Hw SPCE
    327     106    7  -0.847600  2.035486e+01  5.656637e+00  1.950488e+01  # Ow SPCE
    328     106    6   0.423800  2.032634e+01  5.955678e+00  1.855107e+01  # Hw SPCE
    329     107    6   0.423800  2.232451e+01  2.050582e+01  3.846204e+00  # Hw SPCE
    330     107    7  -0.847600  2.176803e+01  1.967501e+01  3.855539e+00  # Ow SPCE
    331     107    6   0.423800  2.189021e+01  1.918231e+01  2.993963e+00  # Hw SPCE
    332     108    6   0.423800  1.585792e+01  2.031002e+01  1.649213e+01  # Hw SPCE
    333     108    7  -0.847600  1.676837e+01  2.072365e+01  1.648981e+01  # Ow SPCE
    334     108    6   0.423800  1.746179e+01  2.000314e+01  1.648425e+01  # Hw SPCE
    335     109    6   0.423800  4.742736e+00  4.083037e+00  8.040620e+00  # Hw SPCE
    336     109    7  -0.847600  4.780037e+00  3.292827e+00  8.652319e+00  # Ow SPCE
    337     109    6   0.423800  4.088466e+00  3.392199e+00  9.367759e+00  # Hw SPCE
    338     110    6   0.423800  2.419326e+01  2.365432e+01  1.226093e+01  # Hw SPCE
    339     110    7  -0.847600  2.384580e+01  2.430390e+01  1.158469e+01  # Ow SPCE
    340     110    6   0.423800  2.307108e+01  2.480461e+01  1.197083e+01  # Hw SPCE
    341     111    6   0.423800  2.019445e+01  2.238465e+01  5.934205e+00  # Hw SPCE
    342     111    7  -0.847600  1.969007e+01  2.323706e+01  5.796338e+00  # Ow SPCE
    343     111    6   0.423800  2.025052e+01  2.400846e+01  6.097730e+00  # Hw SPCE
    344     112    6   0.423800  1.634833e+01  2.000330e+01  1.861930e+01  # Hw SPCE
    345     112    7  -0.847600  1.722416e+01  1.966207e+01  1.896062e+01  # Ow SPCE
    346     112    6   0.423800  1.796396e+01  2.024072e+01  1.861734e+01  # Hw SPCE
    347     113    6   0.423800  9.653157e+00  2.385528e+00  1.047662e+01  # Hw SPCE
    348     113    7  -0.847600  8.952586e+00  3.025442e+00  1.079239e+01  # Ow SPCE
    349     113    6   0.423800  8.436324e+00  2.611224e+00  1.154199e+01  # Hw SPCE
    350     114    6   0.423800  1.033767e+01  2.430592e+01  1.488263e+01  # Hw SPCE
    351     114    7  -0.847600  9.354439e+00  2.432001e+01  1.470083e+01  # Ow SPCE
    352     114    6   0.423800  8.887781e+00  2.482047e+01  1.543005e+01  # Hw SPCE
    353     115    6   0.423800  1.375558e+01  1.032133e+01  6.837026e+00  # Hw SPCE
    354     115    7  -0.847600  1.470614e+01  1.062207e+01  6.759685e+00  # Ow SPCE
    355     115    6   0.423800  1.473659e+01  1.162012e+01  6.705103e+00  # Hw SPCE
    356     116    6   0.423800  1.552182e+01  7.378928e+00  2.420845e+01  # Hw SPCE
    357     116    7  -0.847600  1.550302e+01  8.188469e+00  2.479521e+01  # Ow SPCE
    358     116    6   0.423800  1.457479e+01  8.559561e+00  2.482154e+01  # Hw SPCE
    359     117    6   0.423800  1.531720e+01  1.613049e+01  1.451055e+01  # Hw SPCE
    360     117    7  -0.847600  1.432387e+01  1.621931e+01  1.458400e+01  # Ow SPCE
    361     117    6   0.423800  1.401651e+01  1.699291e+01  1.402986e+01  # Hw SPCE
    362     118    6   0.423800  1.959362e+01  1.461229e+01  6.452399e+00  # Hw SPCE
    363     118    7  -0.847600  2.027037e+01  1.438791e+01  7.153589e+00  # Ow SPCE
    364     118    6   0.423800  1.985154e+01  1.446633e+01  8.058263e+00  # Hw SPCE
    365     119    6   0.423800  2.388849e+01  7.043767e+00  2.107578e+01  # Hw SPCE
    366     119    7  -0.847600  2.331964e+01  6.926027e+00  2.188975e+01  # Ow SPCE
    367     119    6   0.423800  2.237616e+01  6.743072e+00  2.161341e+01  # Hw SPCE
    368     120    6   0.423800  2.120520e+01  1.508836e+01  1.878664e+01  # Hw SPCE
    369     120    7  -0.847600  2.042639e+01  1.447477e+01  1.891695e+01  # Ow SPCE
    370     120    6   0.423800  2.074192e+01  1.352614e+01  1.889376e+01  # Hw SPCE
    371     121    6   0.423800  1.230974e+01  1.657865e+01  1.539363e+01  # Hw SPCE
    372     121    7  -0.847600  1.210693e+01  1.753029e+01  1.516288e+01  # Ow SPCE
    373     121    6   0.423800  1.113513e+01  1.762061e+01  1.494503e+01  # Hw SPCE
    374     122    6   0.423800  2.096373e+01  2.134699e+01  2.085535e+01  # Hw SPCE
    375     122    7  -0.847600  2.180801e+01  2.087201e+01  2.060718e+01  # Ow SPCE
    376     122    6   0.423800  2.233991e+01  2.068428e+01  2.143291e+01  # Hw SPCE
    377     123    6   0.423800  1.399111e+01  1.500680e+00  2.017105e+01  # Hw SPCE
    378     123    7  -0.847600  1.483955e+01  1.743370e+00  1.970067e+01  # Ow SPCE
    379     123    6   0.423800  1.468027e+01  1.760456e+00  1.871358e+01  # Hw SPCE
    380     124    6   0.423800  1.972039e+01  9.932456e+00  1.156115e+01  # Hw SPCE
    381     124    7  -0.847600  2.009735e+01  9.006246e+00  1.155539e+01  # Ow SPCE
    382     124    6   0.423800  2.108034e+01  9.047563e+00  1.137641e+01  # Hw SPCE
    383     125    6   0.423800  1.821983e+01  1.880386e+01  6.806252e+00  # Hw SPCE
    384     125    7  -0.847600  1.756351e+01  1.952842e+01  6.595869e+00  # Ow SPCE
    385     125    6   0.423800  1.803730e+01  2.028842e+01  6.150968e+00  # Hw SPCE
    386     126    6   0.423800  7.434298e+00  2.357352e+01  1.316339e+01  # Hw SPCE
    387     126    7  -0.847600  7.787576e+00  2.266870e+01  1.292567e+01  # Ow SPCE
    388     126    6   0.423800  8.757207e+00  2.261616e+01  1.316453e+01  # Hw SPCE
    389     127    6   0.423800  2.338104e+01  1.728567e+01  2.329103e+01  # Hw SPCE
    390     127    7  -0.847600  2.238945e+01  1.728223e+01  2.342037e+01  # Ow SPCE
    391     127    6   0.423800  2.217224e+01  1.760738e+01  2.434075e+01  # Hw SPCE
    392     128    6   0.423800  1.064996e+01  1.205558e+01  1.177805e+01  # Hw SPCE
    393     128    7  -0.847600  9.951599e+00  1.139531e+01  1.205434e+01  # Ow SPCE
    394     128    6   0.423800  1.000602e+01  1.058739e+01  1.146757e+01  # Hw SPCE
    395     129    6   0.423800  9.373948e+00  4.688607e+00  2.197573e+01  # Hw SPCE
    396     129    7  -0.847600  9.846216e+00  5.475894e+00  2.237214e+01  # Ow SPCE
    397     129    6   0.423800  1.075350e+01  5.196684e+00  2.268659e+01  # Hw SPCE
    398     130    6   0.423800  1.267137e+01  1.518070e+01  7.650468e+00  # Hw SPCE
    399     130    7  -0.847600  1.340403e+01  1.585728e+01  7.724366e+00  # Ow SPCE
    400     130    6   0.423800  1.427734e+01  1.538940e+01  7.860031e+00  # Hw SPCE
    401     131    6   0.423800  2.471114e+01  1.827360e+01  1.273471e+01  # Hw SPCE
    402     131    7  -0.847600  2.378951e+01  1.790545e+01  1.261199e+01  # Ow SPCE
    403     131    6   0.423800  2.384386e+01  1.701387e+01  1.216240e+01  # Hw SPCE
    404     132    6   0.423800  1.309174e+01  8.739289e+00  1.491996e+01  # Hw SPCE
    405     132    7  -0.847600  1.318380e+01  7.744101e+00  1.488641e+01  # Ow SPCE
    406     132    6   0.423800  1.227578e+01  7.326146e+00  1.485784e+01  # Hw SPCE
    407     133    6   0.423800  1.346794e+01  9.252316e+00  1.281477e+01  # Hw SPCE
    408     133    7  -0.847600  1.250256e+01  9.120787e+00  1.258949e+01  # Ow SPCE
    409     133    6   0.423800  1.242653e+01  8.584811e+00  1.174869e+01  # Hw SPCE
    410     134    6   0.423800  1.120610e+01  2.004341e+01  3.628586e+00  # Hw SPCE
    411     134    7  -0.847600  1.180310e+01  2.084530e+01  3.652298e+00  # Ow SPCE
    412     134    6   0.423800  1.124621e+01  2.167583e+01  3.642947e+00  # Hw SPCE
    413     135    6   0.423800  1.667342e+01  1.395815e+01  1.888388e+01  # Hw SPCE
    414     135    7  -0.847600  1.703111e+01  1.417064e+01  1.797453e+01  # Ow SPCE
    415     135    6   0.423800  1.663826e+01  1.503293e+01  1.765497e+01  # Hw SPCE
    416     136    6   0.423800  1.945691e+01  1.181999e+01  2.370628e+01  # Hw SPCE
    417     136    7  -0.847600  1.883628e+01  1.104816e+01  2.384447e+01  # Ow SPCE
    418     136    6   0.423800  1.905310e+01  1.032463e+01  2.318911e+01  # Hw SPCE
    419     137    6   0.423800  2.111128e+01  8.380909e+00  6.730735e+00  # Hw SPCE
    420     137    7  -0.847600  2.065508e+01  7.621502e+00  7.194614e+00  # Ow SPCE
    421     137    6   0.423800  2.133873e+01  6.959332e+00  7.501456e+00  # Hw SPCE
    422     138    6   0.423800  2.358127e+01  1.228702e+01  3.203793e+00  # Hw SPCE
    423     138    7  -0.847600  2.398590e+01  1.242985e+01  2.300536e+00  # Ow SPCE
    424     138    6   0.423800  2.347674e+01  1.314112e+01  1.815910e+00  # Hw SPCE
    425     139    6   0.423800  1.737492e+01  2.482008e+01  1.827583e+01  # Hw SPCE
    426     139    7  -0.847600  1.707385e+01  2.429101e+01  1.906921e+01  # Ow SPCE
    427     139    6   0.423800  1.607590e+01  2.431666e+01  1.912773e+01  # Hw SPCE
    428     140    6   0.423800  9.756703e+00  9.542849e+00  2.228732e+01  # Hw SPCE
    429     140    7  -0.847600  9.029650e+00  9.589347e+00  2.297233e+01  # Ow SPCE
    430     140    6   0.423800  8.702353e+00  8.666238e+00  2.317418e+01  # Hw SPCE
    431     141    6   0.423800  2.535081e+00  2.176494e+01  1.613208e+01  # Hw SPCE
    432     141    7  -0.847600  3.077013e+00  2.254134e+01  1.581034e+01  # Ow SPCE
    433     141    6   0.423800  4.031221e+00  2.241743e+01  1.608261e+01  # Hw SPCE
    434     142    6   0.423800  1.308050e+01  2.398092e+01  4.888944e+00  # Hw SPCE
    435     142    7  -0.847600  1.264659e+01  2.308606e+01  4.784380e+00  # Ow SPCE
    436     142    6   0.423800  1.330245e+01  2.236826e+01  5.018096e+00  # Hw SPCE
    437     143    6   0.423800  9.477280e+00  1.842195e+01  2.354278e+01  # Hw SPCE
    438     143    7  -0.847600  9.389701e+00  1.744714e+01  2.333768e+01  # Ow SPCE
    439     143    6   0.423800  1.020923e+01  1.713233e+01  2.285887e+01  # Hw SPCE
    440     144    6   0.423800  1.537553e+01  1.727232e+01  2.478167e+01  # Hw SPCE
    441     144    7  -0.847600  1.438002e+01  1.718855e+01  2.482587e+01  # Ow SPCE
    442     144    6   0.423800  1.411759e+01  1.623869e+01  2.465590e+01  # Hw SPCE
    443     145    6   0.423800  1.021237e+01  3.585408e+00  1.850437e+01  # Hw SPCE
    444     145    7  -0.847600  9.664851e+00  3.659321e+00  1.933790e+01  # Ow SPCE
    445     145    6   0.423800  8.713205e+00  3.430473e+00  1.913296e+01  # Hw SPCE
    446     146    6   0.423800  2.483595e+01  1.879824e+01  2.484059e+01  # Hw SPCE
    447     146    7  -0.847600  2.388240e+01  1.897698e+01  2.459811e+01  # Ow SPCE
    448     146    6   0.423800  2.364615e+01  1.991670e+01  2.484528e+01  # Hw SPCE
    449     147    6   0.423800  1.553930e+01  1.280650e+01  2.477373e+01  # Hw SPCE
    450     147    7  -0.847600  1.459960e+01  1.289240e+01  2.444272e+01  # Ow SPCE
    451     147    6   0.423800  1.418713e+01  1.372081e+01  2.482169e+01  # Hw SPCE
    452     148    6   0.423800  2.164425e+01  1.818419e+00  2.349273e+01  # Hw SPCE
    453     148    7  -0.847600  2.241500e+01  2.284755e+00  2.392688e+01  # Ow SPCE
    454     148    6   0.423800  2.213252e+01  2.634932e+00  2.481996e+01  # Hw SPCE
    455     149    6   0.423800  4.662297e+00  1.230763e+01  2.205705e+01  # Hw SPCE
    456     149    7  -0.847600  4.059935e+00  1.214099e+01  2.127642e+01  # Ow SPCE
    457     149    6   0.423800  3.587529e+00  1.298812e+01  2.103312e+01  # Hw SPCE
    458     150    6   0.423800  1.331580e+01  2.278608e+01  2.039613e+01  # Hw SPCE
    459     150    7  -0.847600  1.234043e+01  2.256809e+01  2.036232e+01  # Ow SPCE
    460     150    6   0.423800  1.181190e+01  2.341434e+01  2.029509e+01  # Hw SPCE
    461     151    6   0.423800  8.319041e+00  2.105456e+01  9.742714e+00  # Hw SPCE
    462     151    7  -0.847600  9.300737e+00  2.109518e+01  9.928786e+00  # Ow SPCE
    463     151    6   0.423800  9.456930e+00  2.157756e+01  1.079071e+01  # Hw SPCE
    464     152    6   0.423800  8.964111e+00  1.445619e+01  3.636670e+00  # Hw SPCE
    465     152    7  -0.847600  8.699769e+00  1.375175e+01  4.295362e+00  # Ow SPCE
    466     152    6   0.423800  9.310686e+00  1.378881e+01  5.086189e+00  # Hw SPCE
    467     153    6   0.423800  1.324795e+01  2.120565e+01  1.051964e+01  # Hw SPCE
    468     153    7  -0.847600  1.230806e+01  2.145732e+01  1.028884e+01  # Ow SPCE
    469     153    6   0.423800  1.221446e+01  2.245268e+01  1.031120e+01  # Hw SPCE
    470     154    6   0.423800  1.909225e+01  9.169422e+00  7.347643e+00  # Hw SPCE
    471     154    7  -0.847600  1.833708e+01  8.699198e+00  6.890900e+00  # Ow SPCE
    472     154    6   0.423800  1.846903e+01  7.710419e+00  6.960954e+00  # Hw SPCE
    473     155    6   0.423800  1.857046e+01  1.562212e+01  1.859735e+01  # Hw SPCE
    474     155    7  -0.847600  1.814019e+01  1.547905e+01  1.948864e+01  # Ow SPCE
    475     155    6   0.423800  1.844921e+01  1.618565e+01  2.012521e+01  # Hw SPCE
    476     156    6   0.423800  1.751752e+01  4.406502e+00  1.445422e+01  # Hw SPCE
    477     156    7  -0.847600  1.715163e+01  5.329251e+00  1.457531e+01  # Ow SPCE
    478     156    6   0.423800  1.790261e+01  5.964671e+00  1.475495e+01  # Hw SPCE
    479     157    6   0.423800  1.922137e+01  2.150562e+01  1.732721e+01  # Hw SPCE
    480     157    7  -0.847600  1.973047e+01  2.213856e+01  1.791049e+01  # Ow SPCE
    481     157    6   0.423800  2.041690e+01  2.163213e+01  1.843235e+01  # Hw SPCE
    482     158    6   0.423800  1.883498e+01  1.769271e+01  4.991303e+00  # Hw SPCE
    483     158    7  -0.847600  1.961216e+01  1.706900e+01  4.907732e+00  # Ow SPCE
    484     158    6   0.423800  1.967684e+01  1.674150e+01  3.965099e+00  # Hw SPCE
    485     159    6   0.423800  1.697543e+01  2.482759e+01  2.120571e+01  # Hw SPCE
    486     159    7  -0.847600  1.770047e+01  2.422501e+01  2.153918e+01  # Ow SPCE
    487     159    6   0.423800  1.853350e+01  2.475742e+01  2.168955e+01  # Hw SPCE
    488     160    6   0.423800  3.217921e+00  1.686091e+01  9.322483e+00  # Hw SPCE
    489     160    7  -0.847600  4.155190e+00  1.716214e+01  9.147019e+00  # Ow SPCE
    490     160    6   0.423800  4.297167e+00  1.806425e+01  9.554503e+00  # Hw SPCE
    491     161    6   0.423800  2.289670e+01  1.725985e+01  3.944258e+00  # Hw SPCE
    492     161    7  -0.847600  2.271300e+01  1.631211e+01  4.205078e+00  # Ow SPCE
    493     161    6   0.423800  2.177337e+01  1.607472e+01  3.958618e+00  # Hw SPCE
    494     162    6   0.423800  1.641759e+01  1.802403e+01  1.463109e+01  # Hw SPCE
    495     162    7  -0.847600  1.600076e+01  1.893077e+01  1.469502e+01  # Ow SPCE
    496     162    6   0.423800  1.506618e+01  1.889368e+01  1.434120e+01  # Hw SPCE
    497     163    6   0.423800  8.201296e+00  1.563790e+01  1.261390e+01  # Hw SPCE
    498     163    7  -0.847600  8.820890e+00  1.642246e+01  1.259002e+01  # Ow SPCE
    499     163    6   0.423800  8.855488e+00  1.684750e+01  1.349453e+01  # Hw SPCE
    500     164    6   0.423800  6.687797e+00  1.629075e+01  1.423461e+01  # Hw SPCE
    501     164    7  -0.847600  6.769048e+00  1.716362e+01  1.471574e+01  # Ow SPCE
    502     164    6   0.423800  7.003271e+00  1.788370e+01  1.406257e+01  # Hw SPCE
    503     165    6   0.423800  2.146718e+01  2.400740e+01  1.504374e+01  # Hw SPCE
    504     165    7  -0.847600  2.246132e+01  2.400168e+01  1.493575e+01  # Ow SPCE
    505     165    6   0.423800  2.284847e+01  2.481490e+01  1.537024e+01  # Hw SPCE
    506     166    6   0.423800  1.028257e+01  1.517715e+01  1.057393e+01  # Hw SPCE
    507     166    7  -0.847600  1.086128e+01  1.530830e+01  1.137885e+01  # Ow SPCE
    508     166    6   0.423800  1.039856e+01  1.494065e+01  1.218552e+01  # Hw SPCE
    509     167    6   0.423800  5.930939e+00  1.497247e+00  9.706176e+00  # Hw SPCE
    510     167    7  -0.847600  6.596242e+00  1.799936e+00  9.023717e+00  # Ow SPCE
    511     167    6   0.423800  7.519099e+00  1.571014e+00  9.333442e+00  # Hw SPCE
    512     168    6   0.423800  1.950376e+01  1.126585e+01  1.936993e+01  # Hw SPCE
    513     168    7  -0.847600  2.024594e+01  1.060294e+01  1.927137e+01  # Ow SPCE
    514     168    6   0.423800  2.111667e+01  1.108748e+01  1.918738e+01  # Hw SPCE
    515     169    6   0.423800  6.820888e+00  5.558104e+00  1.612860e+01  # Hw SPCE
    516     169    7  -0.847600  6.330470e+00  5.379645e+00  1.527558e+01  # Ow SPCE
    517     169    6   0.423800  5.710909e+00  4.605119e+00  1.540307e+01  # Hw SPCE
    518     170    6   0.423800  7.153230e+00  1.628375e+01  7.278372e+00  # Hw SPCE
    519     170    7  -0.847600  8.093080e+00  1.610406e+01  7.568881e+00  # Ow SPCE
    520     170    6   0.423800  8.415942e+00  1.525658e+01  7.147525e+00  # Hw SPCE
    521     171    6   0.423800  1.012055e+01  2.459512e+01  7.148354e+00  # Hw SPCE
    522     171    7  -0.847600  9.942223e+00  2.467258e+01  6.167436e+00  # Ow SPCE
    523     171    6   0.423800  8.964651e+00  2.481997e+01  6.016996e+00  # Hw SPCE
    524     172    6   0.423800  1.206977e+01  8.357638e+00  1.713889e+01  # Hw SPCE
    525     172    7  -0.847600  1.295094e+01  8.480335e+00  1.759548e+01  # Ow SPCE
    526     172    6   0.423800  1.368760e+01  8.205093e+00  1.697777e+01  # Hw SPCE
    527     173    6   0.423800  1.178941e+01  1.009009e+01  1.027806e+01  # Hw SPCE
    528     173    7  -0.847600  1.216424e+01  1.064518e+01  1.102061e+01  # Ow SPCE
    529     173    6   0.423800  1.315862e+01  1.054211e+01  1.104457e+01  # Hw SPCE
    530     174    6   0.423800  1.999395e+01  1.982295e+01  1.223203e+01  # Hw SPCE
    531     174    7  -0.847600  1.995572e+01  1.909691e+01  1.154543e+01  # Ow SPCE
    532     174    6   0.423800  1.936354e+01  1.836023e+01  1.187195e+01  # Hw SPCE
    533     175    6   0.423800  1.697525e+01  2.482000e+01  6.807627e+00  # Hw SPCE
    534     175    7  -0.847600  1.748978e+01  2.396708e+01  6.895808e+00  # Ow SPCE
    535     175    6   0.423800  1.838144e+01  2.415669e+01  7.306888e+00  # Hw SPCE
    536     176    6   0.423800  1.371437e+01  1.826471e+01  4.555453e+00  # Hw SPCE
    537     176    7  -0.847600  1.375485e+01  1.752531e+01  3.883406e+00  # Ow SPCE
    538     176    6   0.423800  1.421901e+01  1.673550e+01  4.284362e+00  # Hw SPCE
    539     177    6   0.423800  7.719128e+00  2.719553e+00  2.581703e+00  # Hw SPCE
    540     177    7  -0.847600  7.144039e+00  1.928081e+00  2.788696e+00  # Ow SPCE
    541     177    6   0.423800  6.527159e+00  1.754414e+00  2.021039e+00  # Hw SPCE
    542     178    6   0.423800  1.689477e+01  1.030871e+01  9.242666e+00  # Hw SPCE
    543     178    7  -0.847600  1.629621e+01  1.100182e+01  8.841025e+00  # Ow SPCE
    544     178    6   0.423800  1.653170e+01  1.112766e+01  7.877331e+00  # Hw SPCE
    545     179    6   0.423800  1.583442e+01  1.617024e+01  1.935717e+01  # Hw SPCE
    546     179    7  -0.847600  1.647639e+01  1.693586e+01  1.939843e+01  # Ow SPCE
    547     179    6   0.423800  1.596876e+01  1.779738e+01  1.938855e+01  # Hw SPCE
    548     180    6   0.423800  1.076879e+01  1.580747e+01  3.595643e+00  # Hw SPCE
    549     180    7  -0.847600  1.040419e+01  1.612059e+01  2.718705e+00  # Ow SPCE
    550     180    6   0.423800  1.032394e+01  1.711732e+01  2.727872e+00  # Hw SPCE
    551     181    6   0.423800  2.553254e+00  2.125179e+01  6.665516e+00  # Hw SPCE
    552     181    7  -0.847600  3.433180e+00  2.162603e+01  6.958213e+00  # Ow SPCE
    553     181    6   0.423800  3.479577e+00  2.259559e+01  6.717807e+00  # Hw SPCE
    554     182    6   0.423800  6.045691e+00  1.790466e+01  8.270056e+00  # Hw SPCE
    555     182    7  -0.847600  6.184611e+00  1.877555e+01  7.798609e+00  # Ow SPCE
    556     182    6   0.423800  5.760837e+00  1.951161e+01  8.326450e+00  # Hw SPCE
    557     183    6   0.423800  2.519238e+00  2.287795e+01  4.510514e+00  # Hw SPCE
    558     183    7  -0.847600  2.288062e+00  2.190581e+01  4.549211e+00  # Ow SPCE
    559     183    6   0.423800  3.127949e+00  2.136306e+01  4.545283e+00  # Hw SPCE
    560     184    6   0.423800  3.747199e+00  3.898782e+00  2.026245e+01  # Hw SPCE
    561     184    7  -0.847600  3.042973e+00  3.790081e+00  2.096406e+01  # Ow SPCE
    562     184    6   0.423800  2.139275e+00  3.887885e+00  2.054721e+01  # Hw SPCE
    563     185    6   0.423800  1.412736e+01  3.426656e+00  2.167150e+01  # Hw SPCE
    564     185    7  -0.847600  1.425481e+01  4.411609e+00  2.178822e+01  # Ow SPCE
    565     185    6   0.423800  1.336292e+01  4.854686e+00  2.187882e+01  # Hw SPCE
    566     186    6   0.423800  1.987119e+01  1.500002e+00  3.274205e+00  # Hw SPCE
    567     186    7  -0.847600  2.085651e+01  1.638196e+00  3.374390e+00  # Ow SPCE
    568     186    6   0.423800  2.105107e+01  2.617040e+00  3.437733e+00  # Hw SPCE
    569     187    6   0.423800  1.688318e+01  1.542627e+01  2.149735e+01  # Hw SPCE
    570     187    7  -0.847600  1.633772e+01  1.626440e+01  2.149451e+01  # Ow SPCE
    571     187    6   0.423800  1.694422e+01  1.705702e+01  2.155711e+01  # Hw SPCE
    572     188    6   0.423800  1.490977e+01  6.506030e+00  2.162378e+01  # Hw SPCE
    573     188    7  -0.847600  1.584603e+01  6.636432e+00  2.194997e+01  # Ow SPCE
    574     188    6   0.423800  1.602094e+01  7.612448e+00  2.207957e+01  # Hw SPCE
    575     189    6   0.423800  2.408488e+01  2.070909e+01  1.243572e+01  # Hw SPCE
    576     189    7  -0.847600  2.333125e+01  2.069630e+01  1.309288e+01  # Ow SPCE
    577     189    6   0.423800  2.362435e+01  2.113054e+01  1.394466e+01  # Hw SPCE
    578     190    6   0.423800  1.499257e+00  2.365049e+01  2.280729e+01  # Hw SPCE
    579     190    7  -0.847600  2.389166e+00  2.409575e+01  2.290628e+01  # Ow SPCE
    580     190    6   0.423800  2.644848e+00  2.411845e+01  2.387278e+01  # Hw SPCE
    581     191    6   0.423800  9.287620e+00  1.959644e+01  5.679433e+00  # Hw SPCE
    582     191    7  -0.847600  9.001401e+00  2.019974e+01  6.423821e+00  # Ow SPCE
    583     191    6   0.423800  8.589274e+00  2.102722e+01  6.042484e+00  # Hw SPCE
    584     192    6   0.423800  1.107340e+01  1.838147e+01  6.096951e+00  # Hw SPCE
    585     192    7  -0.847600  1.122309e+01  1.841506e+01  5.108788e+00  # Ow SPCE
    586     192    6   0.423800  1.149698e+01  1.751044e+01  4.782222e+00  # Hw SPCE
    587     193    6   0.423800  2.053622e+01  1.469300e+01  2.444692e+01  # Hw SPCE
    588     193    7  -0.847600  2.146326e+01  1.465034e+01  2.481945e+01  # Ow SPCE
    589     193    6   0.423800  2.212219e+01  1.460142e+01  2.406883e+01  # Hw SPCE
    590     194    6   0.423800  1.286434e+01  1.894262e+01  1.065469e+01  # Hw SPCE
    591     194    7  -0.847600  1.323873e+01  1.807492e+01  1.032770e+01  # Ow SPCE
    592     194    6   0.423800  1.320960e+01  1.805483e+01  9.328323e+00  # Hw SPCE
    593     195    6   0.423800  1.999615e+01  1.661337e+01  1.673169e+01  # Hw SPCE
    594     195    7  -0.847600  2.013050e+01  1.735376e+01  1.607309e+01  # Ow SPCE
    595     195    6   0.423800  1.964288e+01  1.713956e+01  1.522672e+01  # Hw SPCE
    596     196    6   0.423800  2.346030e+01  8.663199e+00  1.465429e+01  # Hw SPCE
    597     196    7  -0.847600  2.283501e+01  8.315255e+00  1.535281e+01  # Ow SPCE
    598     196    6   0.423800  2.264628e+01  7.348630e+00  1.517955e+01  # Hw SPCE
    599     197    6   0.423800  2.427873e+01  1.143892e+01  2.243384e+01  # Hw SPCE
    600     197    7  -0.847600  2.384486e+01  1.218577e+01  2.192988e+01  # Ow SPCE
    601     197    6   0.423800  2.303483e+01  1.184128e+01  2.145535e+01  # Hw SPCE
    602     198    6   0.423800  1.998253e+01  1.742758e+01  2.302691e+01  # Hw SPCE
    603     198    7  -0.847600  2.027184e+01  1.673818e+01  2.369101e+01  # Ow SPCE
    604     198    6   0.423800  1.982249e+01  1.691052e+01  2.456758e+01  # Hw SPCE
    605     199    6   0.423800  8.414266e+00  1.768389e+01  1.895503e+01  # Hw SPCE
    606     199    7  -0.847600  7.960424e+00  1.760201e+01  1.984234e+01  # Ow SPCE
    607     199    6   0.423800  8.639433e+00  1.739255e+01  2.054596e+01  # Hw SPCE
    608     200    6   0.423800  6.559468e+00  2.139941e+01  1.904882e+01  # Hw SPCE
    609     200    7  -0.847600  7.380374e+00  2.109131e+01  1.952964e+01  # Ow SPCE
    610     200    6   0.423800  7.332845e+00  2.010240e+01  1.967034e+01  # Hw SPCE
    611     201    6   0.423800  1.483553e+01  1.862253e+01  2.281315e+01  # Hw SPCE
    612     201    7  -0.847600  1.497716e+01  1.783807e+01  2.220936e+01  # Ow SPCE
    613     201    6   0.423800  1.461908e+01  1.701264e+01  2.264575e+01  # Hw SPCE
    614     202    6   0.423800  1.793015e+01  2.459215e+01  3.196250e+00  # Hw SPCE
    615     202    7  -0.847600  1.819595e+01  2.417705e+01  4.066335e+00  # Ow SPCE
    616     202    6   0.423800  1.876080e+01  2.482000e+01  4.583596e+00  # Hw SPCE
    617     203    6   0.423800  8.721023e+00  2.392559e+01  2.012636e+01  # Hw SPCE
    618     203    7  -0.847600  8.275616e+00  2.482041e+01  2.009636e+01  # Ow SPCE
    619     203    6   0.423800  7.283247e+00  2.469980e+01  2.012199e+01  # Hw SPCE
    620     204    6   0.423800  1.657043e+01  9.380902e+00  1.514404e+01  # Hw SPCE
    621     204    7  -0.847600  1.641260e+01  8.447076e+00  1.546507e+01  # Ow SPCE
    622     204    6   0.423800  1.543851e+01  8.318806e+00  1.565132e+01  # Hw SPCE
    623     205    6   0.423800  7.493714e+00  7.531508e+00  1.836813e+01  # Hw SPCE
    624     205    7  -0.847600  7.991475e+00  8.394353e+00  1.845607e+01  # Ow SPCE
    625     205    6   0.423800  7.915927e+00  8.728480e+00  1.939556e+01  # Hw SPCE
    626     206    6   0.423800  2.080685e+01  2.002749e+01  1.695284e+01  # Hw SPCE
    627     206    7  -0.847600  2.120757e+01  1.933574e+01  1.755361e+01  # Ow SPCE
    628     206    6   0.423800  2.197982e+01  1.973232e+01  1.804995e+01  # Hw SPCE
    629     207    6   0.423800  1.720953e+00  6.359923e+00  8.459819e+00  # Hw SPCE
    630     207    7  -0.847600  2.711424e+00  6.222995e+00  8.474615e+00  # Ow SPCE
    631     207    6   0.423800  2.912813e+00  5.243639e+00  8.457194e+00  # Hw SPCE
    632     208    6   0.423800  1.764375e+01  1.107544e+01  1.621515e+01  # Hw SPCE
    633     208    7  -0.847600  1.819980e+01  1.057153e+01  1.687612e+01  # Ow SPCE
    634     208    6   0.423800  1.803206e+01  9.591001e+00  1.677398e+01  # Hw SPCE
    635     209    6   0.423800  7.913778e+00  1.943336e+01  2.472800e+01  # Hw SPCE
    636     209    7  -0.847600  7.732970e+00  1.973806e+01  2.379287e+01  # Ow SPCE
    637     209    6   0.423800  8.373255e+00  2.046682e+01  2.355009e+01  # Hw SPCE
    638     210    6   0.423800  2.025949e+01  5.441783e+00  5.978610e+00  # Hw SPCE
    639     210    7  -0.847600  1.964721e+01  6.218609e+00  5.831453e+00  # Ow SPCE
    640     210    6   0.423800  1.927274e+01  6.177054e+00  4.905147e+00  # Hw SPCE
    641     211    6   0.423800  1.165190e+01  1.624792e+01  2.083886e+01  # Hw SPCE
    642     211    7  -0.847600  1.155687e+01  1.533516e+01  2.123616e+01  # Ow SPCE
    643     211    6   0.423800  1.244202e+01  1.503116e+01  2.158843e+01  # Hw SPCE
    644     212    6   0.423800  1.014922e+01  5.077204e+00  1.270863e+01  # Hw SPCE
    645     212    7  -0.847600  9.342232e+00  4.550097e+00  1.244231e+01  # Ow SPCE
    646     212    6   0.423800  8.548994e+00  5.157021e+00  1.239314e+01  # Hw SPCE
    647     213    6   0.423800  1.998141e+01  1.292952e+01  9.625816e+00  # Hw SPCE
    648     213    7  -0.847600  1.974660e+01  1.355155e+01  1.037277e+01  # Ow SPCE
    649     213    6   0.423800  2.034197e+01  1.435424e+01  1.033772e+01  # Hw SPCE
    650     214    6   0.423800  4.875566e+00  1.877581e+01  2.083510e+01  # Hw SPCE
    651     214    7  -0.847600  4.709432e+00  1.894287e+01  1.986325e+01  # Ow SPCE
    652     214    6   0.423800  5.153506e+00  1.979654e+01  1.959112e+01  # Hw SPCE
    653     215    6   0.423800  1.776778e+01  1.230909e+01  2.231301e+01  # Hw SPCE
    654     215    7  -0.847600  1.738887e+01  1.320566e+01  2.208368e+01  # Ow SPCE
    655     215    6   0.423800  1.739412e+01  1.332572e+01  2.109092e+01  # Hw SPCE
    656     216    6   0.423800  2.344505e+01  4.330173e+00  4.061469e+00  # Hw SPCE
    657     216    7  -0.847600  2.389937e+01  3.468611e+00  3.834956e+00  # Ow SPCE
    658     216    6   0.423800  2.460678e+01  3.635351e+00  3.148100e+00  # Hw SPCE
    659     217    6   0.423800  5.926258e+00  6.233940e+00  1.192946e+01  # Hw SPCE
    660     217    7  -0.847600  6.352060e+00  6.808525e+00  1.262842e+01  # Ow SPCE
    661     217    6   0.423800  6.841092e+00  6.231013e+00  1.328212e+01  # Hw SPCE
    662     218    6   0.423800  4.962876e+00  1.150235e+01  1.590523e+01  # Hw SPCE
    663     218    7  -0.847600  4.329319e+00  1.077161e+01  1.565103e+01  # Ow SPCE
    664     218    6   0.423800  4.847318e+00  9.972701e+00  1.534538e+01  # Hw SPCE
    665     219    6   0.423800  1.847152e+01  5.147194e+00  1.234129e+01  # Hw SPCE
    666     219    7  -0.847600  1.752198e+01  5.453530e+00  1.240867e+01  # Ow SPCE
    667     219    6   0.423800  1.737461e+01  6.221804e+00  1.178574e+01  # Hw SPCE
    668     220    6   0.423800  2.019334e+01  7.592423e+00  1.553603e+01  # Hw SPCE
    669     220    7  -0.847600  1.951296e+01  8.324848e+00  1.551079e+01  # Ow SPCE
    670     220    6   0.423800  1.859720e+01  7.927257e+00  1.545339e+01  # Hw SPCE
    671     221    6   0.423800  2.899248e+00  1.966204e+01  3.169388e+00  # Hw SPCE
    672     221    7  -0.847600  2.485024e+00  1.909267e+01  2.459293e+00  # Ow SPCE
    673     221    6   0.423800  1.497228e+00  1.924746e+01  2.442003e+00  # Hw SPCE
    674     222    6   0.423800  2.291653e+01  1.879569e+01  5.551566e+00  # Hw SPCE
    675     222    7  -0.847600  2.389255e+01  1.900949e+01  5.592627e+00  # Ow SPCE
    676     222    6   0.423800  2.408894e+01  1.950999e+01  6.435795e+00  # Hw SPCE
    677     223    6   0.423800  1.173875e+01  7.124713e+00  2.237255e+01  # Hw SPCE
    678     223    7  -0.847600  1.091977e+01  7.686270e+00  2.249060e+01  # Ow SPCE
    679     223    6   0.423800  1.070488e+01  7.761738e+00  2.346431e+01  # Hw SPCE
    680     224    6   0.423800  2.235421e+01  1.010187e+01  2.261776e+01  # Hw SPCE
    681     224    7  -0.847600  2.162239e+01  9.420706e+00  2.263894e+01  # Ow SPCE
    682     224    6   0.423800  2.092071e+01  9.664424e+00  2.196943e+01  # Hw SPCE
    683     225    6   0.423800  2.395778e+01  1.419833e+01  1.992290e+01  # Hw SPCE
    684     225    7  -0.847600  2.300527e+01  1.450253e+01  1.990923e+01  # Ow SPCE
    685     225    6   0.423800  2.248371e+01  1.399597e+01  2.059579e+01  # Hw SPCE
    686     226    6   0.423800  1.536652e+01  2.162109e+01  4.652340e+00  # Hw SPCE
    687     226    7  -0.847600  1.622867e+01  2.211735e+01  4.550196e+00  # Ow SPCE
    688     226    6   0.423800  1.662600e+01  2.191451e+01  3.655222e+00  # Hw SPCE
    689     227    6   0.423800  9.543513e+00  1.498711e+00  2.166678e+01  # Hw SPCE
    690     227    7  -0.847600  9.192793e+00  2.029370e+00  2.089516e+01  # Ow SPCE
    691     227    6   0.423800  9.377702e+00  1.540249e+00  2.004277e+01  # Hw SPCE
    692     228    6   0.423800  5.597022e+00  1.217089e+01  2.415747e+01  # Hw SPCE
    693     228    7  -0.847600  5.308919e+00  1.144522e+01  2.478228e+01  # Ow SPCE
    694     228    6   0.423800  6.014871e+00  1.073795e+01  2.481983e+01  # Hw SPCE
    695     229    6   0.423800  3.872714e+00  1.995848e+00  6.444197e+00  # Hw SPCE
    696     229    7  -0.847600  3.468460e+00  1.500004e+00  7.212778e+00  # Ow SPCE
    697     229    6   0.423800  3.073856e+00  2.152421e+00  7.859801e+00  # Hw SPCE
    698     230    6   0.423800  2.271338e+01  1.884448e+01  8.243565e+00  # Hw SPCE
    699     230    7  -0.847600  2.257501e+01  1.802006e+01  8.792365e+00  # Ow SPCE
    700     230    6   0.423800  2.167554e+01  1.763243e+01  8.590612e+00  # Hw SPCE
    701     231    6   0.423800  2.182911e+01  1.545697e+01  8.297527e+00  # Hw SPCE
    702     231    7  -0.847600  2.269798e+01  1.509984e+01  7.954731e+00  # Ow SPCE
    703     231    6   0.423800  2.252852e+01  1.428182e+01  7.405071e+00  # Hw SPCE
    704     232    6   0.423800  7.910055e+00  6.884420e+00  8.489722e+00  # Hw SPCE
    705     232    7  -0.847600  7.766084e+00  6.062207e+00  7.939053e+00  # Ow SPCE
    706     232    6   0.423800  8.633972e+00  5.577404e+00  7.830724e+00  # Hw SPCE
    707     233    6   0.423800  1.168961e+01  2.481989e+01  9.746509e+00  # Hw SPCE
    708     233    7  -0.847600  1.196509e+01  2.422544e+01  8.991033e+00  # Ow SPCE
    709     233    6   0.423800  1.249356e+01  2.475397e+01  8.326668e+00  # Hw SPCE
    710     234    6   0.423800  8.518722e+00  2.374230e+01  1.115000e+01  # Hw SPCE
    711     234    7  -0.847600  8.275465e+00  2.470916e+01  1.107248e+01  # Ow SPCE
    712     234    6   0.423800  7.294267e+00  2.481972e+01  1.123067e+01  # Hw SPCE
    713     235    6   0.423800  1.791825e+01  1.598996e+01  1.323325e+01  # Hw SPCE
    714     235    7  -0.847600  1.696995e+01  1.625865e+01  1.306437e+01  # Ow SPCE
    715     235    6   0.423800  1.686632e+01  1.653241e+01  1.210817e+01  # Hw SPCE
    716     236    6   0.423800  4.092491e+00  3.008272e+00  1.377008e+01  # Hw SPCE
    717     236    7  -0.847600  3.668994e+00  3.144632e+00  1.466566e+01  # Ow SPCE
    718     236    6   0.423800  3.224154e+00  4.039878e+00  1.469117e+01  # Hw SPCE
    719     237    6   0.423800  7.587457e+00  1.227504e+01  2.974954e+00  # Hw SPCE
    720     237    7  -0.847600  7.078003e+00  1.141718e+01  2.907643e+00  # Ow SPCE
    721     237    6   0.423800  6.361395e+00  1.150846e+01  2.216166e+00  # Hw SPCE
    722     238    6   0.423800  1.044559e+01  1.012583e+01  4.991582e+00  # Hw SPCE
    723     238    7  -0.847600  1.072791e+01  1.019662e+01  5.948288e+00  # Ow SPCE
    724     238    6   0.423800  1.172243e+01  1.028943e+01  5.996341e+00  # Hw SPCE
    725     239    6   0.423800  1.401449e+01  2.262885e+01  1.679612e+01  # Hw SPCE
    726     239    7  -0.847600  1.496284e+01  2.233358e+01  1.668017e+01  # Ow SPCE
    727     239    6   0.423800  1.516898e+01  2.224966e+01  1.570525e+01  # Hw SPCE
    728     240    6   0.423800  1.090840e+01  2.186860e+01  8.640687e+00  # Hw SPCE
    729     240    7  -0.847600  1.015563e+01  2.250365e+01  8.467365e+00  # Ow SPCE
    730     240    6   0.423800  9.878565e+00  2.243846e+01  7.508728e+00  # Hw SPCE
    731     241    6   0.423800  2.080680e+01  9.162370e+00  1.762896e+01  # Hw SPCE
    732     241    7  -0.847600  1.984614e+01  8.983947e+00  1.784177e+01  # Ow SPCE
    733     241    6   0.423800  1.973947e+01  8.031806e+00  1.812821e+01  # Hw SPCE
    734     242    6   0.423800  1.307875e+01  1.205486e+01  1.886239e+00  # Hw SPCE
    735     242    7  -0.847600  1.323154e+01  1.114513e+01  1.500189e+00  # Ow SPCE
    736     242    6   0.423800  1.238869e+01  1.061064e+01  1.562747e+00  # Hw SPCE
    737     243    6   0.423800  2.232032e+01  2.183897e+01  6.085620e+00  # Hw SPCE
    738     243    7  -0.847600  2.230178e+01  2.083915e+01  6.086710e+00  # Ow SPCE
    739     243    6   0.423800  2.135336e+01  2.052339e+01  6.114797e+00  # Hw SPCE
    740     244    6   0.423800  1.063166e+01  6.250353e+00  8.457512e+00  # Hw SPCE
    741     244    7  -0.847600  1.101813e+01  6.872646e+00  7.776788e+00  # Ow SPCE
    742     244    6   0.423800  1.189592e+01  6.514758e+00  7.458335e+00  # Hw SPCE
    743     245    6   0.423800  1.282017e+01  8.502573e+00  7.647767e+00  # Hw SPCE
    744     245    7  -0.847600  1.379753e+01  8.302139e+00  7.715618e+00  # Ow SPCE
    745     245    6   0.423800  1.392835e+01  7.318201e+00  7.837071e+00  # Hw SPCE
    746     246    6   0.423800  9.760403e+00  2.425721e+00  1.385816e+01  # Hw SPCE
    747     246    7  -0.847600  9.400193e+00  1.493244e+00  1.383107e+01  # Ow SPCE
    748     246    6   0.423800  8.479277e+00  1.502861e+00  1.344142e+01  # Hw SPCE
    749     247    6   0.423800  1.382156e+01  1.344495e+01  1.563047e+01  # Hw SPCE
    750     247    7  -0.847600  1.481817e+01  1.336263e+01  1.562847e+01  # Ow SPCE
    751     247    6   0.423800  1.522794e+01  1.427309e+01  1.568461e+01  # Hw SPCE
    752     248    6   0.423800  6.682672e+00  1.445529e+01  1.884886e+00  # Hw SPCE
    753     248    7  -0.847600  7.668946e+00  1.461510e+01  1.843353e+00  # Ow SPCE
    754     248    6   0.423800  7.846933e+00  1.559905e+01  1.830757e+00  # Hw SPCE
    755     249    6   0.423800  2.322824e+01  6.763098e+00  1.282626e+01  # Hw SPCE
    756     249    7  -0.847600  2.269827e+01  5.915115e+00  1.281909e+01  # Ow SPCE
    757     249    6   0.423800  2.211376e+01  5.880498e+00  1.362974e+01  # Hw SPCE
    758     250    6   0.423800  1.946096e+01  1.500222e+00  1.177525e+01  # Hw SPCE
    759     250    7  -0.847600  1.999666e+01  1.825682e+00  1.255442e+01  # Ow SPCE
    760     250    6   0.423800  1.939704e+01  2.308134e+00  1.319293e+01  # Hw SPCE
    761     251    6   0.423800  9.393287e+00  1.099079e+01  2.065426e+01  # Hw SPCE
    762     251    7  -0.847600  9.146503e+00  1.184706e+01  2.020049e+01  # Ow SPCE
    763     251    6   0.423800  9.977784e+00  1.234514e+01  1.995373e+01  # Hw SPCE
    764     252    6   0.423800  8.892469e+00  1.180524e+01  5.940356e+00  # Hw SPCE
    765     252    7  -0.847600  8.661914e+00  1.141246e+01  5.050092e+00  # Ow SPCE
    766     252    6   0.423800  7.882517e+00  1.079401e+01  5.150391e+00  # Hw SPCE
    767     253    6   0.423800  1.279384e+01  3.719936e+00  1.760579e+01  # Hw SPCE
    768     253    7  -0.847600  1.376593e+01  3.952790e+00  1.763462e+01  # Ow SPCE
    769     253    6   0.423800  1.392753e+01  4.776825e+00  1.709162e+01  # Hw SPCE
    770     254    6   0.423800  1.121341e+01  9.813755e+00  1.532359e+01  # Hw SPCE
    771     254    7  -0.847600  1.089586e+01  1.024187e+01  1.447750e+01  # Ow SPCE
    772     254    6   0.423800  1.001275e+01  9.851382e+00  1.421742e+01  # Hw SPCE
    773     255    6   0.423800  2.301154e+01  6.807488e+00  3.344872e+00  # Hw SPCE
    774     255    7  -0.847600  2.375043e+01  7.421549e+00  3.622300e+00  # Ow SPCE
    775     255    6   0.423800  2.463193e+01  6.985329e+00  3.441529e+00  # Hw SPCE
    776     256    6   0.423800  1.545757e+01  5.020541e+00  1.179116e+01  # Hw SPCE
    777     256    7  -0.847600  1.459865e+01  4.510876e+00  1.184119e+01  # Ow SPCE
    778     256    6   0.423800  1.438963e+01  4.121103e+00  1.094432e+01  # Hw SPCE
    779     257    6   0.423800  1.804806e+01  2.014526e+01  2.355052e+01  # Hw SPCE
    780     257    7  -0.847600  1.870702e+01  2.013160e+01  2.279846e+01  # Ow SPCE
    781     257    6   0.423800  1.874503e+01  1.921293e+01  2.240526e+01  # Hw SPCE
    782     258    6   0.423800  4.867119e+00  2.031439e+01  1.570119e+01  # Hw SPCE
    783     258    7  -0.847600  4.909354e+00  1.932629e+01  1.584913e+01  # Ow SPCE
    784     258    6   0.423800  5.794932e+00  1.898040e+01  1.553911e+01  # Hw SPCE
    785     259    6   0.423800  1.979598e+01  6.821146e+00  1.297202e+01  # Hw SPCE
    786     259    7  -0.847600  1.911394e+01  7.434153e+00  1.337083e+01  # Ow SPCE
    787     259    6   0.423800  1.857274e+01  7.850902e+00  1.264047e+01  # Hw SPCE
    788     260    6   0.423800  2.273480e+01  1.551647e+01  2.216525e+01  # Hw SPCE
    789     260    7  -0.847600  2.355402e+01  1.575205e+01  2.164239e+01  # Ow SPCE
    790     260    6   0.423800  2.429728e+01  1.513027e+01  2.188930e+01  # Hw SPCE
    791     261    6   0.423800  5.469824e+00  1.378765e+01  6.581289e+00  # Hw SPCE
    792     261    7  -0.847600  4.533877e+00  1.411262e+01  6.445646e+00  # Ow SPCE
    793     261    6   0.423800  4.270313e+00  1.469894e+01  7.211654e+00  # Hw SPCE
    794     262    6   0.423800  7.764921e+00  1.149628e+01  1.227159e+01  # Hw SPCE
    795     262    7  -0.847600  7.512832e+00  1.099513e+01  1.144376e+01  # Ow SPCE
    796     262    6   0.423800  6.982314e+00  1.159169e+01  1.084154e+01  # Hw SPCE
    797     263    6   0.423800  2.035511e+01  2.177945e+01  3.785167e+00  # Hw SPCE
    798     263    7  -0.847600  1.992694e+01  2.088508e+01  3.655639e+00  # Ow SPCE
    799     263    6   0.423800  1.945435e+01  2.061706e+01  4.495180e+00  # Hw SPCE
    800     264    6   0.423800  1.396299e+01  2.482316e+01  1.878737e+01  # Hw SPCE
    801     264    7  -0.847600  1.314771e+01  2.424479e+01  1.875904e+01  # Ow SPCE
    802     264    6   0.423800  1.233303e+01  2.482034e+01  1.868806e+01  # Hw SPCE
    803     265    6   0.423800  1.464145e+01  1.026170e+01  1.456764e+01  # Hw SPCE
    804     265    7  -0.847600  1.448162e+01  1.109197e+01  1.510160e+01  # Ow SPCE
    805     265    6   0.423800  1.512873e+01  1.112823e+01  1.586314e+01  # Hw SPCE
    806     266    6   0.423800  5.369775e+00  1.523630e+01  2.379292e+01  # Hw SPCE
    807     266    7  -0.847600  4.612052e+00  1.458408e+01  2.377137e+01  # Ow SPCE
    808     266    6   0.423800  3.747429e+00  1.507381e+01  2.388357e+01  # Hw SPCE
    809     267    6   0.423800  2.095325e+01  1.713210e+01  1.073213e+01  # Hw SPCE
    810     267    7  -0.847600  2.195108e+01  1.719797e+01  1.072942e+01  # Ow SPCE
    811     267    6   0.423800  2.234578e+01  1.627917e+01  1.073263e+01  # Hw SPCE
    812     268    6   0.423800  1.169657e+01  5.913167e+00  1.647738e+01  # Hw SPCE
    813     268    7  -0.847600  1.197860e+01  5.060244e+00  1.603808e+01  # Ow SPCE
    814     268    6   0.423800  1.192266e+01  5.162494e+00  1.504490e+01  # Hw SPCE
    815     269    6   0.423800  5.137852e+00  1.132380e+01  1.332474e+01  # Hw SPCE
    816     269    7  -0.847600  5.244561e+00  1.033594e+01  1.321188e+01  # Ow SPCE
    817     269    6   0.423800  6.194994e+00  1.012756e+01  1.298111e+01  # Hw SPCE
    818     270    6   0.423800  1.475012e+01  2.113927e+01  2.174871e+01  # Hw SPCE
    819     270    7  -0.847600  1.567627e+01  2.121988e+01  2.211716e+01  # Ow SPCE
    820     270    6   0.423800  1.577635e+01  2.061038e+01  2.290360e+01  # Hw SPCE
    821     271    6   0.423800  1.422107e+01  1.202594e+01  9.777669e+00  # Hw SPCE
    822     271    7  -0.847600  1.334337e+01  1.189124e+01  9.317788e+00  # Ow SPCE
    823     271    6   0.423800  1.332521e+01  1.098626e+01  8.892729e+00  # Hw SPCE
    824     272    6   0.423800  1.270781e+01  1.048312e+01  2.462013e+01  # Hw SPCE
    825     272    7  -0.847600  1.357504e+01  1.063484e+01  2.414591e+01  # Ow SPCE
    826     272    6   0.423800  1.430763e+01  1.074417e+01  2.481775e+01  # Hw SPCE
    827     273    6   0.423800  2.387267e+01  2.004073e+00  6.118479e+00  # Hw SPCE
    828     273    7  -0.847600  2.327597e+01  1.955431e+00  6.919470e+00  # Ow SPCE
    829     273    6   0.423800  2.340012e+01  2.775650e+00  7.477887e+00  # Hw SPCE
    830     274    6   0.423800  1.425617e+01  4.939445e+00  5.854586e+00  # Hw SPCE
    831     274    7  -0.847600  1.491459e+01  4.714581e+00  6.572867e+00  # Ow SPCE
    832     274    6   0.423800  1.492599e+01  5.445471e+00  7.255267e+00  # Hw SPCE
    833     275    6   0.423800  1.746586e+01  1.578557e+01  1.012830e+01  # Hw SPCE
    834     275    7  -0.847600  1.840427e+01  1.545565e+01  1.023095e+01  # Ow SPCE
    835     275    6   0.423800  1.899705e+01  1.621495e+01  1.049942e+01  # Hw SPCE
    836     276    6   0.423800  5.528037e+00  5.999521e+00  1.785292e+01  # Hw SPCE
    837     276    7  -0.847600  5.031805e+00  5.154291e+00  1.765457e+01  # Ow SPCE
    838     276    6   0.423800  4.469626e+00  4.904959e+00  1.844311e+01  # Hw SPCE
    839     277    6   0.423800  1.418385e+01  1.688620e+01  1.765914e+01  # Hw SPCE
    840     277    7  -0.847600  1.357500e+01  1.742330e+01  1.707533e+01  # Ow SPCE
    841     277    6   0.423800  1.404587e+01  1.765132e+01  1.622311e+01  # Hw SPCE
    842     278    6   0.423800  2.383470e+00  4.472433e+00  1.270262e+01  # Hw SPCE
    843     278    7  -0.847600  3.136499e+00  4.689147e+00  1.208134e+01  # Ow SPCE
    844     278    6   0.423800  3.589523e+00  3.843548e+00  1.179898e+01  # Hw SPCE
    845     279    6   0.423800  2.403975e+01  1.104486e+01  1.050202e+01  # Hw SPCE
    846     279    7  -0.847600  2.481811e+01  1.045569e+01  1.028513e+01  # Ow SPCE
    847     279    6   0.423800  2.472838e+01  1.011609e+01  9.348847e+00  # Hw SPCE
    848     280    6   0.423800  5.371778e+00  1.799828e+01  1.147749e+01  # Hw SPCE
    849     280    7  -0.847600  6.216996e+00  1.792323e+01  1.200661e+01  # Ow SPCE
    850     280    6   0.423800  6.432254e+00  1.695814e+01  1.215582e+01  # Hw SPCE
    851     281    6   0.423800  1.961773e+01  7.421023e+00  9.121872e+00  # Hw SPCE
    852     281    7  -0.847600  1.863121e+01  7.258013e+00  9.107639e+00  # Ow SPCE
    853     281    6   0.423800  1.844667e+01  6.308099e+00  9.359842e+00  # Hw SPCE
    854     282    6   0.423800  4.676293e+00  1.117265e+01  1.117480e+01  # Hw SPCE
    855     282    7  -0.847600  4.948390e+00  1.102194e+01  1.022440e+01  # Ow SPCE
    856     282    6   0.423800  4.931344e+00  1.189152e+01  9.730912e+00  # Hw SPCE
    857     283    6   0.423800  1.065045e+01  1.912283e+01  8.124694e+00  # Hw SPCE
    858     283    7  -0.847600  1.154989e+01  1.953763e+01  7.986978e+00  # Ow SPCE
    859     283    6   0.423800  1.192510e+01  1.982064e+01  8.869654e+00  # Hw SPCE
    860     284    6   0.423800  6.693009e+00  2.182027e+01  5.255986e+00  # Hw SPCE
    861     284    7  -0.847600  5.980109e+00  2.151274e+01  5.886224e+00  # Ow SPCE
    862     284    6   0.423800  5.081346e+00  2.171164e+01  5.495499e+00  # Hw SPCE
    863     285    6   0.423800  1.592361e+00  7.089386e+00  2.199834e+01  # Hw SPCE
    864     285    7  -0.847600  2.103033e+00  7.766020e+00  2.252879e+01  # Ow SPCE
    865     285    6   0.423800  2.726971e+00  7.297435e+00  2.315419e+01  # Hw SPCE
    866     286    6   0.423800  6.044820e+00  1.750816e+01  2.220459e+01  # Hw SPCE
    867     286    7  -0.847600  7.017866e+00  1.727780e+01  2.221537e+01  # Ow SPCE
    868     286    6   0.423800  7.557063e+00  1.811338e+01  2.232059e+01  # Hw SPCE
    869     287    6   0.423800  1.901384e+00  4.930141e+00  2.247170e+01  # Hw SPCE
    870     287    7  -0.847600  2.766422e+00  4.883775e+00  2.297126e+01  # Ow SPCE
    871     287    6   0.423800  3.478355e+00  5.353564e+00  2.244929e+01  # Hw SPCE
    872     288    6   0.423800  5.450715e+00  2.043121e+01  1.174340e+01  # Hw SPCE
    873     288    7  -0.847600  6.337499e+00  2.069939e+01  1.211983e+01  # Ow SPCE
    874     288    6   0.423800  7.047152e+00  2.008861e+01  1.176863e+01  # Hw SPCE
    875     289    6   0.423800  1.851128e+01  1.933050e+01  1.535489e+00  # Hw SPCE
    876     289    7  -0.847600  1.764929e+01  1.983620e+01  1.500001e+00  # Ow SPCE
    877     289    6   0.423800  1.755703e+01  2.039585e+01  2.323576e+00  # Hw SPCE
    878     290    6   0.423800  8.992135e+00  8.444208e+00  7.382570e+00  # Hw SPCE
    879     290    7  -0.847600  8.731017e+00  9.356869e+00  7.068138e+00  # Ow SPCE
    880     290    6   0.423800  7.745319e+00  9.382690e+00  6.901607e+00  # Hw SPCE
    881     291    6   0.423800  1.736223e+01  2.212564e+00  1.178721e+01  # Hw SPCE
    882     291    7  -0.847600  1.780327e+01  3.110025e+00  1.178092e+01  # Ow SPCE
    883     291    6   0.423800  1.740641e+01  3.671364e+00  1.105470e+01  # Hw SPCE
    884     292    6   0.423800  1.499481e+00  3.466185e+00  1.090211e+01  # Hw SPCE
    885     292    7  -0.847600  2.097905e+00  3.817714e+00  1.018217e+01  # Ow SPCE
    886     292    6   0.423800  1.716616e+00  3.583461e+00  9.287886e+00  # Hw SPCE
    887     293    6   0.423800  1.696666e+01  1.302847e+01  6.572472e+00  # Hw SPCE
    888     293    7  -0.847600  1.729504e+01  1.395070e+01  6.776567e+00  # Ow SPCE
    889     293    6   0.423800  1.741282e+01  1.445898e+01  5.923467e+00  # Hw SPCE
    890     294    6   0.423800  2.298016e+01  9.483823e+00  1.723104e+01  # Hw SPCE
    891     294    7  -0.847600  2.396740e+01  9.581728e+00  1.710550e+01  # Ow SPCE
    892     294    6   0.423800  2.420566e+01  1.055263e+01  1.708130e+01  # Hw SPCE
    893     295    6   0.423800  1.093385e+01  1.700319e+01  1.279074e+01  # Hw SPCE
    894     295    7  -0.847600  1.072344e+01  1.798029e+01  1.282221e+01  # Ow SPCE
    895     295    6   0.423800  1.157444e+01  1.850520e+01  1.280569e+01  # Hw SPCE
    896     296    6   0.423800  4.317951e+00  2.825009e+00  2.279394e+01  # Hw SPCE
    897     296    7  -0.847600  4.416463e+00  1.874991e+00  2.309019e+01  # Ow SPCE
    898     296    6   0.423800  3.516438e+00  1.500165e+00  2.331258e+01  # Hw SPCE
    899     297    6   0.423800  2.218789e+01  4.446349e+00  2.201829e+01  # Hw SPCE
    900     297    7  -0.847600  2.203241e+01  3.587273e+00  2.153063e+01  # Ow SPCE
    901     297    6   0.423800  2.109464e+01  3.278645e+00  2.168981e+01  # Hw SPCE
    902     298    6   0.423800  1.758665e+01  2.260952e+01  8.898394e+00  # Hw SPCE
    903     298    7  -0.847600  1.768045e+01  2.203672e+01  8.084083e+00  # Ow SPCE
    904     298    6   0.423800  1.683852e+01  2.151553e+01  7.944391e+00  # Hw SPCE
    905     299    6   0.423800  2.200626e+01  2.176708e+01  2.369470e+01  # Hw SPCE
    906     299    7  -0.847600  2.144255e+01  2.204140e+01  2.291561e+01  # Ow SPCE
    907     299    6   0.423800  2.049345e+01  2.177264e+01  2.307986e+01  # Hw SPCE
    908     300    6   0.423800  2.004500e+01  1.899892e+01  8.019459e+00  # Hw SPCE
    909     300    7  -0.847600  2.008170e+01  1.999823e+01  8.025470e+00  # Ow SPCE
    910     300    6   0.423800  1.915195e+01  2.036580e+01  8.046704e+00  # Hw SPCE
    911     301    6   0.423800  1.970108e+01  2.094820e+01  1.418466e+01  # Hw SPCE
    912     301    7  -0.847600  1.911883e+01  2.015912e+01  1.438044e+01  # Ow SPCE
    913     301    6   0.423800  1.932076e+01  1.981523e+01  1.529748e+01  # Hw SPCE
    914     302    6   0.423800  3.060206e+00  4.770700e+00  1.675973e+01  # Hw SPCE
    915     302    7  -0.847600  2.245236e+00  5.346607e+00  1.682419e+01  # Ow SPCE
    916     302    6   0.423800  2.518448e+00  6.307846e+00  1.686125e+01  # Hw SPCE
    917     303    6   0.423800  1.529604e+01  1.290198e+01  1.319918e+01  # Hw SPCE
    918     303    7  -0.847600  1.539317e+01  1.385493e+01  1.348632e+01  # Ow SPCE
    919     303    6   0.423800  1.448730e+01  1.426459e+01  1.359394e+01  # Hw SPCE
    920     304    6   0.423800  1.698088e+01  1.182611e+01  1.194976e+01  # Hw SPCE
    921     304    7  -0.847600  1.703306e+01  1.281983e+01  1.185075e+01  # Ow SPCE
    922     304    6   0.423800  1.798933e+01  1.310924e+01  1.189296e+01  # Hw SPCE
    923     305    6   0.423800  2.463431e+01  4.936373e+00  1.154040e+01  # Hw SPCE
    924     305    7  -0.847600  2.376826e+01  4.634356e+00  1.114199e+01  # Ow SPCE
    925     305    6   0.423800  2.328422e+01  4.054366e+00  1.179721e+01  # Hw SPCE
    926     306    6   0.423800  2.401865e+01  1.730208e+01  6.975370e+00  # Hw SPCE
    927     306    7  -0.847600  2.470583e+01  1.729492e+01  7.701825e+00  # Ow SPCE
    928     306    6   0.423800  2.482000e+01  1.822089e+01  8.061768e+00  # Hw SPCE
    929     307    6   0.423800  9.018896e+00  1.678079e+01  4.509576e+00  # Hw SPCE
    930     307    7  -0.847600  8.022117e+00  1.686081e+01  4.514809e+00  # Ow SPCE
    931     307    6   0.423800  7.614501e+00  1.594776e+01  4.528307e+00  # Hw SPCE
    932     308    6   0.423800  2.358935e+01  1.751035e+00  1.141556e+01  # Hw SPCE
    933     308    7  -0.847600  2.262220e+01  1.500001e+00  1.145569e+01  # Ow SPCE
    934     308    6   0.423800  2.208207e+01  2.172224e+00  1.094936e+01  # Hw SPCE
    935     309    6   0.423800  1.277824e+01  1.895712e+01  2.203755e+01  # Hw SPCE
    936     309    7  -0.847600  1.302633e+01  1.988178e+01  2.232644e+01  # Ow SPCE
    937     309    6   0.423800  1.312139e+01  1.990582e+01  2.332162e+01  # Hw SPCE
    938     310    6   0.423800  2.168543e+01  8.665770e+00  3.395667e+00  # Hw SPCE
    939     310    7  -0.847600  2.201129e+01  9.474604e+00  2.906172e+00  # Ow SPCE
    940     310    6   0.423800  2.291547e+01  9.289465e+00  2.521230e+00  # Hw SPCE
    941     311    6   0.423800  1.481660e+01  2.471489e+01  2.089258e+01  # Hw SPCE
    942     311    7  -0.847600  1.470934e+01  2.400198e+01  2.158559e+01  # Ow SPCE
    943     311    6   0.423800  1.541379e+01  2.330389e+01  2.145745e+01  # Hw SPCE
    944     312    6   0.423800  1.777606e+01  2.264014e+01  1.145080e+01  # Hw SPCE
    945     312    7  -0.847600  1.716734e+01  2.184684e+01  1.143968e+01  # Ow SPCE
    946     312    6   0.423800  1.769529e+01  2.101890e+01  1.162885e+01  # Hw SPCE
    947     313    6   0.423800  4.165226e+00  1.594896e+00  1.659984e+01  # Hw SPCE
    948     313    7  -0.847600  4.841316e+00  2.272972e+00  1.631155e+01  # Ow SPCE
    949     313    6   0.423800  4.583791e+00  3.171941e+00  1.666586e+01  # Hw SPCE
    950     314    6   0.423800  3.962278e+00  8.267650e+00  1.392704e+01  # Hw SPCE
    951     314    7  -0.847600  4.599317e+00  8.239424e+00  1.315672e+01  # Ow SPCE
    952     314    6   0.423800  4.275204e+00  7.578142e+00  1.248022e+01  # Hw SPCE
    953     315    6   0.423800  5.556341e+00  3.193263e+00  1.105617e+01  # Hw SPCE
    954     315    7  -0.847600  5.847100e+00  4.114026e+00  1.131627e+01  # Ow SPCE
    955     315    6   0.423800  6.830234e+00  4.113905e+00  1.149916e+01  # Hw SPCE
    956     316    6   0.423800  1.534916e+01  7.133706e+00  1.841393e+01  # Hw SPCE
    957     316    7  -0.847600  1.486089e+01  6.261015e+00  1.841212e+01  # Ow SPCE
    958     316    6   0.423800  1.552086e+01  5.509806e+00  1.842361e+01  # Hw SPCE
    959     317    6   0.423800  2.311794e+01  2.482000e+01  5.479489e+00  # Hw SPCE
    960     317    7  -0.847600  2.249058e+01  2.432308e+01  6.079072e+00  # Ow SPCE
    961     317    6   0.423800  2.238944e+01  2.481998e+01  6.940966e+00  # Hw SPCE
    962     318    6   0.423800  4.400818e+00  2.121433e+01  2.496558e+00  # Hw SPCE
    963     318    7  -0.847600  3.809343e+00  2.201178e+01  2.377239e+00  # Ow SPCE
    964     318    6   0.423800  2.852279e+00  2.172238e+01  2.393873e+00  # Hw SPCE
    965     319    6   0.423800  1.293256e+01  1.610362e+01  1.123999e+01  # Hw SPCE
    966     319    7  -0.847600  1.295675e+01  1.637520e+01  1.220210e+01  # Ow SPCE
    967     319    6   0.423800  1.290793e+01  1.556039e+01  1.277977e+01  # Hw SPCE
    968     320    6   0.423800  2.372099e+00  1.437741e+01  5.990414e+00  # Hw SPCE
    969     320    7  -0.847600  2.019240e+00  1.524723e+01  5.645581e+00  # Ow SPCE
    970     320    6   0.423800  2.114323e+00  1.594893e+01  6.351681e+00  # Hw SPCE
    971     321    6   0.423800  1.680590e+01  1.685704e+01  5.407068e+00  # Hw SPCE
    972     321    7  -0.847600  1.586783e+01  1.701845e+01  5.713612e+00  # Ow SPCE
    973     321    6   0.423800  1.587549e+01  1.731336e+01  6.669106e+00  # Hw SPCE
    974     322    6   0.423800  1.422119e+01  1.446728e+01  2.275248e+01  # Hw SPCE
    975     322    7  -0.847600  1.519656e+01  1.448960e+01  2.253307e+01  # Ow SPCE
    976     322    6   0.423800  1.572858e+01  1.449728e+01  2.337977e+01  # Hw SPCE
    977     323    6   0.423800  5.722172e+00  6.878493e+00  8.720423e+00  # Hw SPCE
    978     323    7  -0.847600  5.780317e+00  6.059453e+00  9.291205e+00  # Ow SPCE
    979     323    6   0.423800  4.859673e+00  5.768713e+00  9.551752e+00  # Hw SPCE
    980     324    6   0.423800  1.107510e+01  1.372275e+01  2.271998e+01  # Hw SPCE
    981     324    7  -0.847600  1.116884e+01  1.325522e+01  2.184099e+01  # Ow SPCE
    982     324    6   0.423800  1.091088e+01  1.229470e+01  2.194517e+01  # Hw SPCE
    983     325    6   0.423800  1.013538e+01  1.885337e+01  1.966782e+01  # Hw SPCE
    984     325    7  -0.847600  1.045658e+01  1.928165e+01  2.051245e+01  # Ow SPCE
    985     325    6   0.423800  1.030170e+01  1.866068e+01  2.128083e+01  # Hw SPCE
    986     326    6   0.423800  3.861162e+00  1.697715e+00  1.500012e+00  # Hw SPCE
    987     326    7  -0.847600  4.493155e+00  2.468368e+00  1.581742e+00  # Ow SPCE
    988     326    6   0.423800  3.978982e+00  3.325575e+00  1.553078e+00  # Hw SPCE
    989     327    6   0.423800  6.960210e+00  3.803400e+00  1.371643e+01  # Hw SPCE
    990     327    7  -0.847600  6.286316e+00  3.087740e+00  1.390000e+01  # Ow SPCE
    991     327    6   0.423800  6.712281e+00  2.358117e+00  1.443498e+01  # Hw SPCE
    992     328    6   0.423800  2.059440e+01  1.466302e+01  1.518681e+01  # Hw SPCE
    993     328    7  -0.847600  2.129089e+01  1.520905e+01  1.565239e+01  # Ow SPCE
    994     328    6   0.423800  2.219617e+01  1.483261e+01  1.545552e+01  # Hw SPCE
    995     329    6   0.423800  1.608255e+01  2.312314e+01  2.482305e+01  # Hw SPCE
    996     329    7  -0.847600  1.650427e+01  2.239682e+01  2.428027e+01  # Ow SPCE
    997     329    6   0.423800  1.654594e+01  2.155729e+01  2.482198e+01  # Hw SPCE
    998     330    6   0.423800  8.719889e+00  1.997486e+00  1.700284e+01  # Hw SPCE
    999     330    7  -0.847600  9.042553e+00  1.618299e+00  1.787008e+01  # Ow SPCE
   1000     330    6   0.423800  1.003467e+01  1.498641e+00  1.783298e+01  # Hw SPCE
   1001     331    6   0.423800  5.146524e+00  6.001632e+00  2.021648e+01  # Hw SPCE
   1002     331    7  -0.847600  5.958301e+00  5.430676e+00  2.009389e+01  # Ow SPCE
   1003     331    6   0.423800  6.700197e+00  5.983259e+00  1.971409e+01  # Hw SPCE
   1004     332    6   0.423800  1.042204e+01  2.482019e+01  1.154457e+01  # Hw SPCE
   1005     332    7  -0.847600  1.015551e+01  2.445410e+01  1.243616e+01  # Ow SPCE
   1006     332    6   0.423800  1.078148e+01  2.371849e+01  1.269508e+01  # Hw SPCE
   1007     333    6   0.423800  7.595155e+00  5.934098e+00  1.052821e+01  # Hw SPCE
   1008     333    7  -0.847600  7.813264e+00  6.896925e+00  1.068755e+01  # Ow SPCE
   1009     333    6   0.423800  7.017351e+00  7.460151e+00  1.046552e+01  # Hw SPCE
   1010     334    6   0.423800  7.931300e+00  7.381449e+00  1.852326e+00  # Hw SPCE
   1011     334    7  -0.847600  8.523228e+00  8.146879e+00  2.104790e+00  # Ow SPCE
   1012     334    6   0.423800  9.319380e+00  8.166130e+00  1.500000e+00  # Hw SPCE
   1013     335    6   0.423800  2.072594e+01  1.553201e+01  1.235471e+01  # Hw SPCE
   1014     335    7  -0.847600  1.978809e+01  1.518975e+01  1.229722e+01  # Ow SPCE
   1015     335    6   0.423800  1.976429e+01  1.423260e+01  1.258584e+01  # Hw SPCE
   1016     336    6   0.423800  1.378456e+01  2.342594e+01  7.139443e+00  # Hw SPCE
   1017     336    7  -0.847600  1.435535e+01  2.328819e+01  7.948895e+00  # Ow SPCE
   1018     336    6   0.423800  1.483014e+01  2.241106e+01  7.876600e+00  # Hw SPCE
   1019     337    6   0.423800  2.206746e+01  1.270473e+01  1.505390e+01  # Hw SPCE
   1020     337    7  -0.847600  2.223983e+01  1.172124e+01  1.510904e+01  # Ow SPCE
   1021     337    6   0.423800  2.249840e+01  1.148009e+01  1.604445e+01  # Hw SPCE
   1022     338    6   0.423800  2.099453e+01  2.898736e+00  1.838027e+01  # Hw SPCE
   1023     338    7  -0.847600  2.069415e+01  3.491420e+00  1.763294e+01  # Ow SPCE
   1024     338    6   0.423800  2.017271e+01  2.953911e+00  1.697023e+01  # Hw SPCE
   1025     339    6   0.423800  2.082287e+01  5.298655e+00  1.579997e+01  # Hw SPCE
   1026     339    7  -0.847600  1.983311e+01  5.430090e+00  1.574442e+01  # Ow SPCE
   1027     339    6   0.423800  1.938416e+01  4.542322e+00  1.564288e+01  # Hw SPCE
   1028     340    6   0.423800  1.127748e+01  1.681104e+00  1.602177e+01  # Hw SPCE
   1029     340    7  -0.847600  1.058297e+01  2.389912e+00  1.589831e+01  # Ow SPCE
   1030     340    6   0.423800  1.084756e+01  3.208271e+00  1.640849e+01  # Hw SPCE
   1031     341    6   0.423800  2.736935e+00  2.257632e+01  1.816748e+01  # Hw SPCE
   1032     341    7  -0.847600  2.913835e+00  2.166583e+01  1.854125e+01  # Ow SPCE
   1033     341    6   0.423800  2.097153e+00  2.109825e+01  1.843693e+01  # Hw SPCE
   1034     342    6   0.423800  2.133955e+00  1.055174e+01  2.186874e+01  # Hw SPCE
   1035     342    7  -0.847600  2.354399e+00  1.048205e+01  2.284165e+01  # Ow SPCE
   1036     342    6   0.423800  2.999641e+00  9.731501e+00  2.298428e+01  # Hw SPCE
   1037     343    6   0.423800  5.768418e+00  2.368485e+01  2.482643e+01  # Hw SPCE
   1038     343    7  -0.847600  5.650995e+00  2.461884e+01  2.448897e+01  # Ow SPCE
   1039     343    6   0.423800  4.675660e+00  2.482142e+01  2.440131e+01  # Hw SPCE
   1040     344    6   0.423800  4.397763e+00  1.096811e+01  6.013448e+00  # Hw SPCE
   1041     344    7  -0.847600  5.243839e+00  1.109209e+01  6.531891e+00  # Ow SPCE
   1042     344    6   0.423800  5.952487e+00  1.049125e+01  6.162010e+00  # Hw SPCE
   1043     345    6   0.423800  2.472748e+01  8.960173e+00  1.221067e+01  # Hw SPCE
   1044     345    7  -0.847600  2.377028e+01  8.868240e+00  1.248513e+01  # Ow SPCE
   1045     345    6   0.423800  2.320054e+01  9.454126e+00  1.190882e+01  # Hw SPCE
   1046     346    6   0.423800  1.277763e+01  5.746458e+00  1.175253e+01  # Hw SPCE
   1047     346    7  -0.847600  1.347353e+01  6.425767e+00  1.198549e+01  # Ow SPCE
   1048     346    6   0.423800  1.379311e+01  6.268593e+00  1.291992e+01  # Hw SPCE
   1049     347    6   0.423800  1.595795e+01  3.301481e+00  1.308500e+01  # Hw SPCE
   1050     347    7  -0.847600  1.604572e+01  2.576551e+00  1.376821e+01  # Ow SPCE
   1051     347    6   0.423800  1.576170e+01  2.924434e+00  1.466169e+01  # Hw SPCE
   1052     348    6   0.423800  1.194020e+01  2.229282e+01  6.743823e+00  # Hw SPCE
   1053     348    7  -0.847600  1.190744e+01  2.129641e+01  6.665750e+00  # Ow SPCE
   1054     348    6   0.423800  1.103642e+01  2.102248e+01  6.257969e+00  # Hw SPCE
   1055     349    6   0.423800  3.455810e+00  1.575122e+01  1.907675e+01  # Hw SPCE
   1056     349    7  -0.847600  3.407082e+00  1.636098e+01  1.986784e+01  # Ow SPCE
   1057     349    6   0.423800  4.290314e+00  1.636992e+01  2.033669e+01  # Hw SPCE
   1058     350    6   0.423800  1.255015e+01  2.051839e+00  9.638069e+00  # Hw SPCE
   1059     350    7  -0.847600  1.241286e+01  1.587182e+00  8.763286e+00  # Ow SPCE
   1060     350    6   0.423800  1.180255e+01  2.132290e+00  8.188502e+00  # Hw SPCE
   1061     351    6   0.423800  1.170736e+01  2.481683e+01  1.651956e+01  # Hw SPCE
   1062     351    7  -0.847600  1.235308e+01  2.406013e+01  1.662189e+01  # Ow SPCE
   1063     351    6   0.423800  1.191901e+01  2.331838e+01  1.713316e+01  # Hw SPCE
   1064     352    6   0.423800  1.756398e+01  1.668778e+01  2.410748e+01  # Hw SPCE
   1065     352    7  -0.847600  1.786002e+01  1.761011e+01  2.385914e+01  # Ow SPCE
   1066     352    6   0.423800  1.705816e+01  1.818574e+01  2.369896e+01  # Hw SPCE
   1067     353    6   0.423800  9.274656e+00  2.886085e+00  2.341040e+01  # Hw SPCE
   1068     353    7  -0.847600  8.898404e+00  2.008541e+00  2.370764e+01  # Ow SPCE
   1069     353    6   0.423800  7.959542e+00  2.139157e+00  2.402619e+01  # Hw SPCE
   1070     354    6   0.423800  1.608549e+01  1.781189e+01  1.046548e+01  # Hw SPCE
   1071     354    7  -0.847600  1.559576e+01  1.721070e+01  9.834020e+00  # Ow SPCE
   1072     354    6   0.423800  1.592825e+01  1.736301e+01  8.903295e+00  # Hw SPCE
   1073     355    6   0.423800  2.151461e+00  1.439168e+01  1.118948e+01  # Hw SPCE
   1074     355    7  -0.847600  1.499715e+00  1.387375e+01  1.063542e+01  # Ow SPCE
   1075     355    6   0.423800  1.595160e+00  1.289822e+01  1.083347e+01  # Hw SPCE
   1076     356    6   0.423800  8.879721e+00  5.929334e+00  1.681366e+01  # Hw SPCE
   1077     356    7  -0.847600  9.140460e+00  5.135787e+00  1.736348e+01  # Ow SPCE
   1078     356    6   0.423800  8.975684e+00  4.299400e+00  1.684069e+01  # Hw SPCE
   1079     357    6   0.423800  7.833341e+00  2.133007e+01  1.704224e+01  # Hw SPCE
   1080     357    7  -0.847600  6.926290e+00  2.092340e+01  1.693325e+01  # Ow SPCE
   1081     357    6   0.423800  6.254160e+00  2.164610e+01  1.677217e+01  # Hw SPCE
   1082     358    6   0.423800  7.278969e+00  1.610431e+01  1.773202e+01  # Hw SPCE
   1083     358    7  -0.847600  6.723545e+00  1.634023e+01  1.852942e+01  # Ow SPCE
   1084     358    6   0.423800  6.051354e+00  1.561812e+01  1.869286e+01  # Hw SPCE
   1085     359    6   0.423800  2.483308e+01  1.155387e+01  1.274100e+01  # Hw SPCE
   1086     359    7  -0.847600  2.385290e+01  1.168721e+01  1.259453e+01  # Ow SPCE
   1087     359    6   0.423800  2.334020e+01  1.117513e+01  1.328367e+01  # Hw SPCE
   1088     360    6   0.423800  1.337656e+01  7.994224e+00  9.856478e+00  # Hw SPCE
   1089     360    7  -0.847600  1.256148e+01  7.484643e+00  9.580843e+00  # Ow SPCE
   1090     360    6   0.423800  1.272916e+01  6.504600e+00  9.687617e+00  # Hw SPCE
   1091     361    6   0.423800  6.846040e+00  1.510396e+00  1.900933e+01  # Hw SPCE
   1092     361    7  -0.847600  6.155612e+00  1.487043e+00  1.828631e+01  # Ow SPCE
   1093     361    6   0.423800  6.605862e+00  1.523902e+00  1.739417e+01  # Hw SPCE
   1094     362    6   0.423800  2.076646e+01  1.875656e+01  1.399788e+01  # Hw SPCE
   1095     362    7  -0.847600  2.077485e+01  1.788929e+01  1.350010e+01  # Ow SPCE
   1096     362    6   0.423800  2.140311e+01  1.795595e+01  1.272495e+01  # Hw SPCE
   1097     363    6   0.423800  2.166034e+01  8.633920e+00  1.959404e+01  # Hw SPCE
   1098     363    7  -0.847600  2.236326e+01  7.944763e+00  1.977004e+01  # Ow SPCE
   1099     363    6   0.423800  2.205530e+01  7.058588e+00  1.942384e+01  # Hw SPCE
   1100     364    6   0.423800  1.871130e+01  1.124915e+01  1.318977e+01  # Hw SPCE
   1101     364    7  -0.847600  1.822776e+01  1.037699e+01  1.311542e+01  # Ow SPCE
   1102     364    6   0.423800  1.860474e+01  9.729369e+00  1.377759e+01  # Hw SPCE
   1103     365    6   0.423800  2.480804e+01  2.021175e+01  1.810420e+01  # Hw SPCE
   1104     365    7  -0.847600  2.425308e+01  1.938298e+01  1.803231e+01  # Ow SPCE
   1105     365    6   0.423800  2.477308e+01  1.860250e+01  1.837937e+01  # Hw SPCE
   1106     366    6   0.423800  2.677778e+00  1.078685e+01  2.893249e+00  # Hw SPCE
   1107     366    7  -0.847600  2.979582e+00  9.959484e+00  3.366942e+00  # Ow SPCE
   1108     366    6   0.423800  3.259267e+00  1.019197e+01  4.298460e+00  # Hw SPCE
   1109     367    6   0.423800  1.733900e+01  8.042392e+00  1.817650e+01  # Hw SPCE
   1110     367    7  -0.847600  1.738431e+01  8.030301e+00  1.917540e+01  # Ow SPCE
   1111     367    6   0.423800  1.733898e+01  7.085434e+00  1.949970e+01  # Hw SPCE
   1112     368    6   0.423800  6.965771e+00  1.158025e+01  1.455352e+01  # Hw SPCE
   1113     368    7  -0.847600  7.716621e+00  1.100259e+01  1.487372e+01  # Ow SPCE
   1114     368    6   0.423800  7.438453e+00  1.052641e+01  1.570791e+01  # Hw SPCE
   1115     369    6   0.423800  4.219579e+00  2.272295e+01  2.315060e+01  # Hw SPCE
   1116     369    7  -0.847600  4.411562e+00  2.218027e+01  2.396831e+01  # Ow SPCE
   1117     369    6   0.423800  3.714951e+00  2.236446e+01  2.466172e+01  # Hw SPCE
   1118     370    6   0.423800  2.260113e+01  2.357107e+01  2.487205e+00  # Hw SPCE
   1119     370    7  -0.847600  2.339301e+01  2.305957e+01  2.153587e+00  # Ow SPCE
   1120     370    6   0.423800  2.309047e+01  2.236583e+01  1.499989e+00  # Hw SPCE
   1121     371    6   0.423800  3.763980e+00  7.928022e+00  3.679649e+00  # Hw SPCE
   1122     371    7  -0.847600  4.589163e+00  8.492047e+00  3.710437e+00  # Ow SPCE
   1123     371    6   0.423800  5.388701e+00  7.906064e+00  3.842205e+00  # Hw SPCE
   1124     372    6   0.423800  1.430475e+01  1.499915e+00  1.548906e+01  # Hw SPCE
   1125     372    7  -0.847600  1.336044e+01  1.782756e+00  1.532086e+01  # Ow SPCE
   1126     372    6   0.423800  1.321167e+01  2.693552e+00  1.570598e+01  # Hw SPCE
   1127     373    6   0.423800  4.327185e+00  7.962355e+00  1.607387e+01  # Hw SPCE
   1128     373    7  -0.847600  3.363506e+00  8.214304e+00  1.616244e+01  # Ow SPCE
   1129     373    6   0.423800  3.291038e+00  9.096492e+00  1.662773e+01  # Hw SPCE
   1130     374    6   0.423800  2.708300e+00  1.935100e+01  2.322647e+01  # Hw SPCE
   1131     374    7  -0.847600  2.727365e+00  1.973905e+01  2.414791e+01  # Ow SPCE
   1132     374    6   0.423800  2.401632e+00  2.068405e+01  2.411841e+01  # Hw SPCE
   1133     375    6   0.423800  2.021306e+01  5.949487e+00  1.064603e+01  # Hw SPCE
   1134     375    7  -0.847600  2.088516e+01  5.266112e+00  1.036092e+01  # Ow SPCE
   1135     375    6   0.423800  2.168250e+01  5.311469e+00  1.096274e+01  # Hw SPCE
   1136     376    6   0.423800  6.830321e+00  4.211196e+00  8.722719e+00  # Hw SPCE
   1137     376    7  -0.847600  7.522374e+00  3.776130e+00  9.298723e+00  # Ow SPCE
   1138     376    6   0.423800  8.345744e+00  3.603845e+00  8.758001e+00  # Hw SPCE
   1139     377    6   0.423800  9.489015e+00  1.157542e+01  1.642273e+01  # Hw SPCE
   1140     377    7  -0.847600  8.747806e+00  1.162605e+01  1.709209e+01  # Ow SPCE
   1141     377    6   0.423800  9.130795e+00  1.178442e+01  1.800216e+01  # Hw SPCE
   1142     378    6   0.423800  1.222115e+01  1.669178e+01  1.864777e+01  # Hw SPCE
   1143     378    7  -0.847600  1.165145e+01  1.748995e+01  1.884360e+01  # Ow SPCE
   1144     378    6   0.423800  1.182339e+01  1.819825e+01  1.815895e+01  # Hw SPCE
   1145     379    6   0.423800  5.163271e+00  9.163355e+00  1.803725e+01  # Hw SPCE
   1146     379    7  -0.847600  5.220835e+00  8.165841e+00  1.807791e+01  # Ow SPCE
   1147     379    6   0.423800  4.315183e+00  7.787215e+00  1.826879e+01  # Hw SPCE
   1148     380    6   0.423800  4.025662e+00  2.080910e+01  9.116126e+00  # Hw SPCE
   1149     380    7  -0.847600  4.831071e+00  2.096945e+01  9.686744e+00  # Ow SPCE
   1150     380    6   0.423800  4.755807e+00  2.186490e+01  1.012548e+01  # Hw SPCE
   1151     381    6   0.423800  1.634017e+01  1.941815e+01  1.231866e+01  # Hw SPCE
   1152     381    7  -0.847600  1.701067e+01  1.869677e+01  1.249197e+01  # Ow SPCE
   1153     381    6   0.423800  1.769401e+01  1.902637e+01  1.314345e+01  # Hw SPCE
   1154     382    6   0.423800  5.061405e+00  1.288696e+01  1.761246e+01  # Hw SPCE
   1155     382    7  -0.847600  4.228657e+00  1.317103e+01  1.713724e+01  # Ow SPCE
   1156     382    6   0.423800  3.783648e+00  1.390298e+01  1.765320e+01  # Hw SPCE
   1157     383    6   0.423800  8.040008e+00  1.853158e+01  8.958836e+00  # Hw SPCE
   1158     383    7  -0.847600  8.458652e+00  1.894693e+01  8.151230e+00  # Ow SPCE
   1159     383    6   0.423800  8.638772e+00  1.823932e+01  7.467967e+00  # Hw SPCE
   1160     384    6   0.423800  8.294504e+00  7.840105e+00  1.262021e+01  # Hw SPCE
   1161     384    7  -0.847600  7.868354e+00  8.729393e+00  1.245420e+01  # Ow SPCE
   1162     384    6   0.423800  8.529313e+00  9.455970e+00  1.264186e+01  # Hw SPCE
   1163     385    6   0.423800  1.507819e+00  2.130786e+01  2.069684e+01  # Hw SPCE
   1164     385    7  -0.847600  1.499331e+00  2.107174e+01  2.166852e+01  # Ow SPCE
   1165     385    6   0.423800  2.149529e+00  2.165251e+01  2.215836e+01  # Hw SPCE
   1166     386    6   0.423800  6.996631e+00  8.010177e+00  5.353596e+00  # Hw SPCE
   1167     386    7  -0.847600  7.773484e+00  8.454311e+00  4.907229e+00  # Ow SPCE
   1168     386    6   0.423800  7.484430e+00  8.822100e+00  4.023386e+00  # Hw SPCE
   1169     387    6   0.423800  1.147186e+01  1.335761e+01  2.634527e+00  # Hw SPCE
   1170     387    7  -0.847600  1.189199e+01  1.393262e+01  3.336569e+00  # Ow SPCE
   1171     387    6   0.423800  1.287404e+01  1.374794e+01  3.374920e+00  # Hw SPCE
   1172     388    6   0.423800  1.819357e+01  6.327082e+00  1.690289e+01  # Hw SPCE
   1173     388    7  -0.847600  1.729122e+01  6.051884e+00  1.723461e+01  # Ow SPCE
   1174     388    6   0.423800  1.661133e+01  6.205744e+00  1.651762e+01  # Hw SPCE
   1175     389    6   0.423800  1.653981e+01  2.155980e+00  9.688599e+00  # Hw SPCE
   1176     389    7  -0.847600  1.729181e+01  1.500003e+00  9.623818e+00  # Ow SPCE
   1177     389    6   0.423800  1.816392e+01  1.986449e+00  9.676579e+00  # Hw SPCE
   1178     390    6   0.423800  2.024087e+01  1.212789e+01  7.594380e+00  # Hw SPCE
   1179     390    7  -0.847600  1.925631e+01  1.228411e+01  7.515366e+00  # Ow SPCE
   1180     390    6   0.423800  1.878605e+01  1.140658e+01  7.421610e+00  # Hw SPCE
   1181     391    6   0.423800  1.422219e+01  1.996435e+01  1.205180e+01  # Hw SPCE
   1182     391    7  -0.847600  1.418549e+01  2.038800e+01  1.295688e+01  # Ow SPCE
   1183     391    6   0.423800  1.323334e+01  2.045536e+01  1.325501e+01  # Hw SPCE
   1184     392    6   0.423800  2.011922e+01  4.349123e+00  1.357873e+01  # Hw SPCE
   1185     392    7  -0.847600  2.068662e+01  4.450195e+00  1.276151e+01  # Ow SPCE
   1186     392    6   0.423800  2.027721e+01  3.938575e+00  1.200611e+01  # Hw SPCE
   1187     393    6   0.423800  5.849870e+00  1.019551e+01  2.118193e+01  # Hw SPCE
   1188     393    7  -0.847600  6.096910e+00  1.014416e+01  2.214957e+01  # Ow SPCE
   1189     393    6   0.423800  6.952854e+00  9.636656e+00  2.224857e+01  # Hw SPCE
   1190     394    6   0.423800  1.096808e+01  2.027063e+01  2.397787e+01  # Hw SPCE
   1191     394    7  -0.847600  1.094152e+01  1.998045e+01  2.302126e+01  # Ow SPCE
   1192     394    6   0.423800  1.035557e+01  2.060149e+01  2.250071e+01  # Hw SPCE
   1193     395    6   0.423800  1.117126e+01  2.481365e+01  2.186726e+01  # Hw SPCE
   1194     395    7  -0.847600  1.192339e+01  2.482926e+01  2.252609e+01  # Ow SPCE
   1195     395    6   0.423800  1.157180e+01  2.461914e+01  2.343836e+01  # Hw SPCE
   1196     396    6   0.423800  1.021850e+01  6.549299e+00  1.490713e+01  # Hw SPCE
   1197     396    7  -0.847600  1.017191e+01  7.248432e+00  1.562060e+01  # Ow SPCE
   1198     396    6   0.423800  9.581103e+00  7.995857e+00  1.531679e+01  # Hw SPCE
   1199     397    6   0.423800  1.048495e+01  1.144209e+01  2.392795e+01  # Hw SPCE
   1200     397    7  -0.847600  1.058058e+01  1.100490e+01  2.482221e+01  # Ow SPCE
   1201     397    6   0.423800  1.009104e+01  1.013292e+01  2.482100e+01  # Hw SPCE
   1202     398    6   0.423800  1.058996e+01  8.733129e+00  8.870551e+00  # Hw SPCE
   1203     398    7  -0.847600  1.043966e+01  9.655580e+00  8.514890e+00  # Ow SPCE
   1204     398    6   0.423800  1.129456e+01  1.001020e+01  8.136216e+00  # Hw SPCE
   1205     399    6   0.423800  1.554960e+01  1.445349e+01  4.753690e+00  # Hw SPCE
   1206     399    7  -0.847600  1.456073e+01  1.433841e+01  4.659302e+00  # Ow SPCE
   1207     399    6   0.423800  1.416874e+01  1.408500e+01  5.543680e+00  # Hw SPCE
   1208     400    6   0.423800  1.609866e+01  9.892949e+00  1.125824e+01  # Hw SPCE
   1209     400    7  -0.847600  1.527714e+01  1.006083e+01  1.071335e+01  # Ow SPCE
   1210     400    6   0.423800  1.513244e+01  9.296925e+00  1.008445e+01  # Hw SPCE
   1211     401    6   0.423800  2.237661e+01  2.275352e+01  1.312575e+01  # Hw SPCE
   1212     401    7  -0.847600  2.154591e+01  2.223895e+01  1.291328e+01  # Ow SPCE
   1213     401    6   0.423800  2.157895e+01  2.193038e+01  1.196265e+01  # Hw SPCE
   1214     402    6   0.423800  1.554145e+01  2.227841e+00  2.285734e+01  # Hw SPCE
   1215     402    7  -0.847600  1.586222e+01  2.883317e+00  2.354105e+01  # Ow SPCE
   1216     402    6   0.423800  1.521236e+01  3.640449e+00  2.360758e+01  # Hw SPCE
   1217     403    6   0.423800  1.938560e+01  1.993248e+01  2.027421e+01  # Hw SPCE
   1218     403    7  -0.847600  1.989116e+01  1.907136e+01  2.032793e+01  # Ow SPCE
   1219     403    6   0.423800  2.072891e+01  1.914236e+01  1.978651e+01  # Hw SPCE
   1220     404    6   0.423800  1.136076e+01  7.013074e+00  1.285894e+01  # Hw SPCE
   1221     404    7  -0.847600  1.042726e+01  7.371228e+00  1.287615e+01  # Ow SPCE
   1222     404    6   0.423800  1.044157e+01  8.349181e+00  1.266782e+01  # Hw SPCE
   1223     405    6   0.423800  1.183562e+01  1.384801e+01  9.760284e+00  # Hw SPCE
   1224     405    7  -0.847600  1.257948e+01  1.451634e+01  9.759872e+00  # Ow SPCE
   1225     405    6   0.423800  1.341234e+01  1.408787e+01  9.409510e+00  # Hw SPCE
   1226     406    6   0.423800  7.434075e+00  2.401156e+01  9.086099e+00  # Hw SPCE
   1227     406    7  -0.847600  6.469513e+00  2.409330e+01  8.835225e+00  # Ow SPCE
   1228     406    6   0.423800  6.396466e+00  2.435696e+01  7.873380e+00  # Hw SPCE
   1229     407    6   0.423800  1.970257e+01  1.161486e+01  2.153263e+01  # Hw SPCE
   1230     407    7  -0.847600  2.067385e+01  1.185169e+01  2.155582e+01  # Ow SPCE
   1231     407    6   0.423800  2.087121e+01  1.251991e+01  2.083852e+01  # Hw SPCE
   1232     408    6   0.423800  9.311756e+00  2.253795e+01  2.404917e+01  # Hw SPCE
   1233     408    7  -0.847600  9.593447e+00  2.343146e+01  2.439888e+01  # Ow SPCE
   1234     408    6   0.423800  1.049480e+01  2.335359e+01  2.482490e+01  # Hw SPCE
   1235     409    6   0.423800  1.619756e+01  1.896621e+01  4.745297e+00  # Hw SPCE
   1236     409    7  -0.847600  1.654142e+01  1.914800e+01  3.824038e+00  # Ow SPCE
   1237     409    6   0.423800  1.578232e+01  1.912114e+01  3.173612e+00  # Hw SPCE
   1238     410    6   0.423800  2.331127e+01  5.710676e+00  6.689398e+00  # Hw SPCE
   1239     410    7  -0.847600  2.293097e+01  6.411804e+00  6.086243e+00  # Ow SPCE
   1240     410    6   0.423800  2.244087e+01  5.973300e+00  5.332907e+00  # Hw SPCE
   1241     411    6   0.423800  2.030257e+01  1.030975e+01  9.476085e+00  # Hw SPCE
   1242     411    7  -0.847600  1.932503e+01  1.033573e+01  9.266975e+00  # Ow SPCE
   1243     411    6   0.423800  1.890666e+01  9.463542e+00  9.520460e+00  # Hw SPCE
   1244     412    6   0.423800  1.940247e+01  1.410288e+01  2.219834e+01  # Hw SPCE
   1245     412    7  -0.847600  1.960932e+01  1.505177e+01  2.243671e+01  # Ow SPCE
   1246     412    6   0.423800  1.875903e+01  1.553750e+01  2.263935e+01  # Hw SPCE
   1247     413    6   0.423800  6.136513e+00  3.589320e+00  1.893207e+01  # Hw SPCE
   1248     413    7  -0.847600  6.754994e+00  3.597349e+00  1.814632e+01  # Ow SPCE
   1249     413    6   0.423800  7.139562e+00  4.513610e+00  1.803418e+01  # Hw SPCE
   1250     414    6   0.423800  1.609954e+01  1.618768e+00  7.337563e+00  # Hw SPCE
   1251     414    7  -0.847600  1.667252e+01  2.420302e+00  7.508571e+00  # Ow SPCE
   1252     414    6   0.423800  1.763219e+01  2.141877e+00  7.547213e+00  # Hw SPCE
   1253     415    6   0.423800  5.524931e+00  2.802606e+00  2.095462e+01  # Hw SPCE
   1254     415    7  -0.847600  6.428959e+00  3.211426e+00  2.107951e+01  # Ow SPCE
   1255     415    6   0.423800  7.086456e+00  2.498406e+00  2.132303e+01  # Hw SPCE
   1256     416    6   0.423800  1.656125e+01  2.482617e+01  1.615108e+01  # Hw SPCE
   1257     416    7  -0.847600  1.568386e+01  2.434667e+01  1.613455e+01  # Ow SPCE
   1258     416    6   0.423800  1.520577e+01  2.449652e+01  1.699999e+01  # Hw SPCE
   1259     417    6   0.423800  1.263457e+01  6.398938e+00  2.048994e+01  # Hw SPCE
   1260     417    7  -0.847600  1.309570e+01  7.272631e+00  2.064491e+01  # Ow SPCE
   1261     417    6   0.423800  1.377167e+01  7.425234e+00  1.992395e+01  # Hw SPCE
   1262     418    6   0.423800  1.718686e+01  4.455247e+00  2.426374e+00  # Hw SPCE
   1263     418    7  -0.847600  1.631021e+01  4.555234e+00  1.955744e+00  # Ow SPCE
   1264     418    6   0.423800  1.574056e+01  3.753901e+00  2.138380e+00  # Hw SPCE
   1265     419    6   0.423800  1.038684e+01  1.327043e+01  1.361036e+01  # Hw SPCE
   1266     419    7  -0.847600  1.047952e+01  1.234132e+01  1.396835e+01  # Ow SPCE
   1267     419    6   0.423800  9.585145e+00  1.200853e+01  1.426726e+01  # Hw SPCE
   1268     420    6   0.423800  2.438617e+01  1.862436e+01  2.183240e+01  # Hw SPCE
   1269     420    7  -0.847600  2.383999e+01  1.923942e+01  2.240107e+01  # Ow SPCE
   1270     420    6   0.423800  2.430524e+01  2.012101e+01  2.248054e+01  # Hw SPCE
   1271     421    6   0.423800  4.850004e+00  5.046327e+00  1.343568e+01  # Hw SPCE
   1272     421    7  -0.847600  4.739271e+00  5.942802e+00  1.386472e+01  # Ow SPCE
   1273     421    6   0.423800  3.777821e+00  6.082494e+00  1.410157e+01  # Hw SPCE
   1274     422    6   0.423800  2.353952e+01  5.484693e+00  1.867507e+01  # Hw SPCE
   1275     422    7  -0.847600  2.342400e+01  5.532768e+00  1.768293e+01  # Ow SPCE
   1276     422    6   0.423800  2.293353e+01  6.371036e+00  1.744470e+01  # Hw SPCE
   1277     423    6   0.423800  2.421228e+01  2.293418e+01  5.185999e+00  # Hw SPCE
   1278     423    7  -0.847600  2.398030e+01  2.266446e+01  4.251419e+00  # Ow SPCE
   1279     423    6   0.423800  2.482002e+01  2.250324e+01  3.732877e+00  # Hw SPCE
   1280     424    6   0.423800  4.055812e+00  1.525610e+01  2.302384e+00  # Hw SPCE
   1281     424    7  -0.847600  4.432279e+00  1.617301e+01  2.169970e+00  # Ow SPCE
   1282     424    6   0.423800  5.405263e+00  1.617038e+01  2.400828e+00  # Hw SPCE
   1283     425    6   0.423800  6.689914e+00  1.306000e+01  2.246039e+01  # Hw SPCE
   1284     425    7  -0.847600  7.427982e+00  1.281175e+01  2.183299e+01  # Ow SPCE
   1285     425    6   0.423800  7.203618e+00  1.194947e+01  2.137897e+01  # Hw SPCE
   1286     426    6   0.423800  5.336983e+00  1.531002e+01  4.463575e+00  # Hw SPCE
   1287     426    7  -0.847600  4.341417e+00  1.540368e+01  4.472332e+00  # Ow SPCE
   1288     426    6   0.423800  3.920931e+00  1.450328e+01  4.360660e+00  # Hw SPCE
   1289     427    6   0.423800  2.154367e+01  8.111077e+00  1.331571e+01  # Hw SPCE
   1290     427    7  -0.847600  2.109473e+01  8.938826e+00  1.365229e+01  # Ow SPCE
   1291     427    6   0.423800  2.170898e+01  9.720013e+00  1.354071e+01  # Hw SPCE
   1292     428    6   0.423800  1.227923e+01  2.216808e+00  2.197662e+01  # Hw SPCE
   1293     428    7  -0.847600  1.195782e+01  3.162327e+00  2.192477e+01  # Ow SPCE
   1294     428    6   0.423800  1.096052e+01  3.171840e+00  2.185199e+01  # Hw SPCE
   1295     429    6   0.423800  2.530630e+00  1.460586e+00  1.378808e+01  # Hw SPCE
   1296     429    7  -0.847600  2.264841e+00  1.653047e+00  1.284346e+01  # Ow SPCE
   1297     429    6   0.423800  1.612369e+00  2.410713e+00  1.282856e+01  # Hw SPCE
   1298     430    6   0.423800  1.040523e+01  2.147715e+01  2.039362e+01  # Hw SPCE
   1299     430    7  -0.847600  9.440218e+00  2.124126e+01  2.027912e+01  # Ow SPCE
   1300     430    6   0.423800  8.904871e+00  2.166317e+01  2.101084e+01  # Hw SPCE
   1301     431    6   0.423800  1.987926e+01  2.306064e+01  9.203652e+00  # Hw SPCE
   1302     431    7  -0.847600  2.061738e+01  2.239138e+01  9.288894e+00  # Ow SPCE
   1303     431    6   0.423800  2.084562e+01  2.202993e+01  8.384871e+00  # Hw SPCE
   1304     432    6   0.423800  5.188562e+00  1.258965e+01  4.757377e+00  # Hw SPCE
   1305     432    7  -0.847600  6.187238e+00  1.255724e+01  4.717450e+00  # Ow SPCE
   1306     432    6   0.423800  6.549862e+00  1.348855e+01  4.683450e+00  # Hw SPCE
   1307     433    6   0.423800  5.670740e+00  5.422595e+00  2.227492e+01  # Hw SPCE
   1308     433    7  -0.847600  6.613556e+00  5.459870e+00  2.260614e+01  # Ow SPCE
   1309     433    6   0.423800  7.236344e+00  5.196786e+00  2.186931e+01  # Hw SPCE
   1310     434    6   0.423800  9.719910e+00  7.590026e+00  4.355702e+00  # Hw SPCE
   1311     434    7  -0.847600  1.054436e+01  7.935994e+00  4.803565e+00  # Ow SPCE
   1312     434    6   0.423800  1.047202e+01  7.793863e+00  5.790766e+00  # Hw SPCE
   1313     435    6   0.423800  7.692016e+00  2.264553e+01  7.380923e+00  # Hw SPCE
   1314     435    7  -0.847600  6.878109e+00  2.221288e+01  7.768698e+00  # Ow SPCE
   1315     435    6   0.423800  7.065868e+00  2.124645e+01  7.944071e+00  # Hw SPCE
   1316     436    6   0.423800  2.455873e+01  1.412622e+01  1.357709e+01  # Hw SPCE
   1317     436    7  -0.847600  2.361319e+01  1.380073e+01  1.357349e+01  # Ow SPCE
   1318     436    6   0.423800  2.301762e+01  1.451095e+01  1.319813e+01  # Hw SPCE
   1319     437    6   0.423800  4.365970e+00  1.209906e+01  1.499747e+00  # Hw SPCE
   1320     437    7  -0.847600  4.780987e+00  1.297002e+01  1.762785e+00  # Ow SPCE
   1321     437    6   0.423800  4.576192e+00  1.316034e+01  2.722909e+00  # Hw SPCE
   1322     438    6   0.423800  1.922712e+01  2.295154e+01  1.566614e+01  # Hw SPCE
   1323     438    7  -0.847600  1.861248e+01  2.353564e+01  1.619629e+01  # Ow SPCE
   1324     438    6   0.423800  1.778751e+01  2.302274e+01  1.643366e+01  # Hw SPCE
   1325     439    6   0.423800  1.104856e+01  4.897195e+00  1.068786e+01  # Hw SPCE
   1326     439    7  -0.847600  1.078839e+01  5.860143e+00  1.061688e+01  # Ow SPCE
   1327     439    6   0.423800  9.796412e+00  5.945159e+00  1.071045e+01  # Hw SPCE
   1328     440    6   0.423800  3.844672e+00  2.078634e+01  2.105488e+01  # Hw SPCE
   1329     440    7  -0.847600  4.169127e+00  2.155399e+01  2.050221e+01  # Ow SPCE
   1330     440    6   0.423800  3.723482e+00  2.239581e+01  2.080676e+01  # Hw SPCE
   1331     441    6   0.423800  1.024679e+01  2.361735e+01  1.856615e+01  # Hw SPCE
   1332     441    7  -0.847600  9.935919e+00  2.287266e+01  1.797556e+01  # Ow SPCE
   1333     441    6   0.423800  9.185559e+00  2.238467e+01  1.842146e+01  # Hw SPCE
   1334     442    6   0.423800  6.193190e+00  1.896582e+00  6.307309e+00  # Hw SPCE
   1335     442    7  -0.847600  7.023199e+00  1.986674e+00  6.857735e+00  # Ow SPCE
   1336     442    6   0.423800  7.248641e+00  2.955025e+00  6.964840e+00  # Hw SPCE
   1337     443    6   0.423800  1.170611e+01  1.450386e+01  5.709745e+00  # Hw SPCE
   1338     443    7  -0.847600  1.172537e+01  1.550244e+01  5.660036e+00  # Ow SPCE
   1339     443    6   0.423800  1.266901e+01  1.581223e+01  5.543560e+00  # Hw SPCE
   1340     444    6   0.423800  5.284079e+00  1.667695e+01  6.187507e+00  # Hw SPCE
   1341     444    7  -0.847600  5.473573e+00  1.764880e+01  6.047553e+00  # Ow SPCE
   1342     444    6   0.423800  6.232925e+00  1.775117e+01  5.404977e+00  # Hw SPCE
   1343     445    6   0.423800  1.795961e+01  1.211819e+01  9.928172e+00  # Hw SPCE
   1344     445    7  -0.847600  1.761073e+01  1.301882e+01  9.669031e+00  # Ow SPCE
   1345     445    6   0.423800  1.661116e+01  1.300977e+01  9.697059e+00  # Hw SPCE
   1346     446    6   0.423800  1.321317e+01  1.306791e+01  7.355600e+00  # Hw SPCE
   1347     446    7  -0.847600  1.255071e+01  1.232149e+01  7.292302e+00  # Ow SPCE
   1348     446    6   0.423800  1.201212e+01  1.242387e+01  6.455978e+00  # Hw SPCE
   1349     447    6   0.423800  1.325703e+01  1.765753e+01  2.033250e+01  # Hw SPCE
   1350     447    7  -0.847600  1.409785e+01  1.711628e+01  2.032469e+01  # Ow SPCE
   1351     447    6   0.423800  1.386809e+01  1.614324e+01  2.034436e+01  # Hw SPCE
   1352     448    6   0.423800  5.353329e+00  1.442689e+01  2.111824e+01  # Hw SPCE
   1353     448    7  -0.847600  5.769013e+00  1.410399e+01  2.026798e+01  # Ow SPCE
   1354     448    6   0.423800  5.050435e+00  1.383140e+01  1.962818e+01  # Hw SPCE
   1355     449    6   0.423800  7.262042e+00  1.285195e+01  1.879098e+01  # Hw SPCE
   1356     449    7  -0.847600  7.560924e+00  1.379459e+01  1.893969e+01  # Ow SPCE
   1357     449    6   0.423800  8.421230e+00  1.395190e+01  1.845480e+01  # Hw SPCE
   1358     450    6   0.423800  1.825159e+01  2.203384e+01  2.006209e+01  # Hw SPCE
   1359     450    7  -0.847600  1.916076e+01  2.244756e+01  2.001474e+01  # Ow SPCE
   1360     450    6   0.423800  1.907372e+01  2.344375e+01  2.000855e+01  # Hw SPCE
   1361     451    6   0.423800  1.884632e+00  1.649020e+01  3.203528e+00  # Hw SPCE
   1362     451    7  -0.847600  2.229779e+00  1.559398e+01  3.482222e+00  # Ow SPCE
   1363     451    6   0.423800  1.500269e+00  1.491514e+01  3.398651e+00  # Hw SPCE
   1364     452    6   0.423800  7.632638e+00  1.134430e+01  2.345788e+01  # Hw SPCE
   1365     452    7  -0.847600  8.308766e+00  1.127669e+01  2.419156e+01  # Ow SPCE
   1366     452    6   0.423800  8.510033e+00  1.219040e+01  2.454458e+01  # Hw SPCE
   1367     453    6   0.423800  1.500000e+00  1.053718e+01  1.495345e+01  # Hw SPCE
   1368     453    7  -0.847600  2.344136e+00  1.001139e+01  1.484865e+01  # Ow SPCE
   1369     453    6   0.423800  2.803291e+00  1.028319e+01  1.400290e+01  # Hw SPCE
   1370     454    6   0.423800  1.805130e+01  3.068257e+00  2.342659e+01  # Hw SPCE
   1371     454    7  -0.847600  1.836989e+01  2.126115e+00  2.353084e+01  # Ow SPCE
   1372     454    6   0.423800  1.758616e+01  1.524305e+00  2.368443e+01  # Hw SPCE
   1373     455    6   0.423800  8.715778e+00  1.372448e+01  1.143429e+01  # Hw SPCE
   1374     455    7  -0.847600  8.659176e+00  1.332549e+01  1.051909e+01  # Ow SPCE
   1375     455    6   0.423800  9.580509e+00  1.312932e+01  1.018343e+01  # Hw SPCE
   1376     456    6   0.423800  1.904053e+01  3.674437e+00  2.042545e+01  # Hw SPCE
   1377     456    7  -0.847600  1.921896e+01  2.724861e+00  2.068326e+01  # Ow SPCE
   1378     456    6   0.423800  1.835587e+01  2.220980e+00  2.071755e+01  # Hw SPCE
   1379     457    6   0.423800  2.338047e+00  1.896421e+01  9.109174e+00  # Hw SPCE
   1380     457    7  -0.847600  1.479359e+00  1.868796e+01  8.677500e+00  # Ow SPCE
   1381     457    6   0.423800  1.621520e+00  1.784162e+01  8.164182e+00  # Hw SPCE
   1382     458    6   0.423800  1.501438e+00  9.292968e+00  5.851273e+00  # Hw SPCE
   1383     458    7  -0.847600  1.558254e+00  8.302337e+00  5.975460e+00  # Ow SPCE
   1384     458    6   0.423800  2.391826e+00  8.076902e+00  6.479779e+00  # Hw SPCE
   1385     459    6   0.423800  1.692929e+01  1.296855e+01  1.514363e+01  # Hw SPCE
   1386     459    7  -0.847600  1.726673e+01  1.235738e+01  1.442766e+01  # Ow SPCE
   1387     459    6   0.423800  1.664459e+01  1.158031e+01  1.433223e+01  # Hw SPCE
   1388     460    6   0.423800  2.817827e+00  2.443773e+01  1.400457e+01  # Hw SPCE
   1389     460    7  -0.847600  2.482478e+00  2.349950e+01  1.391940e+01  # Ow SPCE
   1390     460    6   0.423800  3.233914e+00  2.290084e+01  1.364199e+01  # Hw SPCE
   1391     461    6   0.423800  1.523647e+00  2.281309e+01  1.206262e+01  # Hw SPCE
   1392     461    7  -0.847600  1.496336e+00  2.181450e+01  1.201709e+01  # Ow SPCE
   1393     461    6   0.423800  2.405587e+00  2.144694e+01  1.221244e+01  # Hw SPCE
   1394     462    6   0.423800  3.987743e+00  1.336601e+01  1.187699e+01  # Hw SPCE
   1395     462    7  -0.847600  3.310336e+00  1.304050e+01  1.253666e+01  # Ow SPCE
   1396     462    6   0.423800  3.034190e+00  1.210927e+01  1.229886e+01  # Hw SPCE
   1397     463    6   0.423800  2.801372e+00  1.958011e+01  1.330922e+01  # Hw SPCE
   1398     463    7  -0.847600  3.069605e+00  1.861681e+01  1.329909e+01  # Ow SPCE
   1399     463    6   0.423800  4.056625e+00  1.854716e+01  1.315438e+01  # Hw SPCE
   1400     464    6   0.423800  1.180182e+01  4.518750e+00  1.970446e+01  # Hw SPCE
   1401     464    7  -0.847600  1.201591e+01  3.543480e+00  1.975938e+01  # Ow SPCE
   1402     464    6   0.423800  1.300819e+01  3.420396e+00  1.977470e+01  # Hw SPCE
   1403     465    6   0.423800  8.718000e+00  9.784253e+00  9.879064e+00  # Hw SPCE
   1404     465    7  -0.847600  8.710265e+00  8.796327e+00  1.003379e+01  # Ow SPCE
   1405     465    6   0.423800  9.330555e+00  8.571792e+00  1.078534e+01  # Hw SPCE
   1406     466    6   0.423800  4.387279e+00  1.607355e+01  1.195895e+01  # Hw SPCE
   1407     466    7  -0.847600  4.648516e+00  1.549389e+01  1.273080e+01  # Ow SPCE
   1408     466    6   0.423800  5.490591e+00  1.500245e+01  1.250855e+01  # Hw SPCE
   1409     467    6   0.423800  2.394250e+01  1.684145e+01  1.452789e+01  # Hw SPCE
   1410     467    7  -0.847600  2.307129e+01  1.644450e+01  1.423905e+01  # Ow SPCE
   1411     467    6   0.423800  2.232097e+01  1.691017e+01  1.470827e+01  # Hw SPCE
   1412     468    6   0.423800  1.931158e+01  6.090672e+00  2.319375e+01  # Hw SPCE
   1413     468    7  -0.847600  2.024457e+01  6.442302e+00  2.311695e+01  # Ow SPCE
   1414     468    6   0.423800  2.031139e+01  7.038130e+00  2.231662e+01  # Hw SPCE
   1415     469    6   0.423800  2.838224e+00  1.500314e+01  2.150056e+01  # Hw SPCE
   1416     469    7  -0.847600  1.928650e+00  1.473596e+01  2.118230e+01  # Ow SPCE
   1417     469    6   0.423800  1.503516e+00  1.413234e+01  2.185677e+01  # Hw SPCE
   1418     470    6   0.423800  5.456280e+00  9.371032e+00  1.676303e+00  # Hw SPCE
   1419     470    7  -0.847600  6.133972e+00  8.635821e+00  1.662241e+00  # Ow SPCE
   1420     470    6   0.423800  5.674867e+00  7.762380e+00  1.500000e+00  # Hw SPCE
   1421     471    6   0.423800  8.811245e+00  1.128093e+01  8.128760e+00  # Hw SPCE
   1422     471    7  -0.847600  9.607859e+00  1.180799e+01  8.424762e+00  # Ow SPCE
   1423     471    6   0.423800  1.025383e+01  1.189026e+01  7.665848e+00  # Hw SPCE
   1424     472    6   0.423800  1.190990e+01  2.156136e+01  1.845231e+01  # Hw SPCE
   1425     472    7  -0.847600  1.148865e+01  2.071102e+01  1.813692e+01  # Ow SPCE
   1426     472    6   0.423800  1.153501e+01  2.066621e+01  1.713900e+01  # Hw SPCE
   1427     473    6   0.423800  1.526762e+01  4.056561e+00  8.926415e+00  # Hw SPCE
   1428     473    7  -0.847600  1.447026e+01  3.553882e+00  8.592431e+00  # Ow SPCE
   1429     473    6   0.423800  1.453996e+01  2.595750e+00  8.870144e+00  # Hw SPCE
   1430     474    6   0.423800  1.045450e+01  2.275667e+01  2.218035e+01  # Hw SPCE
   1431     474    7  -0.847600  1.143517e+01  2.268782e+01  2.236348e+01  # Ow SPCE
   1432     474    6   0.423800  1.157845e+01  2.225588e+01  2.325393e+01  # Hw SPCE
   1433     475    6   0.423800  1.268839e+01  1.156433e+01  1.711119e+01  # Hw SPCE
   1434     475    7  -0.847600  1.325584e+01  1.075506e+01  1.695922e+01  # Ow SPCE
   1435     475    6   0.423800  1.375782e+01  1.053795e+01  1.779641e+01  # Hw SPCE
   1436     476    6   0.423800  4.393802e+00  8.122579e+00  2.433666e+01  # Hw SPCE
   1437     476    7  -0.847600  5.129529e+00  8.797666e+00  2.428223e+01  # Ow SPCE
   1438     476    6   0.423800  6.013217e+00  8.332623e+00  2.433544e+01  # Hw SPCE
   1439     477    6   0.423800  1.429840e+01  4.954301e+00  1.462174e+01  # Hw SPCE
   1440     477    7  -0.847600  1.496834e+01  5.360428e+00  1.524322e+01  # Ow SPCE
   1441     477    6   0.423800  1.461441e+01  6.227144e+00  1.559469e+01  # Hw SPCE
   1442     478    6   0.423800  1.848954e+01  4.124968e+00  9.082462e+00  # Hw SPCE
   1443     478    7  -0.847600  1.753561e+01  3.968568e+00  8.826420e+00  # Ow SPCE
   1444     478    6   0.423800  1.724349e+01  4.674852e+00  8.181576e+00  # Hw SPCE
   1445     479    6   0.423800  2.044577e+00  3.014496e+00  4.126487e+00  # Hw SPCE
   1446     479    7  -0.847600  2.553989e+00  2.272096e+00  3.691352e+00  # Ow SPCE
   1447     479    6   0.423800  3.289965e+00  1.972340e+00  4.298382e+00  # Hw SPCE
   1448     480    6   0.423800  5.025962e+00  1.733894e+01  1.754463e+01  # Hw SPCE
   1449     480    7  -0.847600  5.378413e+00  1.824881e+01  1.776351e+01  # Ow SPCE
   1450     480    6   0.423800  6.354343e+00  1.828868e+01  1.754910e+01  # Hw SPCE
   1451     481    6   0.423800  2.490662e+01  2.013120e+01  2.031461e+01  # Hw SPCE
   1452     481    7  -0.847600  2.428791e+01  2.090836e+01  2.042956e+01  # Ow SPCE
   1453     481    6   0.423800  2.480212e+01  2.176071e+01  2.033425e+01  # Hw SPCE
   1454     482    6   0.423800  1.906940e+01  8.465300e+00  4.670905e+00  # Hw SPCE
   1455     482    7  -0.847600  1.815786e+01  8.875084e+00  4.705049e+00  # Ow SPCE
   1456     482    6   0.423800  1.746984e+01  8.152456e+00  4.771656e+00  # Hw SPCE
   1457     483    6   0.423800  1.599469e+01  2.200811e+01  1.962924e+01  # Hw SPCE
   1458     483    7  -0.847600  1.596496e+01  2.217061e+01  1.864298e+01  # Ow SPCE
   1459     483    6   0.423800  1.689737e+01  2.224158e+01  1.828861e+01  # Hw SPCE
   1460     484    6   0.423800  9.247367e+00  2.237056e+01  1.571791e+01  # Hw SPCE
   1461     484    7  -0.847600  9.290784e+00  2.145161e+01  1.532593e+01  # Ow SPCE
   1462     484    6   0.423800  8.405854e+00  2.121926e+01  1.492231e+01  # Hw SPCE
   1463     485    6   0.423800  1.279157e+01  3.607114e+00  1.374996e+01  # Hw SPCE
   1464     485    7  -0.847600  1.361484e+01  3.223199e+00  1.333184e+01  # Ow SPCE
   1465     485    6   0.423800  1.337599e+01  2.395055e+00  1.282476e+01  # Hw SPCE
   1466     486    6   0.423800  1.689520e+01  1.057978e+01  2.078227e+01  # Hw SPCE
   1467     486    7  -0.847600  1.594038e+01  1.032907e+01  2.062266e+01  # Ow SPCE
   1468     486    6   0.423800  1.539869e+01  1.115659e+01  2.047508e+01  # Hw SPCE
   1469     487    6   0.423800  1.431134e+01  1.219535e+01  3.977464e+00  # Hw SPCE
   1470     487    7  -0.847600  1.373642e+01  1.151347e+01  4.429687e+00  # Ow SPCE
   1471     487    6   0.423800  1.277464e+01  1.176700e+01  4.326305e+00  # Hw SPCE
   1472     488    6   0.423800  6.856509e+00  4.237029e+00  2.450972e+01  # Hw SPCE
   1473     488    7  -0.847600  7.764552e+00  4.329347e+00  2.410114e+01  # Ow SPCE
   1474     488    6   0.423800  8.437897e+00  4.500253e+00  2.482045e+01  # Hw SPCE
   1475     489    6   0.423800  4.991207e+00  8.690070e+00  7.554804e+00  # Hw SPCE
   1476     489    7  -0.847600  4.255258e+00  9.093881e+00  8.098234e+00  # Ow SPCE
   1477     489    6   0.423800  3.578673e+00  8.390961e+00  8.317632e+00  # Hw SPCE
   1478     490    6   0.423800  2.435985e+01  1.609245e+01  2.715428e+00  # Hw SPCE
   1479     490    7  -0.847600  2.381731e+01  1.526997e+01  2.544601e+00  # Ow SPCE
   1480     490    6   0.423800  2.294473e+01  1.552663e+01  2.128995e+00  # Hw SPCE
   1481     491    6   0.423800  4.328362e+00  8.863990e+00  2.020993e+01  # Hw SPCE
   1482     491    7  -0.847600  4.104970e+00  7.923359e+00  2.046549e+01  # Ow SPCE
   1483     491    6   0.423800  3.115085e+00  7.790547e+00  2.041561e+01  # Hw SPCE
   1484     492    6   0.423800  7.318440e+00  5.004305e+00  3.674282e+00  # Hw SPCE
   1485     492    7  -0.847600  6.599733e+00  5.676733e+00  3.497362e+00  # Ow SPCE
   1486     492    6   0.423800  6.132970e+00  5.898765e+00  4.353419e+00  # Hw SPCE
   1487     493    6   0.423800  1.800842e+01  2.388780e+01  2.368311e+01  # Hw SPCE
   1488     493    7  -0.847600  1.865773e+01  2.324392e+01  2.327837e+01  # Ow SPCE
   1489     493    6   0.423800  1.815724e+01  2.250216e+01  2.283193e+01  # Hw SPCE
   1490     494    6   0.423800  1.604589e+01  1.683597e+01  1.652262e+01  # Hw SPCE
   1491     494    7  -0.847600  1.663278e+01  1.725386e+01  1.721611e+01  # Ow SPCE
   1492     494    6   0.423800  1.642696e+01  1.823019e+01  1.728260e+01  # Hw SPCE
   1493     495    6   0.423800  1.391585e+01  2.047649e+01  1.534595e+01  # Hw SPCE
   1494     495    7  -0.847600  1.340904e+01  1.969146e+01  1.570213e+01  # Ow SPCE
   1495     495    6   0.423800  1.246418e+01  1.972929e+01  1.537685e+01  # Hw SPCE
   1496     496    6   0.423800  1.653729e+01  7.403909e+00  1.353206e+01  # Hw SPCE
   1497     496    7  -0.847600  1.566157e+01  7.796250e+00  1.325066e+01  # Ow SPCE
   1498     496    6   0.423800  1.574647e+01  8.790699e+00  1.318850e+01  # Hw SPCE
   1499     497    6   0.423800  2.155562e+01  9.700401e+00  2.482006e+01  # Hw SPCE
   1500     497    7  -0.847600  2.229411e+01  1.037439e+01  2.480088e+01  # Ow SPCE
   1501     497    6   0.423800  2.190493e+01  1.129553e+01  2.480728e+01  # Hw SPCE
   1502     498    6   0.423800  1.647122e+01  1.002713e+01  5.588910e+00  # Hw SPCE
   1503     498    7  -0.847600  1.626270e+01  9.988155e+00  4.611668e+00  # Ow SPCE
   1504     498    6   0.423800  1.527210e+01  9.939162e+00  4.483912e+00  # Hw SPCE
   1505     499    6   0.423800  2.239840e+01  2.356362e+01  8.746920e+00  # Hw SPCE
   1506     499    7  -0.847600  2.313985e+01  2.340361e+01  9.398580e+00  # Ow SPCE
   1507     499    6   0.423800  2.316873e+01  2.243336e+01  9.638959e+00  # Hw SPCE
   1508     500    6   0.423800  2.293745e+01  4.403086e+00  1.585481e+01  # Hw SPCE
   1509     500    7  -0.847600  2.227980e+01  3.658735e+00  1.597074e+01  # Ow SPCE
   1510     500    6   0.423800  2.276598e+01  2.785221e+00  1.599530e+01  # Hw SPCE
   1511     501    6   0.423800  1.785728e+01  1.167774e+01  2.450113e+00  # Hw SPCE
   1512     501    7  -0.847600  1.770796e+01  1.071110e+01  2.658210e+00  # Ow SPCE
   1513     501    6   0.423800  1.852271e+01  1.033553e+01  3.099941e+00  # Hw SPCE
   1514     502    6   0.423800  6.199531e+00  2.118705e+01  2.315950e+01  # Hw SPCE
   1515     502    7  -0.847600  6.723235e+00  2.192511e+01  2.358493e+01  # Ow SPCE
   1516     502    6   0.423800  6.801914e+00  2.175472e+01  2.456716e+01  # Hw SPCE
   1517     503    6   0.423800  2.351817e+01  2.188627e+00  2.070799e+01  # Hw SPCE
   1518     503    7  -0.847600  2.419740e+01  2.350315e+00  2.142387e+01  # Ow SPCE
   1519     503    6   0.423800  2.482000e+01  1.569452e+00  2.147511e+01  # Hw SPCE
   1520     504    6   0.423800  2.042116e+01  2.371695e+01  2.744949e+00  # Hw SPCE
   1521     504    7  -0.847600  2.041397e+01  2.314115e+01  1.927392e+00  # Ow SPCE
   1522     504    6   0.423800  1.956933e+01  2.260633e+01  1.903807e+00  # Hw SPCE

Bonds

      1    1       3       2  # CT-CO
      2    2       4       2  # CO-O2
      3    2       5       2  # CO-O2
      4    3       6       3  # HC-CT
      5    3       7       3  # HC-CT
      6    3       8       3  # HC-CT
      7    1      10       9  # CT-CO
      8    2      11       9  # CO-O2
      9    2      12       9  # CO-O2
     10    3      13      10  # HC-CT
     11    3      14      10  # HC-CT
     12    3      15      10  # HC-CT
     13    1      17      16  # CT-CO
     14    2      18      16  # CO-O2
     15    2      19      16  # CO-O2
     16    3      20      17  # HC-CT
     17    3      21      17  # HC-CT
     18    3      22      17  # HC-CT
     19    4      24      23  # Ow-Hw
     20    4      25      24  # Ow-Hw
     21    4      27      26  # Ow-Hw
     22    4      28      27  # Ow-Hw
     23    4      30      29  # Ow-Hw
     24    4      31      30  # Ow-Hw
     25    4      33      32  # Ow-Hw
     26    4      34      33  # Ow-Hw
     27    4      36      35  # Ow-Hw
     28    4      37      36  # Ow-Hw
     29    4      39      38  # Ow-Hw
     30    4      40      39  # Ow-Hw
     31    4      42      41  # Ow-Hw
     32    4      43      42  # Ow-Hw
     33    4      45      44  # Ow-Hw
     34    4      46      45  # Ow-Hw
     35    4      48      47  # Ow-Hw
     36    4      49      48  # Ow-Hw
     37    4      51      50  # Ow-Hw
     38    4      52      51  # Ow-Hw
     39    4      54      53  # Ow-Hw
     40    4      55      54  # Ow-Hw
     41    4      57      56  # Ow-Hw
     42    4      58      57  # Ow-Hw
     43    4      60      59  # Ow-Hw
     44    4      61      60  # Ow-Hw
     45    4      63      62  # Ow-Hw
     46    4      64      63  # Ow-Hw
     47    4      66      65  # Ow-Hw
     48    4      67      66  # Ow-Hw
     49    4      69      68  # Ow-Hw
     50    4      70      69  # Ow-Hw
     51    4      72      71  # Ow-Hw
     52    4      73      72  # Ow-Hw
     53    4      75      74  # Ow-Hw
     54    4      76      75  # Ow-Hw
     55    4      78      77  # Ow-Hw
     56    4      79      78  # Ow-Hw
     57    4      81      80  # Ow-Hw
     58    4      82      81  # Ow-Hw
     59    4      84      83  # Ow-Hw
     60    4      85      84  # Ow-Hw
     61    4      87      86  # Ow-Hw
     62    4      88      87  # Ow-Hw
     63    4      90      89  # Ow-Hw
     64    4      91      90  # Ow-Hw
     65    4      93      92  # Ow-Hw
     66    4      94      93  # Ow-Hw
     67    4      96      95  # Ow-Hw
     68    4      97      96  # Ow-Hw
     69    4      99      98  # Ow-Hw
     70    4     100      99  # Ow-Hw
     71    4     102     101  # Ow-Hw
     72    4     103     102  # Ow-Hw
     73    4     105     104  # Ow-Hw
     74    4     106     105  # Ow-Hw
     75    4     108     107  # Ow-Hw
     76    4     109     108  # Ow-Hw
     77    4     111     110  # Ow-Hw
     78    4     112     111  # Ow-Hw
     79    4     114     113  # Ow-Hw
     80    4     115     114  # Ow-Hw
     81    4     117     116  # Ow-Hw
     82    4     118     117  # Ow-Hw
     83    4     120     119  # Ow-Hw
     84    4     121     120  # Ow-Hw
     85    4     123     122  # Ow-Hw
     86    4     124     123  # Ow-Hw
     87    4     126     125  # Ow-Hw
     88    4     127     126  # Ow-Hw
     89    4     129     128  # Ow-Hw
     90    4     130     129  # Ow-Hw
     91    4     132     131  # Ow-Hw
     92    4     133     132  # Ow-Hw
     93    4     135     134  # Ow-Hw
     94    4     136     135  # Ow-Hw
     95    4     138     137  # Ow-Hw
     96    4     139     138  # Ow-Hw
     97    4     141     140  # Ow-Hw
     98    4     142     141  # Ow-Hw
     99    4     144     143  # Ow-Hw
    100    4     145     144  # Ow-Hw
    101    4     147     146  # Ow-Hw
    102    4     148     147  # Ow-Hw
    103    4     150     149  # Ow-Hw
    104    4     151     150  # Ow-Hw
    105    4     153     152  # Ow-Hw
    106    4     154     153  # Ow-Hw
    107    4     156     155  # Ow-Hw
    108    4     157     156  # Ow-Hw
    109    4     159     158  # Ow-Hw
    110    4     160     159  # Ow-Hw
    111    4     162     161  # Ow-Hw
    112    4     163     162  # Ow-Hw
    113    4     165     164  # Ow-Hw
    114    4     166     165  # Ow-Hw
    115    4     168     167  # Ow-Hw
    116    4     169     168  # Ow-Hw
    117    4     171     170  # Ow-Hw
    118    4     172     171  # Ow-Hw
    119    4     174     173  # Ow-Hw
    120    4     175     174  # Ow-Hw
    121    4     177     176  # Ow-Hw
    122    4     178     177  # Ow-Hw
    123    4     180     179  # Ow-Hw
    124    4     181     180  # Ow-Hw
    125    4     183     182  # Ow-Hw
    126    4     184     183  # Ow-Hw
    127    4     186     185  # Ow-Hw
    128    4     187     186  # Ow-Hw
    129    4     189     188  # Ow-Hw
    130    4     190     189  # Ow-Hw
    131    4     192     191  # Ow-Hw
    132    4     193     192  # Ow-Hw
    133    4     195     194  # Ow-Hw
    134    4     196     195  # Ow-Hw
    135    4     198     197  # Ow-Hw
    136    4     199     198  # Ow-Hw
    137    4     201     200  # Ow-Hw
    138    4     202     201  # Ow-Hw
    139    4     204     203  # Ow-Hw
    140    4     205     204  # Ow-Hw
    141    4     207     206  # Ow-Hw
    142    4     208     207  # Ow-Hw
    143    4     210     209  # Ow-Hw
    144    4     211     210  # Ow-Hw
    145    4     213     212  # Ow-Hw
    146    4     214     213  # Ow-Hw
    147    4     216     215  # Ow-Hw
    148    4     217     216  # Ow-Hw
    149    4     219     218  # Ow-Hw
    150    4     220     219  # Ow-Hw
    151    4     222     221  # Ow-Hw
    152    4     223     222  # Ow-Hw
    153    4     225     224  # Ow-Hw
    154    4     226     225  # Ow-Hw
    155    4     228     227  # Ow-Hw
    156    4     229     228  # Ow-Hw
    157    4     231     230  # Ow-Hw
    158    4     232     231  # Ow-Hw
    159    4     234     233  # Ow-Hw
    160    4     235     234  # Ow-Hw
    161    4     237     236  # Ow-Hw
    162    4     238     237  # Ow-Hw
    163    4     240     239  # Ow-Hw
    164    4     241     240  # Ow-Hw
    165    4     243     242  # Ow-Hw
    166    4     244     243  # Ow-Hw
    167    4     246     245  # Ow-Hw
    168    4     247     246  # Ow-Hw
    169    4     249     248  # Ow-Hw
    170    4     250     249  # Ow-Hw
    171    4     252     251  # Ow-Hw
    172    4     253     252  # Ow-Hw
    173    4     255     254  # Ow-Hw
    174    4     256     255  # Ow-Hw
    175    4     258     257  # Ow-Hw
    176    4     259     258  # Ow-Hw
    177    4     261     260  # Ow-Hw
    178    4     262     261  # Ow-Hw
    179    4     264     263  # Ow-Hw
    180    4     265     264  # Ow-Hw
    181    4     267     266  # Ow-Hw
    182    4     268     267  # Ow-Hw
    183    4     270     269  # Ow-Hw
    184    4     271     270  # Ow-Hw
    185    4     273     272  # Ow-Hw
    186    4     274     273  # Ow-Hw
    187    4     276     275  # Ow-Hw
    188    4     277     276  # Ow-Hw
    189    4     279     278  # Ow-Hw
    190    4     280     279  # Ow-Hw
    191    4     282     281  # Ow-Hw
    192    4     283     282  # Ow-Hw
    193    4     285     284  # Ow-Hw
    194    4     286     285  # Ow-Hw
    195    4     288     287  # Ow-Hw
    196    4     289     288  # Ow-Hw
    197    4     291     290  # Ow-Hw
    198    4     292     291  # Ow-Hw
    199    4     294     293  # Ow-Hw
    200    4     295     294  # Ow-Hw
    201    4     297     296  # Ow-Hw
    202    4     298     297  # Ow-Hw
    203    4     300     299  # Ow-Hw
    204    4     301     300  # Ow-Hw
    205    4     303     302  # Ow-Hw
    206    4     304     303  # Ow-Hw
    207    4     306     305  # Ow-Hw
    208    4     307     306  # Ow-Hw
    209    4     309     308  # Ow-Hw
    210    4     310     309  # Ow-Hw
    211    4     312     311  # Ow-Hw
    212    4     313     312  # Ow-Hw
    213    4     315     314  # Ow-Hw
    214    4     316     315  # Ow-Hw
    215    4     318     317  # Ow-Hw
    216    4     319     318  # Ow-Hw
    217    4     321     320  # Ow-Hw
    218    4     322     321  # Ow-Hw
    219    4     324     323  # Ow-Hw
    220    4     325     324  # Ow-Hw
    221    4     327     326  # Ow-Hw
    222    4     328     327  # Ow-Hw
    223    4     330     329  # Ow-Hw
    224    4     331     330  # Ow-Hw
    225    4     333     332  # Ow-Hw
    226    4     334     333  # Ow-Hw
    227    4     336     335  # Ow-Hw
    228    4     337     336  # Ow-Hw
    229    4     339     338  # Ow-Hw
    230    4     340     339  # Ow-Hw
    231    4     342     341  # Ow-Hw
    232    4     343     342  # Ow-Hw
    233    4     345     344  # Ow-Hw
    234    4     346     345  # Ow-Hw
    235    4     348     347  # Ow-Hw
    236    4     349     348  # Ow-Hw
    237    4     351     350  # Ow-Hw
    238    4     352     351  # Ow-Hw
    239    4     354     353  # Ow-Hw
    240    4     355     354  # Ow-Hw
    241    4     357     356  # Ow-Hw
    242    4     358     357  # Ow-Hw
    243    4     360     359  # Ow-Hw
    244    4     361     360  # Ow-Hw
    245    4     363     362  # Ow-Hw
    246    4     364     363  # Ow-Hw
    247    4     366     365  # Ow-Hw
    248    4     367     366  # Ow-Hw
    249    4     369     368  # Ow-Hw
    250    4     370     369  # Ow-Hw
    251    4     372     371  # Ow-Hw
    252    4     373     372  # Ow-Hw
    253    4     375     374  # Ow-Hw
    254    4     376     375  # Ow-Hw
    255    4     378     377  # Ow-Hw
    256    4     379     378  # Ow-Hw
    257    4     381     380  # Ow-Hw
    258    4     382     381  # Ow-Hw
    259    4     384     383  # Ow-Hw
    260    4     385     384  # Ow-Hw
    261    4     387     386  # Ow-Hw
    262    4     388     387  # Ow-Hw
    263    4     390     389  # Ow-Hw
    264    4     391     390  # Ow-Hw
    265    4     393     392  # Ow-Hw
    266    4     394     393  # Ow-Hw
    267    4     396     395  # Ow-Hw
    268    4     397     396  # Ow-Hw
    269    4     399     398  # Ow-Hw
    270    4     400     399  # Ow-Hw
    271    4     402     401  # Ow-Hw
    272    4     403     402  # Ow-Hw
    273    4     405     404  # Ow-Hw
    274    4     406     405  # Ow-Hw
    275    4     408     407  # Ow-Hw
    276    4     409     408  # Ow-Hw
    277    4     411     410  # Ow-Hw
    278    4     412     411  # Ow-Hw
    279    4     414     413  # Ow-Hw
    280    4     415     414  # Ow-Hw
    281    4     417     416  # Ow-Hw
    282    4     418     417  # Ow-Hw
    283    4     420     419  # Ow-Hw
    284    4     421     420  # Ow-Hw
    285    4     423     422  # Ow-Hw
    286    4     424     423  # Ow-Hw
    287    4     426     425  # Ow-Hw
    288    4     427     426  # Ow-Hw
    289    4     429     428  # Ow-Hw
    290    4     430     429  # Ow-Hw
    291    4     432     431  # Ow-Hw
    292    4     433     432  # Ow-Hw
    293    4     435     434  # Ow-Hw
    294    4     436     435  # Ow-Hw
    295    4     438     437  # Ow-Hw
    296    4     439     438  # Ow-Hw
    297    4     441     440  # Ow-Hw
    298    4     442     441  # Ow-Hw
    299    4     444     443  # Ow-Hw
    300    4     445     444  # Ow-Hw
    301    4     447     446  # Ow-Hw
    302    4     448     447  # Ow-Hw
    303    4     450     449  # Ow-Hw
    304    4     451     450  # Ow-Hw
    305    4     453     452  # Ow-Hw
    306    4     454     453  # Ow-Hw
    307    4     456     455  # Ow-Hw
    308    4     457     456  # Ow-Hw
    309    4     459     458  # Ow-Hw
    310    4     460     459  # Ow-Hw
    311    4     462     461  # Ow-Hw
    312    4     463     462  # Ow-Hw
    313    4     465     464  # Ow-Hw
    314    4     466     465  # Ow-Hw
    315    4     468     467  # Ow-Hw
    316    4     469     468  # Ow-Hw
    317    4     471     470  # Ow-Hw
    318    4     472     471  # Ow-Hw
    319    4     474     473  # Ow-Hw
    320    4     475     474  # Ow-Hw
    321    4     477     476  # Ow-Hw
    322    4     478     477  # Ow-Hw
    323    4     480     479  # Ow-Hw
    324    4     481     480  # Ow-Hw
    325    4     483     482  # Ow-Hw
    326    4     484     483  # Ow-Hw
    327    4     486     485  # Ow-Hw
    328    4     487     486  # Ow-Hw
    329    4     489     488  # Ow-Hw
    330    4     490     489  # Ow-Hw
    331    4     492     491  # Ow-Hw
    332    4     493     492  # Ow-Hw
    333    4     495     494  # Ow-Hw
    334    4     496     495  # Ow-Hw
    335    4     498     497  # Ow-Hw
    336    4     499     498  # Ow-Hw
    337    4     501     500  # Ow-Hw
    338    4     502     501  # Ow-Hw
    339    4     504     503  # Ow-Hw
    340    4     505     504  # Ow-Hw
    341    4     507     506  # Ow-Hw
    342    4     508     507  # Ow-Hw
    343    4     510     509  # Ow-Hw
    344    4     511     510  # Ow-Hw
    345    4     513     512  # Ow-Hw
    346    4     514     513  # Ow-Hw
    347    4     516     515  # Ow-Hw
    348    4     517     516  # Ow-Hw
    349    4     519     518  # Ow-Hw
    350    4     520     519  # Ow-Hw
    351    4     522     521  # Ow-Hw
    352    4     523     522  # Ow-Hw
    353    4     525     524  # Ow-Hw
    354    4     526     525  # Ow-Hw
    355    4     528     527  # Ow-Hw
    356    4     529     528  # Ow-Hw
    357    4     531     530  # Ow-Hw
    358    4     532     531  # Ow-Hw
    359    4     534     533  # Ow-Hw
    360    4     535     534  # Ow-Hw
    361    4     537     536  # Ow-Hw
    362    4     538     537  # Ow-Hw
    363    4     540     539  # Ow-Hw
    364    4     541     540  # Ow-Hw
    365    4     543     542  # Ow-Hw
    366    4     544     543  # Ow-Hw
    367    4     546     545  # Ow-Hw
    368    4     547     546  # Ow-Hw
    369    4     549     548  # Ow-Hw
    370    4     550     549  # Ow-Hw
    371    4     552     551  # Ow-Hw
    372    4     553     552  # Ow-Hw
    373    4     555     554  # Ow-Hw
    374    4     556     555  # Ow-Hw
    375    4     558     557  # Ow-Hw
    376    4     559     558  # Ow-Hw
    377    4     561     560  # Ow-Hw
    378    4     562     561  # Ow-Hw
    379    4     564     563  # Ow-Hw
    380    4     565     564  # Ow-Hw
    381    4     567     566  # Ow-Hw
    382    4     568     567  # Ow-Hw
    383    4     570     569  # Ow-Hw
    384    4     571     570  # Ow-Hw
    385    4     573     572  # Ow-Hw
    386    4     574     573  # Ow-Hw
    387    4     576     575  # Ow-Hw
    388    4     577     576  # Ow-Hw
    389    4     579     578  # Ow-Hw
    390    4     580     579  # Ow-Hw
    391    4     582     581  # Ow-Hw
    392    4     583     582  # Ow-Hw
    393    4     585     584  # Ow-Hw
    394    4     586     585  # Ow-Hw
    395    4     588     587  # Ow-Hw
    396    4     589     588  # Ow-Hw
    397    4     591     590  # Ow-Hw
    398    4     592     591  # Ow-Hw
    399    4     594     593  # Ow-Hw
    400    4     595     594  # Ow-Hw
    401    4     597     596  # Ow-Hw
    402    4     598     597  # Ow-Hw
    403    4     600     599  # Ow-Hw
    404    4     601     600  # Ow-Hw
    405    4     603     602  # Ow-Hw
    406    4     604     603  # Ow-Hw
    407    4     606     605  # Ow-Hw
    408    4     607     606  # Ow-Hw
    409    4     609     608  # Ow-Hw
    410    4     610     609  # Ow-Hw
    411    4     612     611  # Ow-Hw
    412    4     613     612  # Ow-Hw
    413    4     615     614  # Ow-Hw
    414    4     616     615  # Ow-Hw
    415    4     618     617  # Ow-Hw
    416    4     619     618  # Ow-Hw
    417    4     621     620  # Ow-Hw
    418    4     622     621  # Ow-Hw
    419    4     624     623  # Ow-Hw
    420    4     625     624  # Ow-Hw
    421    4     627     626  # Ow-Hw
    422    4     628     627  # Ow-Hw
    423    4     630     629  # Ow-Hw
    424    4     631     630  # Ow-Hw
    425    4     633     632  # Ow-Hw
    426    4     634     633  # Ow-Hw
    427    4     636     635  # Ow-Hw
    428    4     637     636  # Ow-Hw
    429    4     639     638  # Ow-Hw
    430    4     640     639  # Ow-Hw
    431    4     642     641  # Ow-Hw
    432    4     643     642  # Ow-Hw
    433    4     645     644  # Ow-Hw
    434    4     646     645  # Ow-Hw
    435    4     648     647  # Ow-Hw
    436    4     649     648  # Ow-Hw
    437    4     651     650  # Ow-Hw
    438    4     652     651  # Ow-Hw
    439    4     654     653  # Ow-Hw
    440    4     655     654  # Ow-Hw
    441    4     657     656  # Ow-Hw
    442    4     658     657  # Ow-Hw
    443    4     660     659  # Ow-Hw
    444    4     661     660  # Ow-Hw
    445    4     663     662  # Ow-Hw
    446    4     664     663  # Ow-Hw
    447    4     666     665  # Ow-Hw
    448    4     667     666  # Ow-Hw
    449    4     669     668  # Ow-Hw
    450    4     670     669  # Ow-Hw
    451    4     672     671  # Ow-Hw
    452    4     673     672  # Ow-Hw
    453    4     675     674  # Ow-Hw
    454    4     676     675  # Ow-Hw
    455    4     678     677  # Ow-Hw
    456    4     679     678  # Ow-Hw
    457    4     681     680  # Ow-Hw
    458    4     682     681  # Ow-Hw
    459    4     684     683  # Ow-Hw
    460    4     685     684  # Ow-Hw
    461    4     687     686  # Ow-Hw
    462    4     688     687  # Ow-Hw
    463    4     690     689  # Ow-Hw
    464    4     691     690  # Ow-Hw
    465    4     693     692  # Ow-Hw
    466    4     694     693  # Ow-Hw
    467    4     696     695  # Ow-Hw
    468    4     697     696  # Ow-Hw
    469    4     699     698  # Ow-Hw
    470    4     700     699  # Ow-Hw
    471    4     702     701  # Ow-Hw
    472    4     703     702  # Ow-Hw
    473    4     705     704  # Ow-Hw
    474    4     706     705  # Ow-Hw
    475    4     708     707  # Ow-Hw
    476    4     709     708  # Ow-Hw
    477    4     711     710  # Ow-Hw
    478    4     712     711  # Ow-Hw
    479    4     714     713  # Ow-Hw
    480    4     715     714  # Ow-Hw
    481    4     717     716  # Ow-Hw
    482    4     718     717  # Ow-Hw
    483    4     720     719  # Ow-Hw
    484    4     721     720  # Ow-Hw
    485    4     723     722  # Ow-Hw
    486    4     724     723  # Ow-Hw
    487    4     726     725  # Ow-Hw
    488    4     727     726  # Ow-Hw
    489    4     729     728  # Ow-Hw
    490    4     730     729  # Ow-Hw
    491    4     732     731  # Ow-Hw
    492    4     733     732  # Ow-Hw
    493    4     735     734  # Ow-Hw
    494    4     736     735  # Ow-Hw
    495    4     738     737  # Ow-Hw
    496    4     739     738  # Ow-Hw
    497    4     741     740  # Ow-Hw
    498    4     742     741  # Ow-Hw
    499    4     744     743  # Ow-Hw
    500    4     745     744  # Ow-Hw
    501    4     747     746  # Ow-Hw
    502    4     748     747  # Ow-Hw
    503    4     750     749  # Ow-Hw
    504    4     751     750  # Ow-Hw
    505    4     753     752  # Ow-Hw
    506    4     754     753  # Ow-Hw
    507    4     756     755  # Ow-Hw
    508    4     757     756  # Ow-Hw
    509    4     759     758  # Ow-Hw
    510    4     760     759  # Ow-Hw
    511    4     762     761  # Ow-Hw
    512    4     763     762  # Ow-Hw
    513    4     765     764  # Ow-Hw
    514    4     766     765  # Ow-Hw
    515    4     768     767  # Ow-Hw
    516    4     769     768  # Ow-Hw
    517    4     771     770  # Ow-Hw
    518    4     772     771  # Ow-Hw
    519    4     774     773  # Ow-Hw
    520    4     775     774  # Ow-Hw
    521    4     777     776  # Ow-Hw
    522    4     778     777  # Ow-Hw
    523    4     780     779  # Ow-Hw
    524    4     781     780  # Ow-Hw
    525    4     783     782  # Ow-Hw
    526    4     784     783  # Ow-Hw
    527    4     786     785  # Ow-Hw
    528    4     787     786  # Ow-Hw
    529    4     789     788  # Ow-Hw
    530    4     790     789  # Ow-Hw
    531    4     792     791  # Ow-Hw
    532    4     793     792  # Ow-Hw
    533    4     795     794  # Ow-Hw
    534    4     796     795  # Ow-Hw
    535    4     798     797  # Ow-Hw
    536    4     799     798  # Ow-Hw
    537    4     801     800  # Ow-Hw
    538    4     802     801  # Ow-Hw
    539    4     804     803  # Ow-Hw
    540    4     805     804  # Ow-Hw
    541    4     807     806  # Ow-Hw
    542    4     808     807  # Ow-Hw
    543    4     810     809  # Ow-Hw
    544    4     811     810  # Ow-Hw
    545    4     813     812  # Ow-Hw
    546    4     814     813  # Ow-Hw
    547    4     816     815  # Ow-Hw
    548    4     817     816  # Ow-Hw
    549    4     819     818  # Ow-Hw
    550    4     820     819  # Ow-Hw
    551    4     822     821  # Ow-Hw
    552    4     823     822  # Ow-Hw
    553    4     825     824  # Ow-Hw
    554    4     826     825  # Ow-Hw
    555    4     828     827  # Ow-Hw
    556    4     829     828  # Ow-Hw
    557    4     831     830  # Ow-Hw
    558    4     832     831  # Ow-Hw
    559    4     834     833  # Ow-Hw
    560    4     835     834  # Ow-Hw
    561    4     837     836  # Ow-Hw
    562    4     838     837  # Ow-Hw
    563    4     840     839  # Ow-Hw
    564    4     841     840  # Ow-Hw
    565    4     843     842  # Ow-Hw
    566    4     844     843  # Ow-Hw
    567    4     846     845  # Ow-Hw
    568    4     847     846  # Ow-Hw
    569    4     849     848  # Ow-Hw
    570    4     850     849  # Ow-Hw
    571    4     852     851  # Ow-Hw
    572    4     853     852  # Ow-Hw
    573    4     855     854  # Ow-Hw
    574    4     856     855  # Ow-Hw
    575    4     858     857  # Ow-Hw
    576    4     859     858  # Ow-Hw
    577    4     861     860  # Ow-Hw
    578    4     862     861  # Ow-Hw
    579    4     864     863  # Ow-Hw
    580    4     865     864  # Ow-Hw
    581    4     867     866  # Ow-Hw
    582    4     868     867  # Ow-Hw
    583    4     870     869  # Ow-Hw
    584    4     871     870  # Ow-Hw
    585    4     873     872  # Ow-Hw
    586    4     874     873  # Ow-Hw
    587    4     876     875  # Ow-Hw
    588    4     877     876  # Ow-Hw
    589    4     879     878  # Ow-Hw
    590    4     880     879  # Ow-Hw
    591    4     882     881  # Ow-Hw
    592    4     883     882  # Ow-Hw
    593    4     885     884  # Ow-Hw
    594    4     886     885  # Ow-Hw
    595    4     888     887  # Ow-Hw
    596    4     889     888  # Ow-Hw
    597    4     891     890  # Ow-Hw
    598    4     892     891  # Ow-Hw
    599    4     894     893  # Ow-Hw
    600    4     895     894  # Ow-Hw
    601    4     897     896  # Ow-Hw
    602    4     898     897  # Ow-Hw
    603    4     900     899  # Ow-Hw
    604    4     901     900  # Ow-Hw
    605    4     903     902  # Ow-Hw
    606    4     904     903  # Ow-Hw
    607    4     906     905  # Ow-Hw
    608    4     907     906  # Ow-Hw
    609    4     909     908  # Ow-Hw
    610    4     910     909  # Ow-Hw
    611    4     912     911  # Ow-Hw
    612    4     913     912  # Ow-Hw
    613    4     915     914  # Ow-Hw
    614    4     916     915  # Ow-Hw
    615    4     918     917  # Ow-Hw
    616    4     919     918  # Ow-Hw
    617    4     921     920  # Ow-Hw
    618    4     922     921  # Ow-Hw
    619    4     924     923  # Ow-Hw
    620    4     925     924  # Ow-Hw
    621    4     927     926  # Ow-Hw
    622    4     928     927  # Ow-Hw
    623    4     930     929  # Ow-Hw
    624    4     931     930  # Ow-Hw
    625    4     933     932  # Ow-Hw
    626    4     934     933  # Ow-Hw
    627    4     936     935  # Ow-Hw
    628    4     937     936  # Ow-Hw
    629    4     939     938  # Ow-Hw
    630    4     940     939  # Ow-Hw
    631    4     942     941  # Ow-Hw
    632    4     943     942  # Ow-Hw
    633    4     945     944  # Ow-Hw
    634    4     946     945  # Ow-Hw
    635    4     948     947  # Ow-Hw
    636    4     949     948  # Ow-Hw
    637    4     951     950  # Ow-Hw
    638    4     952     951  # Ow-Hw
    639    4     954     953  # Ow-Hw
    640    4     955     954  # Ow-Hw
    641    4     957     956  # Ow-Hw
    642    4     958     957  # Ow-Hw
    643    4     960     959  # Ow-Hw
    644    4     961     960  # Ow-Hw
    645    4     963     962  # Ow-Hw
    646    4     964     963  # Ow-Hw
    647    4     966     965  # Ow-Hw
    648    4     967     966  # Ow-Hw
    649    4     969     968  # Ow-Hw
    650    4     970     969  # Ow-Hw
    651    4     972     971  # Ow-Hw
    652    4     973     972  # Ow-Hw
    653    4     975     974  # Ow-Hw
    654    4     976     975  # Ow-Hw
    655    4     978     977  # Ow-Hw
    656    4     979     978  # Ow-Hw
    657    4     981     980  # Ow-Hw
    658    4     982     981  # Ow-Hw
    659    4     984     983  # Ow-Hw
    660    4     985     984  # Ow-Hw
    661    4     987     986  # Ow-Hw
    662    4     988     987  # Ow-Hw
    663    4     990     989  # Ow-Hw
    664    4     991     990  # Ow-Hw
    665    4     993     992  # Ow-Hw
    666    4     994     993  # Ow-Hw
    667    4     996     995  # Ow-Hw
    668    4     997     996  # Ow-Hw
    669    4     999     998  # Ow-Hw
    670    4    1000     999  # Ow-Hw
    671    4    1002    1001  # Ow-Hw
    672    4    1003    1002  # Ow-Hw
    673    4    1005    1004  # Ow-Hw
    674    4    1006    1005  # Ow-Hw
    675    4    1008    1007  # Ow-Hw
    676    4    1009    1008  # Ow-Hw
    677    4    1011    1010  # Ow-Hw
    678    4    1012    1011  # Ow-Hw
    679    4    1014    1013  # Ow-Hw
    680    4    1015    1014  # Ow-Hw
    681    4    1017    1016  # Ow-Hw
    682    4    1018    1017  # Ow-Hw
    683    4    1020    1019  # Ow-Hw
    684    4    1021    1020  # Ow-Hw
    685    4    1023    1022  # Ow-Hw
    686    4    1024    1023  # Ow-Hw
    687    4    1026    1025  # Ow-Hw
    688    4    1027    1026  # Ow-Hw
    689    4    1029    1028  # Ow-Hw
    690    4    1030    1029  # Ow-Hw
    691    4    1032    1031  # Ow-Hw
    692    4    1033    1032  # Ow-Hw
    693    4    1035    1034  # Ow-Hw
    694    4    1036    1035  # Ow-Hw
    695    4    1038    1037  # Ow-Hw
    696    4    1039    1038  # Ow-Hw
    697    4    1041    1040  # Ow-Hw
    698    4    1042    1041  # Ow-Hw
    699    4    1044    1043  # Ow-Hw
    700    4    1045    1044  # Ow-Hw
    701    4    1047    1046  # Ow-Hw
    702    4    1048    1047  # Ow-Hw
    703    4    1050    1049  # Ow-Hw
    704    4    1051    1050  # Ow-Hw
    705    4    1053    1052  # Ow-Hw
    706    4    1054    1053  # Ow-Hw
    707    4    1056    1055  # Ow-Hw
    708    4    1057    1056  # Ow-Hw
    709    4    1059    1058  # Ow-Hw
    710    4    1060    1059  # Ow-Hw
    711    4    1062    1061  # Ow-Hw
    712    4    1063    1062  # Ow-Hw
    713    4    1065    1064  # Ow-Hw
    714    4    1066    1065  # Ow-Hw
    715    4    1068    1067  # Ow-Hw
    716    4    1069    1068  # Ow-Hw
    717    4    1071    1070  # Ow-Hw
    718    4    1072    1071  # Ow-Hw
    719    4    1074    1073  # Ow-Hw
    720    4    1075    1074  # Ow-Hw
    721    4    1077    1076  # Ow-Hw
    722    4    1078    1077  # Ow-Hw
    723    4    1080    1079  # Ow-Hw
    724    4    1081    1080  # Ow-Hw
    725    4    1083    1082  # Ow-Hw
    726    4    1084    1083  # Ow-Hw
    727    4    1086    1085  # Ow-Hw
    728    4    1087    1086  # Ow-Hw
    729    4    1089    1088  # Ow-Hw
    730    4    1090    1089  # Ow-Hw
    731    4    1092    1091  # Ow-Hw
    732    4    1093    1092  # Ow-Hw
    733    4    1095    1094  # Ow-Hw
    734    4    1096    1095  # Ow-Hw
    735    4    1098    1097  # Ow-Hw
    736    4    1099    1098  # Ow-Hw
    737    4    1101    1100  # Ow-Hw
    738    4    1102    1101  # Ow-Hw
    739    4    1104    1103  # Ow-Hw
    740    4    1105    1104  # Ow-Hw
    741    4    1107    1106  # Ow-Hw
    742    4    1108    1107  # Ow-Hw
    743    4    1110    1109  # Ow-Hw
    744    4    1111    1110  # Ow-Hw
    745    4    1113    1112  # Ow-Hw
    746    4    1114    1113  # Ow-Hw
    747    4    1116    1115  # Ow-Hw
    748    4    1117    1116  # Ow-Hw
    749    4    1119    1118  # Ow-Hw
    750    4    1120    1119  # Ow-Hw
    751    4    1122    1121  # Ow-Hw
    752    4    1123    1122  # Ow-Hw
    753    4    1125    1124  # Ow-Hw
    754    4    1126    1125  # Ow-Hw
    755    4    1128    1127  # Ow-Hw
    756    4    1129    1128  # Ow-Hw
    757    4    1131    1130  # Ow-Hw
    758    4    1132    1131  # Ow-Hw
    759    4    1134    1133  # Ow-Hw
    760    4    1135    1134  # Ow-Hw
    761    4    1137    1136  # Ow-Hw
    762    4    1138    1137  # Ow-Hw
    763    4    1140    1139  # Ow-Hw
    764    4    1141    1140  # Ow-Hw
    765    4    1143    1142  # Ow-Hw
    766    4    1144    1143  # Ow-Hw
    767    4    1146    1145  # Ow-Hw
    768    4    1147    1146  # Ow-Hw
    769    4    1149    1148  # Ow-Hw
    770    4    1150    1149  # Ow-Hw
    771    4    1152    1151  # Ow-Hw
    772    4    1153    1152  # Ow-Hw
    773    4    1155    1154  # Ow-Hw
    774    4    1156    1155  # Ow-Hw
    775    4    1158    1157  # Ow-Hw
    776    4    1159    1158  # Ow-Hw
    777    4    1161    1160  # Ow-Hw
    778    4    1162    1161  # Ow-Hw
    779    4    1164    1163  # Ow-Hw
    780    4    1165    1164  # Ow-Hw
    781    4    1167    1166  # Ow-Hw
    782    4    1168    1167  # Ow-Hw
    783    4    1170    1169  # Ow-Hw
    784    4    1171    1170  # Ow-Hw
    785    4    1173    1172  # Ow-Hw
    786    4    1174    1173  # Ow-Hw
    787    4    1176    1175  # Ow-Hw
    788    4    1177    1176  # Ow-Hw
    789    4    1179    1178  # Ow-Hw
    790    4    1180    1179  # Ow-Hw
    791    4    1182    1181  # Ow-Hw
    792    4    1183    1182  # Ow-Hw
    793    4    1185    1184  # Ow-Hw
    794    4    1186    1185  # Ow-Hw
    795    4    1188    1187  # Ow-Hw
    796    4    1189    1188  # Ow-Hw
    797    4    1191    1190  # Ow-Hw
    798    4    1192    1191  # Ow-Hw
    799    4    1194    1193  # Ow-Hw
    800    4    1195    1194  # Ow-Hw
    801    4    1197    1196  # Ow-Hw
    802    4    1198    1197  # Ow-Hw
    803    4    1200    1199  # Ow-Hw
    804    4    1201    1200  # Ow-Hw
    805    4    1203    1202  # Ow-Hw
    806    4    1204    1203  # Ow-Hw
    807    4    1206    1205  # Ow-Hw
    808    4    1207    1206  # Ow-Hw
    809    4    1209    1208  # Ow-Hw
    810    4    1210    1209  # Ow-Hw
    811    4    1212    1211  # Ow-Hw
    812    4    1213    1212  # Ow-Hw
    813    4    1215    1214  # Ow-Hw
    814    4    1216    1215  # Ow-Hw
    815    4    1218    1217  # Ow-Hw
    816    4    1219    1218  # Ow-Hw
    817    4    1221    1220  # Ow-Hw
    818    4    1222    1221  # Ow-Hw
    819    4    1224    1223  # Ow-Hw
    820    4    1225    1224  # Ow-Hw
    821    4    1227    1226  # Ow-Hw
    822    4    1228    1227  # Ow-Hw
    823    4    1230    1229  # Ow-Hw
    824    4    1231    1230  # Ow-Hw
    825    4    1233    1232  # Ow-Hw
    826    4    1234    1233  # Ow-Hw
    827    4    1236    1235  # Ow-Hw
    828    4    1237    1236  # Ow-Hw
    829    4    1239    1238  # Ow-Hw
    830    4    1240    1239  # Ow-Hw
    831    4    1242    1241  # Ow-Hw
    832    4    1243    1242  # Ow-Hw
    833    4    1245    1244  # Ow-Hw
    834    4    1246    1245  # Ow-Hw
    835    4    1248    1247  # Ow-Hw
    836    4    1249    1248  # Ow-Hw
    837    4    1251    1250  # Ow-Hw
    838    4    1252    1251  # Ow-Hw
    839    4    1254    1253  # Ow-Hw
    840    4    1255    1254  # Ow-Hw
    841    4    1257    1256  # Ow-Hw
    842    4    1258    1257  # Ow-Hw
    843    4    1260    1259  # Ow-Hw
    844    4    1261    1260  # Ow-Hw
    845    4    1263    1262  # Ow-Hw
    846    4    1264    1263  # Ow-Hw
    847    4    1266    1265  # Ow-Hw
    848    4    1267    1266  # Ow-Hw
    849    4    1269    1268  # Ow-Hw
    850    4    1270    1269  # Ow-Hw
    851    4    1272    1271  # Ow-Hw
    852    4    1273    1272  # Ow-Hw
    853    4    1275    1274  # Ow-Hw
    854    4    1276    1275  # Ow-Hw
    855    4    1278    1277  # Ow-Hw
    856    4    1279    1278  # Ow-Hw
    857    4    1281    1280  # Ow-Hw
    858    4    1282    1281  # Ow-Hw
    859    4    1284    1283  # Ow-Hw
    860    4    1285    1284  # Ow-Hw
    861    4    1287    1286  # Ow-Hw
    862    4    1288    1287  # Ow-Hw
    863    4    1290    1289  # Ow-Hw
    864    4    1291    1290  # Ow-Hw
    865    4    1293    1292  # Ow-Hw
    866    4    1294    1293  # Ow-Hw
    867    4    1296    1295  # Ow-Hw
    868    4    1297    1296  # Ow-Hw
    869    4    1299    1298  # Ow-Hw
    870    4    1300    1299  # Ow-Hw
    871    4    1302    1301  # Ow-Hw
    872    4    1303    1302  # Ow-Hw
    873    4    1305    1304  # Ow-Hw
    874    4    1306    1305  # Ow-Hw
    875    4    1308    1307  # Ow-Hw
    876    4    1309    1308  # Ow-Hw
    877    4    1311    1310  # Ow-Hw
    878    4    1312    1311  # Ow-Hw
    879    4    1314    1313  # Ow-Hw
    880    4    1315    1314  # Ow-Hw
    881    4    1317    1316  # Ow-Hw
    882    4    1318    1317  # Ow-Hw
    883    4    1320    1319  # Ow-Hw
    884    4    1321    1320  # Ow-Hw
    885    4    1323    1322  # Ow-Hw
    886    4    1324    1323  # Ow-Hw
    887    4    1326    1325  # Ow-Hw
    888    4    1327    1326  # Ow-Hw
    889    4    1329    1328  # Ow-Hw
    890    4    1330    1329  # Ow-Hw
    891    4    1332    1331  # Ow-Hw
    892    4    1333    1332  # Ow-Hw
    893    4    1335    1334  # Ow-Hw
    894    4    1336    1335  # Ow-Hw
    895    4    1338    1337  # Ow-Hw
    896    4    1339    1338  # Ow-Hw
    897    4    1341    1340  # Ow-Hw
    898    4    1342    1341  # Ow-Hw
    899    4    1344    1343  # Ow-Hw
    900    4    1345    1344  # Ow-Hw
    901    4    1347    1346  # Ow-Hw
    902    4    1348    1347  # Ow-Hw
    903    4    1350    1349  # Ow-Hw
    904    4    1351    1350  # Ow-Hw
    905    4    1353    1352  # Ow-Hw
    906    4    1354    1353  # Ow-Hw
    907    4    1356    1355  # Ow-Hw
    908    4    1357    1356  # Ow-Hw
    909    4    1359    1358  # Ow-Hw
    910    4    1360    1359  # Ow-Hw
    911    4    1362    1361  # Ow-Hw
    912    4    1363    1362  # Ow-Hw
    913    4    1365    1364  # Ow-Hw
    914    4    1366    1365  # Ow-Hw
    915    4    1368    1367  # Ow-Hw
    916    4    1369    1368  # Ow-Hw
    917    4    1371    1370  # Ow-Hw
    918    4    1372    1371  # Ow-Hw
    919    4    1374    1373  # Ow-Hw
    920    4    1375    1374  # Ow-Hw
    921    4    1377    1376  # Ow-Hw
    922    4    1378    1377  # Ow-Hw
    923    4    1380    1379  # Ow-Hw
    924    4    1381    1380  # Ow-Hw
    925    4    1383    1382  # Ow-Hw
    926    4    1384    1383  # Ow-Hw
    927    4    1386    1385  # Ow-Hw
    928    4    1387    1386  # Ow-Hw
    929    4    1389    1388  # Ow-Hw
    930    4    1390    1389  # Ow-Hw
    931    4    1392    1391  # Ow-Hw
    932    4    1393    1392  # Ow-Hw
    933    4    1395    1394  # Ow-Hw
    934    4    1396    1395  # Ow-Hw
    935    4    1398    1397  # Ow-Hw
    936    4    1399    1398  # Ow-Hw
    937    4    1401    1400  # Ow-Hw
    938    4    1402    1401  # Ow-Hw
    939    4    1404    1403  # Ow-Hw
    940    4    1405    1404  # Ow-Hw
    941    4    1407    1406  # Ow-Hw
    942    4    1408    1407  # Ow-Hw
    943    4    1410    1409  # Ow-Hw
    944    4    1411    1410  # Ow-Hw
    945    4    1413    1412  # Ow-Hw
    946    4    1414    1413  # Ow-Hw
    947    4    1416    1415  # Ow-Hw
    948    4    1417    1416  # Ow-Hw
    949    4    1419    1418  # Ow-Hw
    950    4    1420    1419  # Ow-Hw
    951    4    1422    1421  # Ow-Hw
    952    4    1423    1422  # Ow-Hw
    953    4    1425    1424  # Ow-Hw
    954    4    1426    1425  # Ow-Hw
    955    4    1428    1427  # Ow-Hw
    956    4    1429    1428  # Ow-Hw
    957    4    1431    1430  # Ow-Hw
    958    4    1432    1431  # Ow-Hw
    959    4    1434    1433  # Ow-Hw
    960    4    1435    1434  # Ow-Hw
    961    4    1437    1436  # Ow-Hw
    962    4    1438    1437  # Ow-Hw
    963    4    1440    1439  # Ow-Hw
    964    4    1441    1440  # Ow-Hw
    965    4    1443    1442  # Ow-Hw
    966    4    1444    1443  # Ow-Hw
    967    4    1446    1445  # Ow-Hw
    968    4    1447    1446  # Ow-Hw
    969    4    1449    1448  # Ow-Hw
    970    4    1450    1449  # Ow-Hw
    971    4    1452    1451  # Ow-Hw
    972    4    1453    1452  # Ow-Hw
    973    4    1455    1454  # Ow-Hw
    974    4    1456    1455  # Ow-Hw
    975    4    1458    1457  # Ow-Hw
    976    4    1459    1458  # Ow-Hw
    977    4    1461    1460  # Ow-Hw
    978    4    1462    1461  # Ow-Hw
    979    4    1464    1463  # Ow-Hw
    980    4    1465    1464  # Ow-Hw
    981    4    1467    1466  # Ow-Hw
    982    4    1468    1467  # Ow-Hw
    983    4    1470    1469  # Ow-Hw
    984    4    1471    1470  # Ow-Hw
    985    4    1473    1472  # Ow-Hw
    986    4    1474    1473  # Ow-Hw
    987    4    1476    1475  # Ow-Hw
    988    4    1477    1476  # Ow-Hw
    989    4    1479    1478  # Ow-Hw
    990    4    1480    1479  # Ow-Hw
    991    4    1482    1481  # Ow-Hw
    992    4    1483    1482  # Ow-Hw
    993    4    1485    1484  # Ow-Hw
    994    4    1486    1485  # Ow-Hw
    995    4    1488    1487  # Ow-Hw
    996    4    1489    1488  # Ow-Hw
    997    4    1491    1490  # Ow-Hw
    998    4    1492    1491  # Ow-Hw
    999    4    1494    1493  # Ow-Hw
   1000    4    1495    1494  # Ow-Hw
   1001    4    1497    1496  # Ow-Hw
   1002    4    1498    1497  # Ow-Hw
   1003    4    1500    1499  # Ow-Hw
   1004    4    1501    1500  # Ow-Hw
   1005    4    1503    1502  # Ow-Hw
   1006    4    1504    1503  # Ow-Hw
   1007    4    1506    1505  # Ow-Hw
   1008    4    1507    1506  # Ow-Hw
   1009    4    1509    1508  # Ow-Hw
   1010    4    1510    1509  # Ow-Hw
   1011    4    1512    1511  # Ow-Hw
   1012    4    1513    1512  # Ow-Hw
   1013    4    1515    1514  # Ow-Hw
   1014    4    1516    1515  # Ow-Hw
   1015    4    1518    1517  # Ow-Hw
   1016    4    1519    1518  # Ow-Hw
   1017    4    1521    1520  # Ow-Hw
   1018    4    1522    1521  # Ow-Hw

Angles

      1    1       3       2       4  # CT-CO-O2
      2    1       3       2       5  # CT-CO-O2
      3    2       4       2       5  # O2-CO-O2
      4    3       2       3       6  # HC-CT-CO
      5    3       2       3       7  # HC-CT-CO
      6    3       2       3       8  # HC-CT-CO
      7    4       6       3       7  # HC-CT-HC
      8    4       6       3       8  # HC-CT-HC
      9    4       7       3       8  # HC-CT-HC
     10    1      10       9      11  # CT-CO-O2
     11    1      10       9      12  # CT-CO-O2
     12    2      11       9      12  # O2-CO-O2
     13    3       9      10      13  # HC-CT-CO
     14    3       9      10      14  # HC-CT-CO
     15    3       9      10      15  # HC-CT-CO
     16    4      13      10      14  # HC-CT-HC
     17    4      13      10      15  # HC-CT-HC
     18    4      14      10      15  # HC-CT-HC
     19    1      17      16      18  # CT-CO-O2
     20    1      17      16      19  # CT-CO-O2
     21    2      18      16      19  # O2-CO-O2
     22    3      16      17      20  # HC-CT-CO
     23    3      16      17      21  # HC-CT-CO
     24    3      16      17      22  # HC-CT-CO
     25    4      20      17      21  # HC-CT-HC
     26    4      20      17      22  # HC-CT-HC
     27    4      21      17      22  # HC-CT-HC
     28    5      23      24      25  # Hw-Ow-Hw
     29    5      26      27      28  # Hw-Ow-Hw
     30    5      29      30      31  # Hw-Ow-Hw
     31    5      32      33      34  # Hw-Ow-Hw
     32    5      35      36      37  # Hw-Ow-Hw
     33    5      38      39      40  # Hw-Ow-Hw
     34    5      41      42      43  # Hw-Ow-Hw
     35    5      44      45      46  # Hw-Ow-Hw
     36    5      47      48      49  # Hw-Ow-Hw
     37    5      50      51      52  # Hw-Ow-Hw
     38    5      53      54      55  # Hw-Ow-Hw
     39    5      56      57      58  # Hw-Ow-Hw
     40    5      59      60      61  # Hw-Ow-Hw
     41    5      62      63      64  # Hw-Ow-Hw
     42    5      65      66      67  # Hw-Ow-Hw
     43    5      68      69      70  # Hw-Ow-Hw
     44    5      71      72      73  # Hw-Ow-Hw
     45    5      74      75      76  # Hw-Ow-Hw
     46    5      77      78      79  # Hw-Ow-Hw
     47    5      80      81      82  # Hw-Ow-Hw
     48    5      83      84      85  # Hw-Ow-Hw
     49    5      86      87      88  # Hw-Ow-Hw
     50    5      89      90      91  # Hw-Ow-Hw
     51    5      92      93      94  # Hw-Ow-Hw
     52    5      95      96      97  # Hw-Ow-Hw
     53    5      98      99     100  # Hw-Ow-Hw
     54    5     101     102     103  # Hw-Ow-Hw
     55    5     104     105     106  # Hw-Ow-Hw
     56    5     107     108     109  # Hw-Ow-Hw
     57    5     110     111     112  # Hw-Ow-Hw
     58    5     113     114     115  # Hw-Ow-Hw
     59    5     116     117     118  # Hw-Ow-Hw
     60    5     119     120     121  # Hw-Ow-Hw
     61    5     122     123     124  # Hw-Ow-Hw
     62    5     125     126     127  # Hw-Ow-Hw
     63    5     128     129     130  # Hw-Ow-Hw
     64    5     131     132     133  # Hw-Ow-Hw
     65    5     134     135     136  # Hw-Ow-Hw
     66    5     137     138     139  # Hw-Ow-Hw
     67    5     140     141     142  # Hw-Ow-Hw
     68    5     143     144     145  # Hw-Ow-Hw
     69    5     146     147     148  # Hw-Ow-Hw
     70    5     149     150     151  # Hw-Ow-Hw
     71    5     152     153     154  # Hw-Ow-Hw
     72    5     155     156     157  # Hw-Ow-Hw
     73    5     158     159     160  # Hw-Ow-Hw
     74    5     161     162     163  # Hw-Ow-Hw
     75    5     164     165     166  # Hw-Ow-Hw
     76    5     167     168     169  # Hw-Ow-Hw
     77    5     170     171     172  # Hw-Ow-Hw
     78    5     173     174     175  # Hw-Ow-Hw
     79    5     176     177     178  # Hw-Ow-Hw
     80    5     179     180     181  # Hw-Ow-Hw
     81    5     182     183     184  # Hw-Ow-Hw
     82    5     185     186     187  # Hw-Ow-Hw
     83    5     188     189     190  # Hw-Ow-Hw
     84    5     191     192     193  # Hw-Ow-Hw
     85    5     194     195     196  # Hw-Ow-Hw
     86    5     197     198     199  # Hw-Ow-Hw
     87    5     200     201     202  # Hw-Ow-Hw
     88    5     203     204     205  # Hw-Ow-Hw
     89    5     206     207     208  # Hw-Ow-Hw
     90    5     209     210     211  # Hw-Ow-Hw
     91    5     212     213     214  # Hw-Ow-Hw
     92    5     215     216     217  # Hw-Ow-Hw
     93    5     218     219     220  # Hw-Ow-Hw
     94    5     221     222     223  # Hw-Ow-Hw
     95    5     224     225     226  # Hw-Ow-Hw
     96    5     227     228     229  # Hw-Ow-Hw
     97    5     230     231     232  # Hw-Ow-Hw
     98    5     233     234     235  # Hw-Ow-Hw
     99    5     236     237     238  # Hw-Ow-Hw
    100    5     239     240     241  # Hw-Ow-Hw
    101    5     242     243     244  # Hw-Ow-Hw
    102    5     245     246     247  # Hw-Ow-Hw
    103    5     248     249     250  # Hw-Ow-Hw
    104    5     251     252     253  # Hw-Ow-Hw
    105    5     254     255     256  # Hw-Ow-Hw
    106    5     257     258     259  # Hw-Ow-Hw
    107    5     260     261     262  # Hw-Ow-Hw
    108    5     263     264     265  # Hw-Ow-Hw
    109    5     266     267     268  # Hw-Ow-Hw
    110    5     269     270     271  # Hw-Ow-Hw
    111    5     272     273     274  # Hw-Ow-Hw
    112    5     275     276     277  # Hw-Ow-Hw
    113    5     278     279     280  # Hw-Ow-Hw
    114    5     281     282     283  # Hw-Ow-Hw
    115    5     284     285     286  # Hw-Ow-Hw
    116    5     287     288     289  # Hw-Ow-Hw
    117    5     290     291     292  # Hw-Ow-Hw
    118    5     293     294     295  # Hw-Ow-Hw
    119    5     296     297     298  # Hw-Ow-Hw
    120    5     299     300     301  # Hw-Ow-Hw
    121    5     302     303     304  # Hw-Ow-Hw
    122    5     305     306     307  # Hw-Ow-Hw
    123    5     308     309     310  # Hw-Ow-Hw
    124    5     311     312     313  # Hw-Ow-Hw
    125    5     314     315     316  # Hw-Ow-Hw
    126    5     317     318     319  # Hw-Ow-Hw
    127    5     320     321     322  # Hw-Ow-Hw
    128    5     323     324     325  # Hw-Ow-Hw
    129    5     326     327     328  # Hw-Ow-Hw
    130    5     329     330     331  # Hw-Ow-Hw
    131    5     332     333     334  # Hw-Ow-Hw
    132    5     335     336     337  # Hw-Ow-Hw
    133    5     338     339     340  # Hw-Ow-Hw
    134    5     341     342     343  # Hw-Ow-Hw
    135    5     344     345     346  # Hw-Ow-Hw
    136    5     347     348     349  # Hw-Ow-Hw
    137    5     350     351     352  # Hw-Ow-Hw
    138    5     353     354     355  # Hw-Ow-Hw
    139    5     356     357     358  # Hw-Ow-Hw
    140    5     359     360     361  # Hw-Ow-Hw
    141    5     362     363     364  # Hw-Ow-Hw
    142    5     365     366     367  # Hw-Ow-Hw
    143    5     368     369     370  # Hw-Ow-Hw
    144    5     371     372     373  # Hw-Ow-Hw
    145    5     374     375     376  # Hw-Ow-Hw
    146    5     377     378     379  # Hw-Ow-Hw
    147    5     380     381     382  # Hw-Ow-Hw
    148    5     383     384     385  # Hw-Ow-Hw
    149    5     386     387     388  # Hw-Ow-Hw
    150    5     389     390     391  # Hw-Ow-Hw
    151    5     392     393     394  # Hw-Ow-Hw
    152    5     395     396     397  # Hw-Ow-Hw
    153    5     398     399     400  # Hw-Ow-Hw
    154    5     401     402     403  # Hw-Ow-Hw
    155    5     404     405     406  # Hw-Ow-Hw
    156    5     407     408     409  # Hw-Ow-Hw
    157    5     410     411     412  # Hw-Ow-Hw
    158    5     413     414     415  # Hw-Ow-Hw
    159    5     416     417     418  # Hw-Ow-Hw
    160    5     419     420     421  # Hw-Ow-Hw
    161    5     422     423     424  # Hw-Ow-Hw
    162    5     425     426     427  # Hw-Ow-Hw
    163    5     428     429     430  # Hw-Ow-Hw
    164    5     431     432     433  # Hw-Ow-Hw
    165    5     434     435     436  # Hw-Ow-Hw
    166    5     437     438     439  # Hw-Ow-Hw
    167    5     440     441     442  # Hw-Ow-Hw
    168    5     443     444     445  # Hw-Ow-Hw
    169    5     446     447     448  # Hw-Ow-Hw
    170    5     449     450     451  # Hw-Ow-Hw
    171    5     452     453     454  # Hw-Ow-Hw
    172    5     455     456     457  # Hw-Ow-Hw
    173    5     458     459     460  # Hw-Ow-Hw
    174    5     461     462     463  # Hw-Ow-Hw
    175    5     464     465     466  # Hw-Ow-Hw
    176    5     467     468     469  # Hw-Ow-Hw
    177    5     470     471     472  # Hw-Ow-Hw
    178    5     473     474     475  # Hw-Ow-Hw
    179    5     476     477     478  # Hw-Ow-Hw
    180    5     479     480     481  # Hw-Ow-Hw
    181    5     482     483     484  # Hw-Ow-Hw
    182    5     485     486     487  # Hw-Ow-Hw
    183    5     488     489     490  # Hw-Ow-Hw
    184    5     491     492     493  # Hw-Ow-Hw
    185    5     494     495     496  # Hw-Ow-Hw
    186    5     497     498     499  # Hw-Ow-Hw
    187    5     500     501     502  # Hw-Ow-Hw
    188    5     503     504     505  # Hw-Ow-Hw
    189    5     506     507     508  # Hw-Ow-Hw
    190    5     509     510     511  # Hw-Ow-Hw
    191    5     512     513     514  # Hw-Ow-Hw
    192    5     515     516     517  # Hw-Ow-Hw
    193    5     518     519     520  # Hw-Ow-Hw
    194    5     521     522     523  # Hw-Ow-Hw
    195    5     524     525     526  # Hw-Ow-Hw
    196    5     527     528     529  # Hw-Ow-Hw
    197    5     530     531     532  # Hw-Ow-Hw
    198    5     533     534     535  # Hw-Ow-Hw
    199    5     536     537     538  # Hw-Ow-Hw
    200    5     539     540     541  # Hw-Ow-Hw
    201    5     542     543     544  # Hw-Ow-Hw
    202    5     545     546     547  # Hw-Ow-Hw
    203    5     548     549     550  # Hw-Ow-Hw
    204    5     551     552     553  # Hw-Ow-Hw
    205    5     554     555     556  # Hw-Ow-Hw
    206    5     557     558     559  # Hw-Ow-Hw
    207    5     560     561     562  # Hw-Ow-Hw
    208    5     563     564     565  # Hw-Ow-Hw
    209    5     566     567     568  # Hw-Ow-Hw
    210    5     569     570     571  # Hw-Ow-Hw
    211    5     572     573     574  # Hw-Ow-Hw
    212    5     575     576     577  # Hw-Ow-Hw
    213    5     578     579     580  # Hw-Ow-Hw
    214    5     581     582     583  # Hw-Ow-Hw
    215    5     584     585     586  # Hw-Ow-Hw
    216    5     587     588     589  # Hw-Ow-Hw
    217    5     590     591     592  # Hw-Ow-Hw
    218    5     593     594     595  # Hw-Ow-Hw
    219    5     596     597     598  # Hw-Ow-Hw
    220    5     599     600     601  # Hw-Ow-Hw
    221    5     602     603     604  # Hw-Ow-Hw
    222    5     605     606     607  # Hw-Ow-Hw
    223    5     608     609     610  # Hw-Ow-Hw
    224    5     611     612     613  # Hw-Ow-Hw
    225    5     614     615     616  # Hw-Ow-Hw
    226    5     617     618     619  # Hw-Ow-Hw
    227    5     620     621     622  # Hw-Ow-Hw
    228    5     623     624     625  # Hw-Ow-Hw
    229    5     626     627     628  # Hw-Ow-Hw
    230    5     629     630     631  # Hw-Ow-Hw
    231    5     632     633     634  # Hw-Ow-Hw
    232    5     635     636     637  # Hw-Ow-Hw
    233    5     638     639     640  # Hw-Ow-Hw
    234    5     641     642     643  # Hw-Ow-Hw
    235    5     644     645     646  # Hw-Ow-Hw
    236    5     647     648     649  # Hw-Ow-Hw
    237    5     650     651     652  # Hw-Ow-Hw
    238    5     653     654     655  # Hw-Ow-Hw
    239    5     656     657     658  # Hw-Ow-Hw
    240    5     659     660     661  # Hw-Ow-Hw
    241    5     662     663     664  # Hw-Ow-Hw
    242    5     665     666     667  # Hw-Ow-Hw
    243    5     668     669     670  # Hw-Ow-Hw
    244    5     671     672     673  # Hw-Ow-Hw
    245    5     674     675     676  # Hw-Ow-Hw
    246    5     677     678     679  # Hw-Ow-Hw
    247    5     680     681     682  # Hw-Ow-Hw
    248    5     683     684     685  # Hw-Ow-Hw
    249    5     686     687     688  # Hw-Ow-Hw
    250    5     689     690     691  # Hw-Ow-Hw
    251    5     692     693     694  # Hw-Ow-Hw
    252    5     695     696     697  # Hw-Ow-Hw
    253    5     698     699     700  # Hw-Ow-Hw
    254    5     701     702     703  # Hw-Ow-Hw
    255    5     704     705     706  # Hw-Ow-Hw
    256    5     707     708     709  # Hw-Ow-Hw
    257    5     710     711     712  # Hw-Ow-Hw
    258    5     713     714     715  # Hw-Ow-Hw
    259    5     716     717     718  # Hw-Ow-Hw
    260    5     719     720     721  # Hw-Ow-Hw
    261    5     722     723     724  # Hw-Ow-Hw
    262    5     725     726     727  # Hw-Ow-Hw
    263    5     728     729     730  # Hw-Ow-Hw
    264    5     731     732     733  # Hw-Ow-Hw
    265    5     734     735     736  # Hw-Ow-Hw
    266    5     737     738     739  # Hw-Ow-Hw
    267    5     740     741     742  # Hw-Ow-Hw
    268    5     743     744     745  # Hw-Ow-Hw
    269    5     746     747     748  # Hw-Ow-Hw
    270    5     749     750     751  # Hw-Ow-Hw
    271    5     752     753     754  # Hw-Ow-Hw
    272    5     755     756     757  # Hw-Ow-Hw
    273    5     758     759     760  # Hw-Ow-Hw
    274    5     761     762     763  # Hw-Ow-Hw
    275    5     764     765     766  # Hw-Ow-Hw
    276    5     767     768     769  # Hw-Ow-Hw
    277    5     770     771     772  # Hw-Ow-Hw
    278    5     773     774     775  # Hw-Ow-Hw
    279    5     776     777     778  # Hw-Ow-Hw
    280    5     779     780     781  # Hw-Ow-Hw
    281    5     782     783     784  # Hw-Ow-Hw
    282    5     785     786     787  # Hw-Ow-Hw
    283    5     788     789     790  # Hw-Ow-Hw
    284    5     791     792     793  # Hw-Ow-Hw
    285    5     794     795     796  # Hw-Ow-Hw
    286    5     797     798     799  # Hw-Ow-Hw
    287    5     800     801     802  # Hw-Ow-Hw
    288    5     803     804     805  # Hw-Ow-Hw
    289    5     806     807     808  # Hw-Ow-Hw
    290    5     809     810     811  # Hw-Ow-Hw
    291    5     812     813     814  # Hw-Ow-Hw
    292    5     815     816     817  # Hw-Ow-Hw
    293    5     818     819     820  # Hw-Ow-Hw
    294    5     821     822     823  # Hw-Ow-Hw
    295    5     824     825     826  # Hw-Ow-Hw
    296    5     827     828     829  # Hw-Ow-Hw
    297    5     830     831     832  # Hw-Ow-Hw
    298    5     833     834     835  # Hw-Ow-Hw
    299    5     836     837     838  # Hw-Ow-Hw
    300    5     839     840     841  # Hw-Ow-Hw
    301    5     842     843     844  # Hw-Ow-Hw
    302    5     845     846     847  # Hw-Ow-Hw
    303    5     848     849     850  # Hw-Ow-Hw
    304    5     851     852     853  # Hw-Ow-Hw
    305    5     854     855     856  # Hw-Ow-Hw
    306    5     857     858     859  # Hw-Ow-Hw
    307    5     860     861     862  # Hw-Ow-Hw
    308    5     863     864     865  # Hw-Ow-Hw
    309    5     866     867     868  # Hw-Ow-Hw
    310    5     869     870     871  # Hw-Ow-Hw
    311    5     872     873     874  # Hw-Ow-Hw
    312    5     875     876     877  # Hw-Ow-Hw
    313    5     878     879     880  # Hw-Ow-Hw
    314    5     881     882     883  # Hw-Ow-Hw
    315    5     884     885     886  # Hw-Ow-Hw
    316    5     887     888     889  # Hw-Ow-Hw
    317    5     890     891     892  # Hw-Ow-Hw
    318    5     893     894     895  # Hw-Ow-Hw
    319    5     896     897     898  # Hw-Ow-Hw
    320    5     899     900     901  # Hw-Ow-Hw
    321    5     902     903     904  # Hw-Ow-Hw
    322    5     905     906     907  # Hw-Ow-Hw
    323    5     908     909     910  # Hw-Ow-Hw
    324    5     911     912     913  # Hw-Ow-Hw
    325    5     914     915     916  # Hw-Ow-Hw
    326    5     917     918     919  # Hw-Ow-Hw
    327    5     920     921     922  # Hw-Ow-Hw
    328    5     923     924     925  # Hw-Ow-Hw
    329    5     926     927     928  # Hw-Ow-Hw
    330    5     929     930     931  # Hw-Ow-Hw
    331    5     932     933     934  # Hw-Ow-Hw
    332    5     935     936     937  # Hw-Ow-Hw
    333    5     938     939     940  # Hw-Ow-Hw
    334    5     941     942     943  # Hw-Ow-Hw
    335    5     944     945     946  # Hw-Ow-Hw
    336    5     947     948     949  # Hw-Ow-Hw
    337    5     950     951     952  # Hw-Ow-Hw
    338    5     953     954     955  # Hw-Ow-Hw
    339    5     956     957     958  # Hw-Ow-Hw
    340    5     959     960     961  # Hw-Ow-Hw
    341    5     962     963     964  # Hw-Ow-Hw
    342    5     965     966     967  # Hw-Ow-Hw
    343    5     968     969     970  # Hw-Ow-Hw
    344    5     971     972     973  # Hw-Ow-Hw
    345    5     974     975     976  # Hw-Ow-Hw
    346    5     977     978     979  # Hw-Ow-Hw
    347    5     980     981     982  # Hw-Ow-Hw
    348    5     983     984     985  # Hw-Ow-Hw
    349    5     986     987     988  # Hw-Ow-Hw
    350    5     989     990     991  # Hw-Ow-Hw
    351    5     992     993     994  # Hw-Ow-Hw
    352    5     995     996     997  # Hw-Ow-Hw
    353    5     998     999    1000  # Hw-Ow-Hw
    354    5    1001    1002    1003  # Hw-Ow-Hw
    355    5    1004    1005    1006  # Hw-Ow-Hw
    356    5    1007    1008    1009  # Hw-Ow-Hw
    357    5    1010    1011    1012  # Hw-Ow-Hw
    358    5    1013    1014    1015  # Hw-Ow-Hw
    359    5    1016    1017    1018  # Hw-Ow-Hw
    360    5    1019    1020    1021  # Hw-Ow-Hw
    361    5    1022    1023    1024  # Hw-Ow-Hw
    362    5    1025    1026    1027  # Hw-Ow-Hw
    363    5    1028    1029    1030  # Hw-Ow-Hw
    364    5    1031    1032    1033  # Hw-Ow-Hw
    365    5    1034    1035    1036  # Hw-Ow-Hw
    366    5    1037    1038    1039  # Hw-Ow-Hw
    367    5    1040    1041    1042  # Hw-Ow-Hw
    368    5    1043    1044    1045  # Hw-Ow-Hw
    369    5    1046    1047    1048  # Hw-Ow-Hw
    370    5    1049    1050    1051  # Hw-Ow-Hw
    371    5    1052    1053    1054  # Hw-Ow-Hw
    372    5    1055    1056    1057  # Hw-Ow-Hw
    373    5    1058    1059    1060  # Hw-Ow-Hw
    374    5    1061    1062    1063  # Hw-Ow-Hw
    375    5    1064    1065    1066  # Hw-Ow-Hw
    376    5    1067    1068    1069  # Hw-Ow-Hw
    377    5    1070    1071    1072  # Hw-Ow-Hw
    378    5    1073    1074    1075  # Hw-Ow-Hw
    379    5    1076    1077    1078  # Hw-Ow-Hw
    380    5    1079    1080    1081  # Hw-Ow-Hw
    381    5    1082    1083    1084  # Hw-Ow-Hw
    382    5    1085    1086    1087  # Hw-Ow-Hw
    383    5    1088    1089    1090  # Hw-Ow-Hw
    384    5    1091    1092    1093  # Hw-Ow-Hw
    385    5    1094    1095    1096  # Hw-Ow-Hw
    386    5    1097    1098    1099  # Hw-Ow-Hw
    387    5    1100    1101    1102  # Hw-Ow-Hw
    388    5    1103    1104    1105  # Hw-Ow-Hw
    389    5    1106    1107    1108  # Hw-Ow-Hw
    390    5    1109    1110    1111  # Hw-Ow-Hw
    391    5    1112    1113    1114  # Hw-Ow-Hw
    392    5    1115    1116    1117  # Hw-Ow-Hw
    393    5    1118    1119    1120  # Hw-Ow-Hw
    394    5    1121    1122    1123  # Hw-Ow-Hw
    395    5    1124    1125    1126  # Hw-Ow-Hw
    396    5    1127    1128    1129  # Hw-Ow-Hw
    397    5    1130    1131    1132  # Hw-Ow-Hw
    398    5    1133    1134    1135  # Hw-Ow-Hw
    399    5    1136    1137    1138  # Hw-Ow-Hw
    400    5    1139    1140    1141  # Hw-Ow-Hw
    401    5    1142    1143    1144  # Hw-Ow-Hw
    402    5    1145    1146    1147  # Hw-Ow-Hw
    403    5    1148    1149    1150  # Hw-Ow-Hw
    404    5    1151    1152    1153  # Hw-Ow-Hw
    405    5    1154    1155    1156  # Hw-Ow-Hw
    406    5    1157    1158    1159  # Hw-Ow-Hw
    407    5    1160    1161    1162  # Hw-Ow-Hw
    408    5    1163    1164    1165  # Hw-Ow-Hw
    409    5    1166    1167    1168  # Hw-Ow-Hw
    410    5    1169    1170    1171  # Hw-Ow-Hw
    411    5    1172    1173    1174  # Hw-Ow-Hw
    412    5    1175    1176    1177  # Hw-Ow-Hw
    413    5    1178    1179    1180  # Hw-Ow-Hw
    414    5    1181    1182    1183  # Hw-Ow-Hw
    415    5    1184    1185    1186  # Hw-Ow-Hw
    416    5    1187    1188    1189  # Hw-Ow-Hw
    417    5    1190    1191    1192  # Hw-Ow-Hw
    418    5    1193    1194    1195  # Hw-Ow-Hw
    419    5    1196    1197    1198  # Hw-Ow-Hw
    420    5    1199    1200    1201  # Hw-Ow-Hw
    421    5    1202    1203    1204  # Hw-Ow-Hw
    422    5    1205    1206    1207  # Hw-Ow-Hw
    423    5    1208    1209    1210  # Hw-Ow-Hw
    424    5    1211    1212    1213  # Hw-Ow-Hw
    425    5    1214    1215    1216  # Hw-Ow-Hw
    426    5    1217    1218    1219  # Hw-Ow-Hw
    427    5    1220    1221    1222  # Hw-Ow-Hw
    428    5    1223    1224    1225  # Hw-Ow-Hw
    429    5    1226    1227    1228  # Hw-Ow-Hw
    430    5    1229    1230    1231  # Hw-Ow-Hw
    431    5    1232    1233    1234  # Hw-Ow-Hw
    432    5    1235    1236    1237  # Hw-Ow-Hw
    433    5    1238    1239    1240  # Hw-Ow-Hw
    434    5    1241    1242    1243  # Hw-Ow-Hw
    435    5    1244    1245    1246  # Hw-Ow-Hw
    436    5    1247    1248    1249  # Hw-Ow-Hw
    437    5    1250    1251    1252  # Hw-Ow-Hw
    438    5    1253    1254    1255  # Hw-Ow-Hw
    439    5    1256    1257    1258  # Hw-Ow-Hw
    440    5    1259    1260    1261  # Hw-Ow-Hw
    441    5    1262    1263    1264  # Hw-Ow-Hw
    442    5    1265    1266    1267  # Hw-Ow-Hw
    443    5    1268    1269    1270  # Hw-Ow-Hw
    444    5    1271    1272    1273  # Hw-Ow-Hw
    445    5    1274    1275    1276  # Hw-Ow-Hw
    446    5    1277    1278    1279  # Hw-Ow-Hw
    447    5    1280    1281    1282  # Hw-Ow-Hw
    448    5    1283    1284    1285  # Hw-Ow-Hw
    449    5    1286    1287    1288  # Hw-Ow-Hw
    450    5    1289    1290    1291  # Hw-Ow-Hw
    451    5    1292    1293    1294  # Hw-Ow-Hw
    452    5    1295    1296    1297  # Hw-Ow-Hw
    453    5    1298    1299    1300  # Hw-Ow-Hw
    454    5    1301    1302    1303  # Hw-Ow-Hw
    455    5    1304    1305    1306  # Hw-Ow-Hw
    456    5    1307    1308    1309  # Hw-Ow-Hw
    457    5    1310    1311    1312  # Hw-Ow-Hw
    458    5    1313    1314    1315  # Hw-Ow-Hw
    459    5    1316    1317    1318  # Hw-Ow-Hw
    460    5    1319    1320    1321  # Hw-Ow-Hw
    461    5    1322    1323    1324  # Hw-Ow-Hw
    462    5    1325    1326    1327  # Hw-Ow-Hw
    463    5    1328    1329    1330  # Hw-Ow-Hw
    464    5    1331    1332    1333  # Hw-Ow-Hw
    465    5    1334    1335    1336  # Hw-Ow-Hw
    466    5    1337    1338    1339  # Hw-Ow-Hw
    467    5    1340    1341    1342  # Hw-Ow-Hw
    468    5    1343    1344    1345  # Hw-Ow-Hw
    469    5    1346    1347    1348  # Hw-Ow-Hw
    470    5    1349    1350    1351  # Hw-Ow-Hw
    471    5    1352    1353    1354  # Hw-Ow-Hw
    472    5    1355    1356    1357  # Hw-Ow-Hw
    473    5    1358    1359    1360  # Hw-Ow-Hw
    474    5    1361    1362    1363  # Hw-Ow-Hw
    475    5    1364    1365    1366  # Hw-Ow-Hw
    476    5    1367    1368    1369  # Hw-Ow-Hw
    477    5    1370    1371    1372  # Hw-Ow-Hw
    478    5    1373    1374    1375  # Hw-Ow-Hw
    479    5    1376    1377    1378  # Hw-Ow-Hw
    480    5    1379    1380    1381  # Hw-Ow-Hw
    481    5    1382    1383    1384  # Hw-Ow-Hw
    482    5    1385    1386    1387  # Hw-Ow-Hw
    483    5    1388    1389    1390  # Hw-Ow-Hw
    484    5    1391    1392    1393  # Hw-Ow-Hw
    485    5    1394    1395    1396  # Hw-Ow-Hw
    486    5    1397    1398    1399  # Hw-Ow-Hw
    487    5    1400    1401    1402  # Hw-Ow-Hw
    488    5    1403    1404    1405  # Hw-Ow-Hw
    489    5    1406    1407    1408  # Hw-Ow-Hw
    490    5    1409    1410    1411  # Hw-Ow-Hw
    491    5    1412    1413    1414  # Hw-Ow-Hw
    492    5    1415    1416    1417  # Hw-Ow-Hw
    493    5    1418    1419    1420  # Hw-Ow-Hw
    494    5    1421    1422    1423  # Hw-Ow-Hw
    495    5    1424    1425    1426  # Hw-Ow-Hw
    496    5    1427    1428    1429  # Hw-Ow-Hw
    497    5    1430    1431    1432  # Hw-Ow-Hw
    498    5    1433    1434    1435  # Hw-Ow-Hw
    499    5    1436    1437    1438  # Hw-Ow-Hw
    500    5    1439    1440    1441  # Hw-Ow-Hw
    501    5    1442    1443    1444  # Hw-Ow-Hw
    502    5    1445    1446    1447  # Hw-Ow-Hw
    503    5    1448    1449    1450  # Hw-Ow-Hw
    504    5    1451    1452    1453  # Hw-Ow-Hw
    505    5    1454    1455    1456  # Hw-Ow-Hw
    506    5    1457    1458    1459  # Hw-Ow-Hw
    507    5    1460    1461    1462  # Hw-Ow-Hw
    508    5    1463    1464    1465  # Hw-Ow-Hw
    509    5    1466    1467    1468  # Hw-Ow-Hw
    510    5    1469    1470    1471  # Hw-Ow-Hw
    511    5    1472    1473    1474  # Hw-Ow-Hw
    512    5    1475    1476    1477  # Hw-Ow-Hw
    513    5    1478    1479    1480  # Hw-Ow-Hw
    514    5    1481    1482    1483  # Hw-Ow-Hw
    515    5    1484    1485    1486  # Hw-Ow-Hw
    516    5    1487    1488    1489  # Hw-Ow-Hw
    517    5    1490    1491    1492  # Hw-Ow-Hw
    518    5    1493    1494    1495  # Hw-Ow-Hw
    519    5    1496    1497    1498  # Hw-Ow-Hw
    520    5    1499    1500    1501  # Hw-Ow-Hw
    521    5    1502    1503    1504  # Hw-Ow-Hw
    522    5    1505    1506    1507  # Hw-Ow-Hw
    523    5    1508    1509    1510  # Hw-Ow-Hw
    524    5    1511    1512    1513  # Hw-Ow-Hw
    525    5    1514    1515    1516  # Hw-Ow-Hw
    526    5    1517    1518    1519  # Hw-Ow-Hw
    527    5    1520    1521    1522  # Hw-Ow-Hw

Dihedrals

      1    1       6       3       2       4  # HC-CT-CO-O2
      2    1       6       3       2       5  # HC-CT-CO-O2
      3    1       7       3       2       4  # HC-CT-CO-O2
      4    1       7       3       2       5  # HC-CT-CO-O2
      5    1       8       3       2       4  # HC-CT-CO-O2
      6    1       8       3       2       5  # HC-CT-CO-O2
      7    2       3       4       2       5  # CT-O2-CO-O2
      8    1      13      10       9      11  # HC-CT-CO-O2
      9    1      13      10       9      12  # HC-CT-CO-O2
     10    1      14      10       9      11  # HC-CT-CO-O2
     11    1      14      10       9      12  # HC-CT-CO-O2
     12    1      15      10       9      11  # HC-CT-CO-O2
     13    1      15      10       9      12  # HC-CT-CO-O2
     14    2      10      11       9      12  # CT-O2-CO-O2
     15    1      20      17      16      18  # HC-CT-CO-O2
     16    1      20      17      16      19  # HC-CT-CO-O2
     17    1      21      17      16      18  # HC-CT-CO-O2
     18    1      21      17      16      19  # HC-CT-CO-O2
     19    1      22      17      16      18  # HC-CT-CO-O2
     20    1      22      17      16      19  # HC-CT-CO-O2
     21    2      17      18      16      19  # CT-O2-CO-O2
