LAMMPS (10 Dec 2025)
OMP_NUM_THREADS environment is not set. Defaulting to 1 thread.
  using 1 OpenMP thread(s) per MPI task
# created by fftool

units real
boundary p p p

atom_style full
bond_style harmonic
angle_style harmonic
dihedral_style opls

special_bonds lj/coul 0.0 0.0 0.5

# remove hybrid if not necessary
pair_style hybrid lj/cut/coul/long 10.0 10.0
pair_modify mix geometric tail yes
read_data data.lmp
Reading data file ...
  orthogonal box = (0 0 0) to (26.32 26.32 26.32)
  1 by 1 by 2 MPI processor grid
  reading atoms ...
  1522 atoms
  scanning bonds ...
  1 = max bonds/atom
  scanning angles ...
  6 = max angles/atom
  scanning dihedrals ...
  6 = max dihedrals/atom
  orthogonal box = (0 0 0) to (26.32 26.32 26.32)
  1 by 1 by 2 MPI processor grid
  reading bonds ...
  1018 bonds
  reading angles ...
  527 angles
  reading dihedrals ...
  21 dihedrals
Finding 1-2 1-3 1-4 neighbors ...
  special bond factors lj:    0        0        0.5     
  special bond factors coul:  0        0        0.5     
     4 = max # of 1-2 neighbors
     3 = max # of 1-3 neighbors
     5 = max # of 1-4 neighbors
     6 = max # of special neighbors
  special bonds CPU = 0.002 seconds
  read_data CPU = 0.202 seconds
# read_restart restart1.lmp

kspace_style pppm 1.0e-5

# remove pair style if not using hybrid
pair_coeff    1    1 lj/cut/coul/long     0.125643     2.995200  # Nd Nd
pair_coeff    2    2 lj/cut/coul/long     0.105000     3.750000  # CO2 CO2
pair_coeff    3    3 lj/cut/coul/long     0.065999     3.500000  # CTA CTA
pair_coeff    4    4 lj/cut/coul/long     0.210000     2.960000  # O2 O2
pair_coeff    5    5 lj/cut/coul/long     0.030000     2.500000  # HC HC
pair_coeff    6    6 lj/cut/coul/long     0.000000     1.000000  # Hw Hw
pair_coeff    7    7 lj/cut/coul/long     0.155425     3.165500  # Ow Ow

# minimize 1.0e-4 1.0e-6 100 1000
# reset_timestep 0

fix SHAKE all shake 0.0001 20 0 b 3 4
Finding SHAKE clusters ...
       0 = # of size 2 clusters
     500 = # of size 3 clusters
       3 = # of size 4 clusters
       0 = # of frozen angles
  find clusters CPU = 0.095 seconds

neighbor 2.0 bin
neigh_modify delay 0 every 1 check yes








#fix VAVG all ave/time 10 1000 50000 v_vinst

# ---------------------------------------------------------------------------
# RENEU 2026 simulation protocol (stage3a M5 diethanolammonium acetate)
# 1 minimise  2 NVT relaxation  3 NPT equilibration  4 NPT production
# ---------------------------------------------------------------------------
timestep 1.0

variable TK      equal 300.0
variable PBAR    equal 1.0
variable NVTRUN  equal 20000
variable EQRUN   equal 100000
variable PRODRUN equal 200000

variable dens equal density
variable vol  equal vol

thermo 1000
thermo_style custom step temp press vol v_dens pe etotal

# --- 1. energy minimisation ------------------------------------------------
print "RENEU >>> stage 1 of 4: energy minimisation"
RENEU >>> stage 1 of 4: energy minimisation
minimize 1.0e-4 1.0e-6 10000 100000
PPPM initialization ...
  using 12-bit tables for long-range coulomb
  G vector (1/distance) = 0.30848635
  grid = 24 24 24
  stencil order = 5
  estimated absolute RMS force accuracy = 0.0022975433
  estimated relative force accuracy = 6.9189834e-06
  using double precision FFTW3
  3d grid and FFT values/proc = 18259 6912
Generated 21 of 21 mixed pair_coeff terms from geometric mixing rule
WARNING: Using fix shake with minimization.
  Substituting constraints with harmonic restraint forces using kbond=1987206.7 (src/RIGID/fix_shake.cpp:397)
Neighbor list info ...
  update: every = 1 steps, delay = 0 steps, check = yes
  max neighbors/atom: 2000, page size: 100000
  master list distance cutoff = 12
  ghost atom cutoff = 12
  binsize = 6, bins = 5 5 5
  1 neighbor lists, perpetual/occasional/extra = 1 0 0
  (1) pair lj/cut/coul/long, perpetual
      attributes: half, newton on
      pair build: half/bin/newton
      stencil: half/bin/3d
      bin: standard
Per MPI rank memory allocation (min/avg/max) = 14.9 | 15 | 15.1 Mbytes
   Step          Temp          Press          Volume         v_dens         PotEng         TotEng    
         0   0              33267.454      18232.98       0.84961199     7716.1975      7716.1975    
        13   0              96835.769      18232.98       0.84961199     4979.0803      4979.0803    
Loop time of 6.7421 on 2 procs for 13 steps with 1522 atoms

100.0% CPU use with 2 MPI tasks x 1 OpenMP threads

Minimization stats:
  Stopping criterion = energy tolerance
  Energy initial, next-to-last, final = 
      7716.19745576751   4979.27361875243   4979.08034523107
  Force two-norm initial, final = 55835.369 2281.7069
  Force max component initial, final = 16095.853 191.55967
  Final line search alpha, max atom move = 2.9478242e-05 0.0056468425
  Iterations, force evaluations = 13 58

MPI task timing breakdown:
Section |  min time  |  avg time  |  max time  |%varavg| %total
---------------------------------------------------------------
Pair    | 2.246      | 2.2725     | 2.2989     |   1.8 | 33.71
Bond    | 0.0053232  | 0.0095528  | 0.013782   |   4.3 |  0.14
Kspace  | 3.4824     | 3.5045     | 3.5265     |   1.2 | 51.98
Neigh   | 0          | 0          | 0          |   0.0 |  0.00
Comm    | 0.36146    | 0.37192    | 0.38238    |   1.7 |  5.52
Output  | 0          | 0          | 0          |   0.0 |  0.00
Modify  | 0.015161   | 0.03312    | 0.051079   |   9.9 |  0.49
Other   |            | 0.5505     |            |       |  8.17

Nlocal:            761 ave         805 max         717 min
Histogram: 1 0 0 0 0 0 0 0 0 1
Nghost:         7214.5 ave        7450 max        6979 min
Histogram: 1 0 0 0 0 0 0 0 0 1
Neighs:         239187 ave      254812 max      223562 min
Histogram: 1 0 0 0 0 0 0 0 0 1

Total # of neighbors = 478374
Ave neighs/atom = 314.30618
Ave special neighs/atom = 2.0538765
Neighbor list builds = 0
Dangerous builds = 0
reset_timestep 0

# --- 2. NVT relaxation (lets the packed box relax before the barostat) ------
print "RENEU >>> stage 2 of 4: NVT relaxation"
RENEU >>> stage 2 of 4: NVT relaxation
velocity all create ${TK} 12345 mom yes rot yes dist gaussian
velocity all create 300 12345 mom yes rot yes dist gaussian
fix NVTRELAX all nvt temp ${TK} ${TK} 100
fix NVTRELAX all nvt temp 300 ${TK} 100
fix NVTRELAX all nvt temp 300 300 100
run ${NVTRUN}
run 20000
PPPM initialization ...
  using 12-bit tables for long-range coulomb
  G vector (1/distance) = 0.30848635
  grid = 24 24 24
  stencil order = 5
  estimated absolute RMS force accuracy = 0.0022975433
  estimated relative force accuracy = 6.9189834e-06
  using double precision FFTW3
  3d grid and FFT values/proc = 18259 6912
Generated 21 of 21 mixed pair_coeff terms from geometric mixing rule
Per MPI rank memory allocation (min/avg/max) = 13.78 | 13.88 | 13.97 Mbytes
   Step          Temp          Press          Volume         v_dens         PotEng         TotEng    
         0   300            97745.164      18232.98       0.84961199     4978.9537      6038.3336    
      1000   282.12862     -2486.5462      18232.98       0.84961199    -6441.2732     -5445.0019    
      2000   314.97531     -2203.8221      18232.98       0.84961199    -6478.4729     -5366.2112    
      3000   299.86231     -1506.8194      18232.98       0.84961199    -6562.6669     -5503.7732    
      4000   298.09131     -1669.8092      18232.98       0.84961199    -6564.5482     -5511.9084    
      5000   293.83201     -1657.7082      18232.98       0.84961199    -6555.7158     -5518.1167    
      6000   307.02421     -2095.2692      18232.98       0.84961199    -6637.0821     -5552.8979    
      7000   295.4127      -2406.8457      18232.98       0.84961199    -6626.8904     -5583.7095    
      8000   301.63365     -2640.8215      18232.98       0.84961199    -6544.0036     -5478.8549    
      9000   297.51925     -2010.8744      18232.98       0.84961199    -6593.9272     -5543.3075    
     10000   291.50681     -2069.8902      18232.98       0.84961199    -6683.0089     -5653.6207    
     11000   301.79995     -2147.166       18232.98       0.84961199    -6600.6659     -5534.9299    
     12000   298.65274     -2875.0715      18232.98       0.84961199    -6608.1423     -5553.5199    
     13000   286.79857     -2226.8772      18232.98       0.84961199    -6592.1078     -5579.3457    
     14000   309.24013     -1694.1573      18232.98       0.84961199    -6579.1627     -5487.1535    
     15000   296.07177     -1336.4814      18232.98       0.84961199    -6701.6342     -5656.1259    
     16000   301.03823     -1691.4341      18232.98       0.84961199    -6697.0372     -5633.9911    
     17000   304.1553      -1771.4966      18232.98       0.84961199    -6605.0688     -5531.0154    
     18000   298.01178     -1435.7614      18232.98       0.84961199    -6644.041      -5591.6821    
     19000   300.78485     -1453.4107      18232.98       0.84961199    -6597.8996     -5535.7482    
     20000   292.77258     -1187.1773      18232.98       0.84961199    -6647.0973     -5613.2394    
Loop time of 735.514 on 2 procs for 20000 steps with 1522 atoms

Performance: 2.349 ns/day, 10.215 hours/ns, 27.192 timesteps/s, 41.386 katom-step/s
96.2% CPU use with 2 MPI tasks x 1 OpenMP threads

MPI task timing breakdown:
Section |  min time  |  avg time  |  max time  |%varavg| %total
---------------------------------------------------------------
Pair    | 280.44     | 304.28     | 328.13     | 136.7 | 41.37
Bond    | 1.5856     | 1.9247     | 2.2638     |  24.4 |  0.26
Kspace  | 304.93     | 327.68     | 350.43     | 125.7 | 44.55
Neigh   | 28.798     | 28.897     | 28.997     |   1.9 |  3.93
Comm    | 40.701     | 41.222     | 41.743     |   8.1 |  5.60
Output  | 0.001989   | 0.0042315  | 0.0064741  |   3.4 |  0.00
Modify  | 26.026     | 26.646     | 27.266     |  12.0 |  3.62
Other   |            | 4.854      |            |       |  0.66

Nlocal:            761 ave         802 max         720 min
Histogram: 1 0 0 0 0 0 0 0 0 1
Nghost:         7179.5 ave        7340 max        7019 min
Histogram: 1 0 0 0 0 0 0 0 0 1
Neighs:         233504 ave      262268 max      204741 min
Histogram: 1 0 0 0 0 0 0 0 0 1

Total # of neighbors = 467009
Ave neighs/atom = 306.83903
Ave special neighs/atom = 2.0538765
Neighbor list builds = 903
Dangerous builds = 0
unfix NVTRELAX

# --- 3. NPT equilibration (this is where the density finds its own value) ---
# restart files are written every 25000 steps. If the run stops for any
# reason you can pick up from the last one instead of starting over:
#     read_restart rst_a.lmp      (or rst_b.lmp, whichever is newer)
print "RENEU >>> stage 3 of 4: NPT equilibration - watch the density column"
RENEU >>> stage 3 of 4: NPT equilibration - watch the density column
restart 25000 rst_a.lmp rst_b.lmp
fix NPTEQ all npt temp ${TK} ${TK} 100 iso ${PBAR} ${PBAR} 1000
fix NPTEQ all npt temp 300 ${TK} 100 iso ${PBAR} ${PBAR} 1000
fix NPTEQ all npt temp 300 300 100 iso ${PBAR} ${PBAR} 1000
fix NPTEQ all npt temp 300 300 100 iso 1 ${PBAR} 1000
fix NPTEQ all npt temp 300 300 100 iso 1 1 1000
run ${EQRUN}
run 100000
PPPM initialization ...
  using 12-bit tables for long-range coulomb
  G vector (1/distance) = 0.30848635
  grid = 24 24 24
  stencil order = 5
  estimated absolute RMS force accuracy = 0.0022975433
  estimated relative force accuracy = 6.9189834e-06
  using double precision FFTW3
  3d grid and FFT values/proc = 18259 6912
Generated 21 of 21 mixed pair_coeff terms from geometric mixing rule
Per MPI rank memory allocation (min/avg/max) = 13.78 | 13.88 | 13.97 Mbytes
   Step          Temp          Press          Volume         v_dens         PotEng         TotEng    
     20000   292.77258     -1186.849       18232.98       0.84961199    -6647.0973     -5613.2394    
     21000   295.61387      150.27973      16825.309      0.92069383    -6737.4902     -5693.5989    
     22000   301.32213      339.31531      15934.403      0.97217063    -6763.3774     -5699.3287    
     23000   298.50954      674.13782      15239.211      1.0165197     -6754.4362     -5700.3195    
     24000   299.75693     -155.8642       15086.987      1.0267762     -6792.6199     -5734.0984    
     25000   292.42589      676.54784      14674.652      1.0556269     -6854.822      -5822.1883    
     26000   308.85027     -329.24975      14843.886      1.0435918     -6843.3439     -5752.7113    
     27000   311.38204      773.42305      14520.49       1.0668344     -6846.8718     -5747.2989    
     28000   293.92579      612.28822      14649.008      1.0574749     -6862.0842     -5824.154     
     29000   303.89076      58.482156      14631.044      1.0587733     -6894.601      -5821.4818    
     30000   292.67978      394.74815      14578.972      1.0625549     -6889.7383     -5856.2081    
     31000   307.64549      92.657448      14620.36       1.059547      -6866.8333     -5780.4551    
     32000   290.43557     -803.18572      14898.923      1.0397368     -6819.1661     -5793.5607    
     33000   300.85816     -177.70294      14969.676      1.0348226     -6774.3591     -5711.9488    
     34000   300.14581      528.87246      14620.19       1.0595593     -6871.6125     -5811.7177    
     35000   291.56994      554.14102      14604.357      1.060708      -6880.975      -5851.3639    
     36000   308.89442     -497.92365      15011.326      1.0319513     -6841.5982     -5750.8097    
     37000   294.39465      544.6058       14933.362      1.037339      -6833.3281     -5793.7422    
     38000   302.48455     -556.26231      14809.739      1.0459981     -6784.2905     -5716.1369    
     39000   295.46005      830.03231      14816.75       1.0455031     -6816.6409     -5773.2928    
     40000   298.19767      337.68452      14754.667      1.0499023     -6777.119      -5724.1036    
     41000   304.84046     -658.88282      14765.672      1.0491198     -6828.424      -5751.9512    
     42000   312.0024      -1391.6486      14770.058      1.0488082     -6804.3606     -5702.597     
     43000   298.53922     -1210.2474      14909.142      1.0390242     -6787.4711     -5733.2496    
     44000   300.56495     -340.54079      14359.36       1.0788056     -6789.1601     -5727.7852    
     45000   305.91034      395.94184      14578.027      1.0626238     -6809.2484     -5728.9975    
     46000   309.17217     -15.32493       14805.055      1.046329      -6851.5295     -5759.7603    
     47000   295.90526     -162.48971      14668.066      1.056101      -6870.2292     -5825.309     
     48000   295.35498      73.949154      14981.837      1.0339826     -6877.704      -5834.7269    
     49000   291.71105     -822.70396      15023.58       1.0311097     -6818.3781     -5788.2687    
     50000   303.72811      588.16402      14759.938      1.0495273     -6863.8722     -5791.3274    
     51000   290.65907      447.38838      14711.663      1.0529713     -6828.9803     -5802.5857    
     52000   310.12314     -417.14081      14775.411      1.0484282     -6832.882      -5737.7546    
     53000   295.24098      689.28157      14714.137      1.0527942     -6840.0425     -5797.468     
     54000   300.99796      1161.0438      14632.216      1.0586885     -6836.7361     -5773.8322    
     55000   309.9175      -513.32165      14775.189      1.048444      -6804.9661     -5710.5649    
     56000   288.17118      567.29548      14738.244      1.0510722     -6852.0203     -5834.4111    
     57000   294.49298      445.15727      14890.318      1.0403376     -6861.9694     -5822.0363    
     58000   298.29648     -354.30788      14794.97       1.0470423     -6857.2235     -5803.8592    
     59000   303.99667     -264.18239      14780.718      1.0480519     -6750.2573     -5676.7641    
     60000   300.15145      101.13398      14583.577      1.0622194     -6788.1415     -5728.2268    
     61000   297.76968     -502.58733      14752.469      1.0500587     -6848.4315     -5796.9275    
     62000   301.28995      629.10115      14749.984      1.0502356     -6866.1253     -5802.1903    
     63000   300.60452      224.28507      14887.508      1.040534      -6795.709      -5734.1944    
     64000   290.20744     -24.457174      14808.799      1.0460645     -6741.9544     -5717.1546    
     65000   293.20615      1294.0871      14846.821      1.0433856     -6791.2546     -5755.8656    
     66000   283.66806     -783.46905      14912.72       1.0387749     -6878.5117     -5876.8042    
     67000   299.49085     -535.51797      14869.944      1.041763      -6858.4905     -5800.9085    
     68000   307.49467     -936.95443      15068.649      1.0280257     -6816.1981     -5730.3525    
     69000   296.19376     -508.49433      14578.989      1.0625537     -6886.3996     -5840.4605    
     70000   295.92989     -201.45893      14621.844      1.0594395     -6876.7183     -5831.711     
     71000   293.90597     -127.95794      14680.006      1.055242      -6845.6683     -5807.8081    
     72000   298.51358      886.56666      14717.952      1.0525213     -6837.0493     -5782.9183    
     73000   301.45936     -576.12282      14909.999      1.0389644     -6867.1813     -5802.648     
     74000   300.79783     -339.29098      14950.205      1.0361703     -6812.0432     -5749.8459    
     75000   293.65311      586.46389      14725.463      1.0519844     -6854.5736     -5817.6063    
     76000   322.86252      1199.3639      14876.343      1.0413149     -6803.8012     -5663.6876    
     77000   294.03409     -111.24942      14613.977      1.0600098     -6847.6388     -5809.3262    
     78000   303.52375     -39.864095      14499.916      1.0683481     -6897.9623     -5826.1391    
     79000   306.11689      489.24522      14671.784      1.0558333     -6794.8169     -5713.8366    
     80000   282.70138     -111.46335      14935.765      1.0371721     -6816.2517     -5817.9578    
     81000   292.05133     -1355.0675      14729.656      1.051685      -6875.7495     -5844.4385    
     82000   300.78476      344.20536      14827.703      1.0447308     -6822.5225     -5760.3714    
     83000   293.12796     -492.07027      14721.789      1.052247      -6896.051      -5860.9381    
     84000   301.88788     -195.18111      14882.346      1.0408949     -6865.3169     -5799.2704    
     85000   306.16167     -443.47778      14628.776      1.0589374     -6847.0618     -5765.9234    
     86000   292.25396      1167.1772      14721.112      1.0522954     -6814.865      -5782.8384    
     87000   288.43016     -119.57086      14879.678      1.0410815     -6878.0641     -5859.5404    
     88000   299.34956     -1326.2181      14828.058      1.0447058     -6857.0388     -5799.9558    
     89000   304.5467       191.19438      15015.166      1.0316874     -6906.5927     -5831.1572    
     90000   301.2732       941.43997      14734.559      1.051335      -6871.9227     -5808.0468    
     91000   300.65404     -810.65678      14908.838      1.0390453     -6852.6669     -5790.9774    
     92000   299.58543     -406.50487      14972.323      1.0346396     -6855.0638     -5797.1479    
     93000   299.27574     -58.605984      14812.966      1.0457702     -6856.7671     -5799.9447    
     94000   298.12302     -296.58885      14840.498      1.0438301     -6880.5973     -5827.8455    
     95000   309.21815     -383.91517      14805.794      1.0462768     -6854.9574     -5763.0258    
     96000   298.26805     -134.98715      14775.325      1.0484343     -6801.9912     -5748.7273    
     97000   297.38143     -539.37816      15048.934      1.0293724     -6880.1969     -5830.0639    
     98000   308.42204      284.07718      15048.374      1.0294108     -6850.3759     -5761.2556    
     99000   309.43832     -188.13249      14996.801      1.0329509     -6904.0925     -5811.3834    
    100000   299.98294      193.06841      14971.819      1.0346744     -6764.0979     -5704.7783    
    101000   295.03485     -650.14567      14875.681      1.0413613     -6834.9195     -5793.0728    
    102000   298.58776     -743.48319      14895.287      1.0399906     -6788.5713     -5734.1784    
    103000   287.84415     -366.99971      14761.12       1.0494433     -6793.7973     -5777.3429    
    104000   302.88074      183.34878      14671.744      1.0558362     -6861.8737     -5792.3211    
    105000   315.93061      191.26081      14803.206      1.0464597     -6865.9741     -5750.339     
    106000   309.07389     -677.66761      14742.978      1.0507347     -6818.2483     -5726.8261    
    107000   303.32234      177.3221       14746.051      1.0505157     -6804.8203     -5733.7083    
    108000   309.4146      -301.74359      14726.307      1.0519242     -6805.3015     -5712.6761    
    109000   278.77258     -936.59794      14754.416      1.0499201     -6830.8905     -5846.4703    
    110000   308.75034      574.92286      14730.243      1.0516431     -6884.0518     -5793.7721    
    111000   303.33202     -13.577364      14871.546      1.0416508     -6873.0748     -5801.9287    
    112000   319.95318     -924.51198      14894.229      1.0400644     -6845.0757     -5715.2358    
    113000   306.28088     -235.70933      14726.536      1.0519078     -6848.4274     -5766.8681    
    114000   297.25545      356.73654      14708.244      1.053216      -6847.4278     -5797.7396    
    115000   297.1693       545.5702       14605.684      1.0606116     -6822.9283     -5773.5444    
    116000   304.63465      531.74999      14834.283      1.0442674     -6804.9993     -5729.2533    
    117000   294.81999     -1048.3237      14779.437      1.0481427     -6843.6686     -5802.5807    
    118000   305.70917     -848.65101      14777.297      1.0482944     -6801.2433     -5721.7028    
    119000   299.57455     -819.61121      14862.364      1.0422944     -6843.3314     -5785.4539    
    120000   291.77102     -1600.0213      14926.78       1.0377964     -6844.905      -5814.5838    
Loop time of 4778.74 on 2 procs for 100000 steps with 1522 atoms

Performance: 1.808 ns/day, 13.274 hours/ns, 20.926 timesteps/s, 31.849 katom-step/s
96.6% CPU use with 2 MPI tasks x 1 OpenMP threads

MPI task timing breakdown:
Section |  min time  |  avg time  |  max time  |%varavg| %total
---------------------------------------------------------------
Pair    | 1872.7     | 1878.3     | 1884       |  13.0 | 39.31
Bond    | 9.3853     | 10.762     | 12.139     |  42.0 |  0.23
Kspace  | 1789.9     | 1796.3     | 1802.7     |  15.0 | 37.59
Neigh   | 150.45     | 150.49     | 150.54     |   0.4 |  3.15
Comm    | 253.29     | 255.9      | 258.52     |  16.3 |  5.35
Output  | 0.056928   | 0.090205   | 0.12348    |  11.1 |  0.00
Modify  | 591.22     | 593.27     | 595.32     |   8.4 | 12.41
Other   |            | 93.59      |            |       |  1.96

Nlocal:            761 ave         766 max         756 min
Histogram: 1 0 0 0 0 0 0 0 0 1
Nghost:           7981 ave        8012 max        7950 min
Histogram: 1 0 0 0 0 0 0 0 0 1
Neighs:         280781 ave      286488 max      275074 min
Histogram: 1 0 0 0 0 0 0 0 0 1

Total # of neighbors = 561562
Ave neighs/atom = 368.96321
Ave special neighs/atom = 2.0538765
Neighbor list builds = 4353
Dangerous builds = 0
unfix NPTEQ
write_data data.after_equilibration.lmp
System init for write_data ...
PPPM initialization ...
  using 12-bit tables for long-range coulomb
  G vector (1/distance) = 0.31328994
  grid = 24 24 24
  stencil order = 5
  estimated absolute RMS force accuracy = 0.0018835118
  estimated relative force accuracy = 5.6721399e-06
  using double precision FFTW3
  3d grid and FFT values/proc = 18259 6912
Generated 21 of 21 mixed pair_coeff terms from geometric mixing rule

# --- 4. NPT production - this is the trajectory you analyse ----------------
print "RENEU >>> stage 4 of 4: NPT production"
RENEU >>> stage 4 of 4: NPT production
reset_timestep 0
fix NPTPROD all npt temp ${TK} ${TK} 100 iso ${PBAR} ${PBAR} 1000
fix NPTPROD all npt temp 300 ${TK} 100 iso ${PBAR} ${PBAR} 1000
fix NPTPROD all npt temp 300 300 100 iso ${PBAR} ${PBAR} 1000
fix NPTPROD all npt temp 300 300 100 iso 1 ${PBAR} 1000
fix NPTPROD all npt temp 300 300 100 iso 1 1 1000
fix DENSAVG all ave/time 10 100 1000 v_dens v_vol file density.dat

dump TRAJ all custom 500 dump.lammpstrj id mol type element q xu yu zu
dump_modify TRAJ element N C C O H H O

run ${PRODRUN}
run 200000
PPPM initialization ...
  using 12-bit tables for long-range coulomb
  G vector (1/distance) = 0.31328994
  grid = 24 24 24
  stencil order = 5
  estimated absolute RMS force accuracy = 0.0018835118
  estimated relative force accuracy = 5.6721399e-06
  using double precision FFTW3
  3d grid and FFT values/proc = 18259 6912
Generated 21 of 21 mixed pair_coeff terms from geometric mixing rule
Per MPI rank memory allocation (min/avg/max) = 14.17 | 14.27 | 14.37 Mbytes
   Step          Temp          Press          Volume         v_dens         PotEng         TotEng    
         0   291.77102     -1467.2183      14926.78       1.0377964     -6844.9053     -5814.5841    
      1000   311.2614       307.94422      14925.067      1.0379155     -6770.7987     -5671.6518    
      2000   289.24382     -1034.6358      15102.942      1.0256915     -6799.5091     -5778.1122    
      3000   311.3865       911.24296      14865.724      1.0420588     -6849.5379     -5749.9492    
      4000   302.68363      793.26712      14649.271      1.0574559     -6838.9653     -5770.1088    
      5000   305.90378      665.93995      14844.705      1.0435343     -6827.5527     -5747.3249    
      6000   305.12747      590.77597      14542.174      1.0652436     -6866.8809     -5789.3945    
      7000   308.74323      1276.8217      14787.712      1.0475561     -6829.1326     -5738.878     
      8000   303.94508      992.31465      14613.061      1.0600762     -6789.6344     -5716.3234    
      9000   298.49023      641.91129      14658.82       1.0567671     -6848.8116     -5794.7631    
     10000   289.87985      381.81387      14670.572      1.0559205     -6933.1691     -5909.5261    
     11000   297.23827      81.725681      14955.51       1.0358028     -6874.6606     -5825.0331    
     12000   292.06879      11.518733      14915.729      1.0385653     -6844.5213     -5813.1486    
     13000   294.69517      716.258        14781.494      1.0479968     -6882.8869     -5842.2398    
     14000   295.64046     -198.24407      14963.544      1.0352466     -6847.2616     -5803.2765    
     15000   293.54503      442.55359      14998.593      1.0328274     -6772.948      -5736.3623    
     16000   300.88447      1187.5783      14731.032      1.0515868     -6848.9297     -5786.4265    
     17000   303.49586      579.54953      14693.715      1.0542574     -6750.6554     -5678.9307    
     18000   287.29818     -11.952709      14677.303      1.0554363     -6834.0463     -5819.5199    
     19000   298.3597       128.39011      14796.026      1.0469675     -6797.2409     -5743.6533    
     20000   306.96267      183.2657       14958.724      1.0355802     -6826.1471     -5742.1802    
     21000   296.07449      763.00449      14626.536      1.0590996     -6811.1997     -5765.6819    
     22000   297.83678     -183.6639       14841.641      1.0437497     -6801.7972     -5750.0562    
     23000   307.84239     -289.77411      14947.506      1.0363574     -6864.7649     -5777.6914    
     24000   285.17003      558.25808      14703.577      1.0535503     -6796.5682     -5789.5569    
     25000   294.09261      847.35498      14565.042      1.0635711     -6880.1414     -5841.6221    
     26000   299.01269      900.17229      14625.077      1.0592053     -6826.2869     -5770.3935    
     27000   297.85323      779.7213       14583.078      1.0622557     -6896.6856     -5844.8865    
     28000   289.66186     -248.57713      14601.291      1.0609307     -6849.5067     -5826.6335    
     29000   289.39088      1048.5161      14336.506      1.0805254     -6910.8282     -5888.9119    
     30000   307.11052      166.15061      14459.372      1.0713438     -6821.0122     -5736.5231    
     31000   290.67233      1137.4015      14581.994      1.0623347     -6836.8986     -5810.4572    
     32000   302.83139      482.40319      14868.876      1.0418379     -6829.568      -5760.1897    
     33000   300.71462     -502.44982      14834.913      1.044223      -6797.3029     -5735.3995    
     34000   302.67945      776.26194      14661.94       1.0565422     -6842.1003     -5773.2586    
     35000   290.09132      919.80953      14572.683      1.0630135     -6813.9323     -5789.5426    
     36000   290.75592      99.725929      14873.797      1.0414932     -6786.246      -5759.5095    
     37000   296.70039     -109.22928      14905.077      1.0393075     -6886.4614     -5838.7333    
     38000   305.49757      584.39092      14611.399      1.0601968     -6850.4662     -5771.6729    
     39000   290.92838     -920.77046      14976.847      1.0343271     -6816.8672     -5789.5217    
     40000   298.7559      -345.81034      15282.819      1.0136192     -6815.0274     -5760.0408    
     41000   308.16065     -533.06464      14761.057      1.0494477     -6851.8535     -5763.6562    
     42000   296.53118     -720.12624      15038.926      1.0300575     -6803.5175     -5756.387     
     43000   307.38872     -111.9756       14949.45       1.0362227     -6815.2421     -5729.7707    
     44000   306.71568      79.726009      14715.253      1.0527144     -6858.4493     -5775.3546    
     45000   290.42583      985.67797      14686.96       1.0547423     -6871.0861     -5845.5151    
     46000   300.02333      1856.5689      14697.617      1.0539775     -6855.5818     -5796.1196    
     47000   296.74523      604.81541      14795.062      1.0470357     -6811.0616     -5763.1751    
     48000   302.68719      1744.6292      14627.368      1.0590393     -6868.7295     -5799.8604    
     49000   300.08494     -164.66995      14702.43       1.0536325     -6854.0003     -5794.3204    
     50000   296.06557      815.7592       14572.292      1.063042      -6879.9336     -5834.4472    
     51000   296.06128      932.81396      14713.221      1.0528598     -6829.669      -5784.1978    
     52000   305.17036      817.37457      14906.294      1.0392227     -6875.1463     -5797.5085    
     53000   292.36454     -1029.8405      14992.149      1.0332713     -6862.2915     -5829.8744    
     54000   290.96615     -760.66998      15011.572      1.0319345     -6820.8997     -5793.4207    
     55000   300.41733      533.93684      14836.836      1.0440877     -6812.4641     -5751.6105    
     56000   287.49785     -1195.2776      15222.883      1.01761       -6895.3824     -5880.1509    
     57000   309.89176     -1174.0672      14920.884      1.0382065     -6887.1774     -5792.867     
     58000   304.9329       41.0863        14964.048      1.0352118     -6772.1322     -5695.3329    
     59000   311.84046      120.86886      15052.816      1.029107      -6871.2711     -5770.0794    
     60000   299.23761      171.74912      15166.288      1.0214074     -6902.5306     -5845.843     
     61000   309.03104      419.01365      14987.156      1.0336156     -6828.4303     -5737.1595    
     62000   302.40961     -55.366731      14975.352      1.0344303     -6829.9664     -5762.0775    
     63000   292.60904     -138.93935      14694.988      1.0541661     -6840.3495     -5807.0691    
     64000   301.68913      354.45662      14887.834      1.0405112     -6796.6681     -5731.3235    
     65000   295.49089      270.00766      14786.064      1.0476729     -6865.0759     -5821.6189    
     66000   306.06584     -334.66235      14722.804      1.0521745     -6876.8374     -5796.0375    
     67000   303.88573      79.80958       14425.707      1.073844      -6878.5036     -5805.4022    
     68000   301.47639     -611.85683      14933.073      1.0373591     -6801.098      -5736.5046    
     69000   291.53404     -887.41895      14919.43       1.0383077     -6789.1646     -5759.6803    
     70000   298.15146      788.66457      14623.966      1.0592857     -6824.0822     -5771.23      
     71000   291.56558      950.14016      14551.798      1.0645391     -6839.4579     -5809.8622    
     72000   293.08577     -138.07835      14749.456      1.0502732     -6770.436      -5735.4721    
     73000   300.31515     -498.2475       14491.407      1.0689754     -6856.5822     -5796.0895    
     74000   306.57511      386.29986      14599.783      1.0610403     -6855.1153     -5772.517     
     75000   293.75677      1417.8665      14635.367      1.0584606     -6829.0603     -5791.727     
     76000   297.72557     -686.92986      14578.285      1.062605      -6849.1964     -5797.8481    
     77000   305.22029     -608.07786      14819.503      1.0453089     -6823.7049     -5745.8908    
     78000   289.40107     -494.18799      14637.525      1.0583045     -6804.088      -5782.1358    
     79000   293.83568     -45.930483      14756.987      1.0497372     -6839.0617     -5801.4497    
     80000   300.02962      863.3203       14723.052      1.0521567     -6836.2407     -5776.7562    
     81000   307.18186      1711.7643      14733.153      1.0514354     -6864.6971     -5779.9562    
     82000   305.6532       670.52545      14805.594      1.0462909     -6894.8028     -5815.4599    
     83000   299.18241     -415.43341      15018.587      1.0314525     -6830.0215     -5773.5287    
     84000   300.01804      446.323        14828.237      1.0446932     -6855.9048     -5796.4612    
     85000   303.52271      623.44023      14962.907      1.0352907     -6851.5089     -5779.6894    
     86000   300.84381     -58.920553      14801.423      1.0465857     -6926.3817     -5864.0221    
     87000   309.19799      170.71226      14810.764      1.0459257     -6896.0099     -5804.1494    
     88000   302.49401     -364.30276      14872.569      1.0415792     -6836.9299     -5768.743     
     89000   291.66186      100.83745      14875.596      1.0413673     -6791.1155     -5761.1798    
     90000   314.085        421.48858      14671.676      1.0558411     -6807.9725     -5698.8547    
     91000   303.17176     -129.48299      14807.632      1.0461469     -6883.8431     -5813.2629    
     92000   303.11675     -793.4536       14927.227      1.0377653     -6808.7418     -5738.3558    
     93000   304.76988     -35.208953      14860.612      1.0424172     -6844.7085     -5768.4849    
     94000   297.33157      721.80825      14913.484      1.0387217     -6837.3357     -5787.3788    
     95000   308.36433      631.27169      14805.87       1.0462714     -6771.1096     -5682.1931    
     96000   294.2646       214.81601      14636.256      1.0583963     -6887.7432     -5848.6165    
     97000   305.11204      921.23187      14830.839      1.0445099     -6860.8217     -5783.3899    
     98000   286.67942     -508.24064      14922.491      1.0380947     -6821.3165     -5808.9751    
     99000   291.45628     -1150.5669      15023.451      1.0311185     -6817.8148     -5788.605     
    100000   303.56782     -109.15328      14503.707      1.0680689     -6848.8106     -5776.8318    
    101000   310.92706     -797.75626      14923.58       1.0380189     -6861.364      -5763.3977    
    102000   308.36192     -576.46573      14920.523      1.0382316     -6880.7684     -5791.8604    
    103000   295.43878     -633.62607      14996.94       1.0329413     -6882.7529     -5839.4799    
    104000   298.46681     -80.10254       14738.593      1.0510473     -6930.4912     -5876.5253    
    105000   302.70485      493.34537      14535.848      1.0657072     -6879.5299     -5810.5985    
    106000   308.36831      1182.8079      14661.19       1.0565963     -6837.2947     -5748.3641    
    107000   302.0432       1139.6861      14595.319      1.0613648     -6900.1243     -5833.5293    
    108000   293.83967      454.29048      14963.556      1.0352458     -6823.9786     -5786.3525    
    109000   291.3434      -566.60166      14847.723      1.0433222     -6832.9321     -5804.121     
    110000   304.44294     -1163.4872      14815.303      1.0456053     -6907.3329     -5832.2638    
    111000   299.4811       35.632195      14755.3        1.0498572     -6846.1371     -5788.5895    
    112000   289.9994       1089.6439      14808.789      1.0460651     -6810.7811     -5786.716     
    113000   302.02876      111.15576      14824.72       1.0449411     -6830.6202     -5764.0762    
    114000   288.63055     -1242.9783      14897.318      1.0398488     -6880.7519     -5861.5206    
    115000   293.67981     -252.35819      14980.359      1.0340846     -6869.5849     -5832.5232    
    116000   308.14243      615.49717      14919.346      1.0383135     -6863.8449     -5775.7119    
    117000   306.8931      -555.97761      14731.01       1.0515884     -6896.0473     -5812.3261    
    118000   308.98596      376.05395      14607.27       1.0604965     -6805.8796     -5714.7679    
    119000   290.281       -718.63652      14766.832      1.0490374     -6923.3796     -5898.3201    
    120000   297.04571      689.91214      14875.702      1.0413598     -6871.493      -5822.5455    
    121000   290.78992      850.14028      14887.954      1.0405029     -6817.4076     -5790.5509    
    122000   302.81506      371.35101      14875.197      1.0413952     -6824.7774     -5755.4568    
    123000   286.64322     -359.24822      15062.872      1.02842       -6895.8417     -5883.6282    
    124000   292.76266      223.53478      14889.966      1.0403622     -6868.7648     -5834.9419    
    125000   296.38243     -496.57237      14920.631      1.0382241     -6791.4129     -5744.8076    
    126000   316.67332      1024.0979      14828.871      1.0446486     -6756.8913     -5638.6335    
    127000   296.26869     -26.114136      14809.645      1.0460047     -6796.2112     -5750.0076    
    128000   317.15081     -1022.0109      14746.294      1.0504984     -6884.4212     -5764.4772    
    129000   298.82867     -153.04169      14964.843      1.0351567     -6860.4472     -5805.2036    
    130000   310.69526      866.50208      14752.192      1.0500784     -6845.0329     -5747.8852    
    131000   302.5292       1546.5367      14711.762      1.0529641     -6838.5826     -5770.2714    
    132000   302.86545     -373.85529      14978.838      1.0341896     -6855.6989     -5786.2003    
    133000   302.66933      1310.06        14673.533      1.0557074     -6864.4627     -5795.6567    
    134000   321.18402      253.89323      14655.269      1.0570232     -6850.0922     -5715.9058    
    135000   300.51921      986.37593      14552.318      1.0645011     -6905.5289     -5844.3155    
    136000   298.80128     -72.288815      14878.045      1.0411958     -6777.1249     -5721.9781    
    137000   297.54039      948.63196      14546.054      1.0649595     -6813.756      -5763.0616    
    138000   301.35316      367.46852      14733.222      1.0514304     -6924.6447     -5860.4865    
    139000   289.95187     -692.05736      14908.179      1.0390912     -6833.6445     -5809.7473    
    140000   300.73537      255.08175      15080.01       1.0272512     -6818.6447     -5756.668     
    141000   304.40324     -287.38409      14955.063      1.0358337     -6835.8923     -5760.9634    
    142000   295.25473     -563.55035      14771.3        1.0487201     -6816.0094     -5773.3863    
    143000   293.74107     -989.00381      14654.928      1.0570477     -6827.1401     -5789.8622    
    144000   305.46532      359.98688      14668.132      1.0560962     -6760.1699     -5681.4906    
    145000   293.19469     -639.50803      14824.83       1.0449333     -6834.7284     -5799.3798    
    146000   291.60227      630.62789      14742.955      1.0507364     -6834.6543     -5804.9291    
    147000   295.21506     -350.80813      15104.989      1.0255525     -6837.9002     -5795.4172    
    148000   288.8553       551.94231      14805.386      1.0463056     -6806.969      -5786.944     
    149000   306.45131     -221.56611      14963.386      1.0352575     -6860.7028     -5778.5416    
    150000   298.97224     -782.0422       14813.67       1.0457205     -6845.9517     -5790.2011    
    151000   299.24987     -180.50977      14821.84       1.0451441     -6859.5839     -5802.8529    
    152000   319.45168      658.09034      14734.297      1.0513537     -6861.2783     -5733.2093    
    153000   296.31235     -116.13559      14937.485      1.0370526     -6812.443      -5766.0852    
    154000   311.71658     -385.70519      14860.139      1.0424505     -6848.5458     -5747.7915    
    155000   288.89356      312.65882      14883.016      1.0408481     -6833.2493     -5813.0892    
    156000   289.00349     -1845.7193      14861.137      1.0423804     -6838.5179     -5817.9696    
    157000   289.88585     -638.75657      14786.601      1.0476348     -6780.0318     -5756.3677    
    158000   300.63001      989.4207       14705.406      1.0534193     -6772.6842     -5711.0796    
    159000   308.78769     -213.19579      14689.428      1.0545651     -6801.9421     -5711.5305    
    160000   296.86983     -968.45285      14874.421      1.0414495     -6820.858      -5772.5315    
    161000   307.04639      1206.1613      14786.324      1.0476544     -6793.1496     -5708.887     
    162000   292.11128     -397.99637      14998.847      1.0328099     -6816.3553     -5784.8326    
    163000   298.53386     -746.17547      14818.936      1.0453489     -6858.7169     -5804.5143    
    164000   305.79677      576.06379      14770.356      1.0487871     -6902.3053     -5822.4554    
    165000   299.88284      988.86859      14656.976      1.0569001     -6832.0959     -5773.1298    
    166000   307.1936       29.703417      14912.087      1.0388189     -6828.6551     -5743.8727    
    167000   301.36244     -833.06557      15018.277      1.0314738     -6873.2117     -5809.0207    
    168000   294.20471     -254.58212      14782.084      1.047955      -6836.8487     -5797.9335    
    169000   324.11235      225.23158      14664.201      1.0563793     -6775.0933     -5630.5663    
    170000   290.93467      1339.6181      14792.479      1.0472185     -6783.893      -5756.5252    
    171000   296.97706     -633.21013      14900.509      1.0396261     -6819.6032     -5770.8981    
    172000   309.50986      81.664455      14780.689      1.0480539     -6816.4318     -5723.4701    
    173000   298.50432      391.74396      15064.683      1.0282963     -6861.0789     -5806.9807    
    174000   313.30869      612.59992      15026.41       1.0309155     -6845.5031     -5739.1267    
    175000   298.01006     -66.72915       15052.448      1.0291322     -6840.5203     -5788.1674    
    176000   303.6886       57.29366       14839.744      1.0438831     -6825.5639     -5753.1586    
    177000   300.2185      -56.012149      14874.013      1.041478      -6840.3203     -5780.1689    
    178000   305.69972      549.6722       14536.281      1.0656755     -6870.5951     -5791.088     
    179000   313.24342     -356.67947      14971.771      1.0346777     -6832.8713     -5726.7254    
    180000   300.03076      1139.2968      14520.918      1.066803      -6891.628      -5832.1395    
    181000   302.11647      192.25712      14847.404      1.0433446     -6843.2181     -5776.3644    
    182000   301.42074      104.17896      14714.642      1.0527581     -6887.1124     -5822.7155    
    183000   296.69316     -563.85808      14459.862      1.0713075     -6833.9854     -5786.2828    
    184000   287.24434      24.86198       14738.976      1.05102       -6867.7992     -5853.4629    
    185000   295.19456     -1164.4333      14687.717      1.054688      -6822.0012     -5779.5906    
    186000   303.83482     -242.26019      14626.229      1.0591218     -6882.9873     -5810.0656    
    187000   285.25039     -753.8083       14933.82       1.0373071     -6818.8335     -5811.5385    
    188000   307.86572      442.28223      14688.43       1.0546367     -6796.9015     -5709.7457    
    189000   303.17727     -165.70438      14940.69       1.0368302     -6847.4017     -5776.802     
    190000   299.47008     -1165.987       15230.418      1.0171066     -6862.7132     -5805.2046    
    191000   301.27786     -499.68702      14986.509      1.0336602     -6883.7312     -5819.8389    
    192000   297.71248     -587.95312      14776.319      1.0483638     -6826.2497     -5774.9477    
    193000   309.28727     -117.63971      15094.114      1.0262914     -6792.0963     -5699.9206    
    194000   301.23377      174.85961      14946.035      1.0364594     -6853.5293     -5789.7926    
    195000   293.30654     -644.91798      14971.364      1.0347059     -6856.6471     -5820.9036    
    196000   310.17946     -207.89545      14834.388      1.04426       -6799.5875     -5704.2612    
    197000   295.04114      336.11117      14713.05       1.052872      -6786.313      -5744.4441    
    198000   303.9382       979.5887       14694.991      1.0541659     -6822.9141     -5749.6274    
    199000   300.26819     -454.57158      14872.763      1.0415656     -6763.3143     -5702.9873    
    200000   295.19212     -484.27407      14676.778      1.0554741     -6826.6899     -5784.2879    
Loop time of 7890.47 on 2 procs for 200000 steps with 1522 atoms

Performance: 2.190 ns/day, 10.959 hours/ns, 25.347 timesteps/s, 38.578 katom-step/s
96.8% CPU use with 2 MPI tasks x 1 OpenMP threads

MPI task timing breakdown:
Section |  min time  |  avg time  |  max time  |%varavg| %total
---------------------------------------------------------------
Pair    | 3658       | 3667       | 3676       |  14.9 | 46.47
Bond    | 19.562     | 19.639     | 19.715     |   1.7 |  0.25
Kspace  | 2509       | 2518.4     | 2527.7     |  18.6 | 31.92
Neigh   | 275.44     | 275.55     | 275.65     |   0.6 |  3.49
Comm    | 272.1      | 272.55     | 272.99     |   2.7 |  3.45
Output  | 40.443     | 65.197     | 89.951     | 306.6 |  0.83
Modify  | 934.55     | 956.27     | 977.98     |  70.2 | 12.12
Other   |            | 115.9      |            |       |  1.47

Nlocal:            761 ave         770 max         752 min
Histogram: 1 0 0 0 0 0 0 0 0 1
Nghost:           8073 ave        8118 max        8028 min
Histogram: 1 0 0 0 0 0 0 0 0 1
Neighs:         285250 ave      288283 max      282216 min
Histogram: 1 0 0 0 0 0 0 0 0 1

Total # of neighbors = 570499
Ave neighs/atom = 374.83509
Ave special neighs/atom = 2.0538765
Neighbor list builds = 8710
Dangerous builds = 0

write_data data.final.lmp
System init for write_data ...
PPPM initialization ...
  using 12-bit tables for long-range coulomb
  G vector (1/distance) = 0.31369137
  grid = 24 24 24
  stencil order = 5
  estimated absolute RMS force accuracy = 0.0018522497
  estimated relative force accuracy = 5.5779951e-06
  using double precision FFTW3
  3d grid and FFT values/proc = 18259 6912
Generated 21 of 21 mixed pair_coeff terms from geometric mixing rule
print "RENEU >>> finished. trajectory = dump.lammpstrj, density log = density.dat"
RENEU >>> finished. trajectory = dump.lammpstrj, density log = density.dat
Total wall time: 3:43:40
