17
butylammonium reneu.ff
N            0.000000        0.000000        0.000000
C            1.483000        0.000000        0.000000
H           -0.379685       -0.956389        0.000000
H           -0.369984        0.476255        0.833747
H           -0.379602        0.485982       -0.823751
C            1.980548       -0.712895       -1.248066
H            1.800608       -0.507107        0.915862
H            1.800791        1.046431        0.028754
C            3.507710       -0.737996       -1.292010
H            1.595683       -0.208585       -2.143029
H            1.595525       -1.739904       -1.268512
C            4.015971       -1.448117       -2.536115
H            3.897434       -1.246280       -0.402640
H            3.897541        0.286228       -1.277411
H            5.109879       -1.455268       -2.548368
H            3.668494       -2.486132       -2.564562
H            3.668972       -0.944342       -3.444316
