LAMMPS (10 Dec 2025)
OMP_NUM_THREADS environment is not set. Defaulting to 1 thread.
  using 1 OpenMP thread(s) per MPI task
# created by fftool

units real
boundary p p p

atom_style full
bond_style harmonic
angle_style harmonic
dihedral_style opls

special_bonds lj/coul 0.0 0.0 0.5

# remove hybrid if not necessary
pair_style hybrid lj/cut/coul/long 10.0 10.0
pair_modify mix geometric tail yes
read_data data.lmp
Reading data file ...
  orthogonal box = (0 0 0) to (35.74 35.74 35.74)
  1 by 1 by 2 MPI processor grid
  reading atoms ...
  3046 atoms
  scanning bonds ...
  1 = max bonds/atom
  scanning angles ...
  6 = max angles/atom
  scanning dihedrals ...
  9 = max dihedrals/atom
  orthogonal box = (0 0 0) to (35.74 35.74 35.74)
  1 by 1 by 2 MPI processor grid
  reading bonds ...
  2712 bonds
  reading angles ...
  4480 angles
  reading dihedrals ...
  5518 dihedrals
Finding 1-2 1-3 1-4 neighbors ...
  special bond factors lj:    0        0        0.5     
  special bond factors coul:  0        0        0.5     
     4 = max # of 1-2 neighbors
     6 = max # of 1-3 neighbors
    12 = max # of 1-4 neighbors
    16 = max # of special neighbors
  special bonds CPU = 0.003 seconds
  read_data CPU = 0.244 seconds
# read_restart restart1.lmp

kspace_style pppm 1.0e-5

# remove pair style if not using hybrid
pair_coeff    1    1 lj/cut/coul/long     0.170000     3.250000  # N1 N1
pair_coeff    2    2 lj/cut/coul/long     0.065999     3.500000  # C1N C1N
pair_coeff    3    3 lj/cut/coul/long     0.000000     0.000000  # HN HN
pair_coeff    4    4 lj/cut/coul/long     0.065999     3.500000  # CS CS
pair_coeff    5    5 lj/cut/coul/long     0.030000     2.500000  # H1N H1N
pair_coeff    6    6 lj/cut/coul/long     0.030000     2.500000  # HC HC
pair_coeff    7    7 lj/cut/coul/long     0.065999     3.500000  # CEN CEN
pair_coeff    8    8 lj/cut/coul/long     0.030000     2.500000  # HCN HCN
pair_coeff    9    9 lj/cut/coul/long     0.105000     3.750000  # CO2 CO2
pair_coeff   10   10 lj/cut/coul/long     0.065999     3.500000  # C2C C2C
pair_coeff   11   11 lj/cut/coul/long     0.210000     2.960000  # O2 O2
pair_coeff   12   12 lj/cut/coul/long     0.065999     3.500000  # CT CT
pair_coeff   13   13 lj/cut/coul/long     0.000000     1.000000  # Hw Hw
pair_coeff   14   14 lj/cut/coul/long     0.155425     3.165500  # Ow Ow
pair_coeff   15   15 lj/cut/coul/long     0.125643     2.995200  # Nd Nd

# minimize 1.0e-4 1.0e-6 100 1000
# reset_timestep 0

fix SHAKE all shake 0.0001 20 0 b 2 4 7
Finding SHAKE clusters ...
       0 = # of size 2 clusters
     733 = # of size 3 clusters
     168 = # of size 4 clusters
       0 = # of frozen angles
  find clusters CPU = 0.001 seconds

neighbor 2.0 bin
neigh_modify delay 0 every 1 check yes








#fix VAVG all ave/time 10 1000 50000 v_vinst

# ---------------------------------------------------------------------------
# RENEU 2026 simulation protocol (stage3b M1 butylammonium octanoate)
# 1 minimise  2 NVT relaxation  3 NPT equilibration  4 NPT production
# ---------------------------------------------------------------------------
timestep 1.0

variable TK      equal 300.0
variable PBAR    equal 1.0
variable NVTRUN  equal 20000
variable EQRUN   equal 100000
variable PRODRUN equal 200000

variable dens equal density
variable vol  equal vol

thermo 1000
thermo_style custom step temp press vol v_dens pe etotal

# --- 1. energy minimisation ------------------------------------------------
print "RENEU >>> stage 1 of 4: energy minimisation"
RENEU >>> stage 1 of 4: energy minimisation
minimize 1.0e-4 1.0e-6 10000 100000
PPPM initialization ...
  using 12-bit tables for long-range coulomb
  G vector (1/distance) = 0.28526151
  grid = 24 24 24
  stencil order = 5
  estimated absolute RMS force accuracy = 0.0029976009
  estimated relative force accuracy = 9.0271861e-06
  using double precision FFTW3
  3d grid and FFT values/proc = 18259 6912
Generated 105 of 105 mixed pair_coeff terms from geometric mixing rule
WARNING: Using fix shake with minimization.
  Substituting constraints with harmonic restraint forces using kbond=1987206.7 (src/RIGID/fix_shake.cpp:397)
Neighbor list info ...
  update: every = 1 steps, delay = 0 steps, check = yes
  max neighbors/atom: 2000, page size: 100000
  master list distance cutoff = 12
  ghost atom cutoff = 12
  binsize = 6, bins = 6 6 6
  1 neighbor lists, perpetual/occasional/extra = 1 0 0
  (1) pair lj/cut/coul/long, perpetual
      attributes: half, newton on
      pair build: half/bin/newton
      stencil: half/bin/3d
      bin: standard
Per MPI rank memory allocation (min/avg/max) = 17.03 | 17.03 | 17.03 Mbytes
   Step          Temp          Press          Volume         v_dens         PotEng         TotEng    
         0   0             -12016919       45652.403      0.59985675     218582.13      218582.13    
        33   0              12227.462      45652.403      0.59985675    -879.94953     -879.94953    
Loop time of 8.6408 on 2 procs for 33 steps with 3046 atoms

98.6% CPU use with 2 MPI tasks x 1 OpenMP threads

Minimization stats:
  Stopping criterion = energy tolerance
  Energy initial, next-to-last, final = 
      218582.127179667  -879.948968541264  -879.949534142793
  Force two-norm initial, final = 1623035.6 2175.1894
  Force max component initial, final = 82387.527 732.2992
  Final line search alpha, max atom move = 1.1960712e-06 0.00087588201
  Iterations, force evaluations = 33 138

MPI task timing breakdown:
Section |  min time  |  avg time  |  max time  |%varavg| %total
---------------------------------------------------------------
Pair    | 5.4057     | 5.5053     | 5.6049     |   4.2 | 63.71
Bond    | 0.31412    | 0.3283     | 0.34247    |   2.5 |  3.80
Kspace  | 2.2983     | 2.3739     | 2.4495     |   4.9 | 27.47
Neigh   | 0          | 0          | 0          |   0.0 |  0.00
Comm    | 0.22577    | 0.23946    | 0.25315    |   2.8 |  2.77
Output  | 0          | 0          | 0          |   0.0 |  0.00
Modify  | 0.053427   | 0.058496   | 0.063565   |   2.1 |  0.68
Other   |            | 0.1354     |            |       |  1.57

Nlocal:           1523 ave        1579 max        1467 min
Histogram: 1 0 0 0 0 0 0 0 0 1
Nghost:         7991.5 ave        8172 max        7811 min
Histogram: 1 0 0 0 0 0 0 0 0 1
Neighs:         388244 ave      391038 max      385450 min
Histogram: 1 0 0 0 0 0 0 0 0 1

Total # of neighbors = 776488
Ave neighs/atom = 254.92055
Ave special neighs/atom = 8.3072882
Neighbor list builds = 0
Dangerous builds = 0
reset_timestep 0

# --- 2. NVT relaxation (lets the packed box relax before the barostat) ------
print "RENEU >>> stage 2 of 4: NVT relaxation"
RENEU >>> stage 2 of 4: NVT relaxation
velocity all create ${TK} 12345 mom yes rot yes dist gaussian
velocity all create 300 12345 mom yes rot yes dist gaussian
fix NVTRELAX all nvt temp ${TK} ${TK} 100
fix NVTRELAX all nvt temp 300 ${TK} 100
fix NVTRELAX all nvt temp 300 300 100
run ${NVTRUN}
run 20000
PPPM initialization ...
  using 12-bit tables for long-range coulomb
  G vector (1/distance) = 0.28526151
  grid = 24 24 24
  stencil order = 5
  estimated absolute RMS force accuracy = 0.0029976009
  estimated relative force accuracy = 9.0271861e-06
  using double precision FFTW3
  3d grid and FFT values/proc = 18259 6912
Generated 105 of 105 mixed pair_coeff terms from geometric mixing rule
Per MPI rank memory allocation (min/avg/max) = 15.9 | 15.9 | 15.9 Mbytes
   Step          Temp          Press          Volume         v_dens         PotEng         TotEng    
         0   300            13880.942      45652.403      0.59985675    -880.20694      1255.5435    
      1000   306.18382     -786.47158      45652.403      0.59985675    -9263.3212     -7083.5472    
      2000   299.96154      67.221981      45652.403      0.59985675    -9665.9693     -7530.4928    
      3000   297.90536      266.86284      45652.403      0.59985675    -9904.1879     -7783.3496    
      4000   306.72304     -687.18154      45652.403      0.59985675    -10032.86      -7849.2475    
      5000   302.30905     -242.6563       45652.403      0.59985675    -10191.366     -8039.1771    
      6000   305.2122      -1149.7458      45652.403      0.59985675    -10207.428     -8034.5709    
      7000   292.17308     -643.65566      45652.403      0.59985675    -10284.406     -8204.3767    
      8000   303.79651     -848.34348      45652.403      0.59985675    -10270.059     -8107.2809    
      9000   297.94878     -228.68483      45652.403      0.59985675    -10425.5       -8304.3524    
     10000   298.90689     -425.84955      45652.403      0.59985675    -10397.928     -8269.9601    
     11000   302.1411      -666.3071       45652.403      0.59985675    -10424.077     -8273.0834    
     12000   302.36547     -653.06703      45652.403      0.59985675    -10525.502     -8372.9116    
     13000   297.83819     -286.55768      45652.403      0.59985675    -10615.121     -8494.7606    
     14000   299.65107     -1405.0419      45652.403      0.59985675    -10604.123     -8470.8571    
     15000   300.15159     -354.58552      45652.403      0.59985675    -10620.746     -8483.9159    
     16000   300.85422     -555.7469       45652.403      0.59985675    -10575.114     -8433.2818    
     17000   312.9872      -446.24678      45652.403      0.59985675    -10677.858     -8449.6499    
     18000   299.0744      -773.96911      45652.403      0.59985675    -10681.424     -8552.2633    
     19000   292.3288      -562.69337      45652.403      0.59985675    -10683.605     -8602.4668    
     20000   303.88263     -419.96527      45652.403      0.59985675    -10735.049     -8571.6571    
Loop time of 1078.38 on 2 procs for 20000 steps with 3046 atoms

Performance: 1.602 ns/day, 14.977 hours/ns, 18.546 timesteps/s, 56.492 katom-step/s
98.3% CPU use with 2 MPI tasks x 1 OpenMP threads

MPI task timing breakdown:
Section |  min time  |  avg time  |  max time  |%varavg| %total
---------------------------------------------------------------
Pair    | 531.11     | 572.95     | 614.8      | 174.8 | 53.13
Bond    | 44.933     | 47.162     | 49.391     |  32.5 |  4.37
Kspace  | 300.15     | 342.13     | 384.11     | 227.0 | 31.73
Neigh   | 51.741     | 51.762     | 51.784     |   0.3 |  4.80
Comm    | 33.163     | 35.174     | 37.185     |  33.9 |  3.26
Output  | 0.0023257  | 0.0050979  | 0.0078701  |   3.9 |  0.00
Modify  | 24.796     | 24.876     | 24.956     |   1.6 |  2.31
Other   |            | 4.316      |            |       |  0.40

Nlocal:           1523 ave        1764 max        1282 min
Histogram: 1 0 0 0 0 0 0 0 0 1
Nghost:           7976 ave        8536 max        7416 min
Histogram: 1 0 0 0 0 0 0 0 0 1
Neighs:         424868 ave      482600 max      367136 min
Histogram: 1 0 0 0 0 0 0 0 0 1

Total # of neighbors = 849736
Ave neighs/atom = 278.96783
Ave special neighs/atom = 8.3072882
Neighbor list builds = 967
Dangerous builds = 0
unfix NVTRELAX

# --- 3. NPT equilibration (this is where the density finds its own value) ---
# restart files are written every 25000 steps. If the run stops for any
# reason you can pick up from the last one instead of starting over:
#     read_restart rst_a.lmp      (or rst_b.lmp, whichever is newer)
print "RENEU >>> stage 3 of 4: NPT equilibration - watch the density column"
RENEU >>> stage 3 of 4: NPT equilibration - watch the density column
restart 25000 rst_a.lmp rst_b.lmp
fix NPTEQ all npt temp ${TK} ${TK} 100 iso ${PBAR} ${PBAR} 1000
fix NPTEQ all npt temp 300 ${TK} 100 iso ${PBAR} ${PBAR} 1000
fix NPTEQ all npt temp 300 300 100 iso ${PBAR} ${PBAR} 1000
fix NPTEQ all npt temp 300 300 100 iso 1 ${PBAR} 1000
fix NPTEQ all npt temp 300 300 100 iso 1 1 1000
run ${EQRUN}
run 100000
PPPM initialization ...
  using 12-bit tables for long-range coulomb
  G vector (1/distance) = 0.28526151
  grid = 24 24 24
  stencil order = 5
  estimated absolute RMS force accuracy = 0.0029976009
  estimated relative force accuracy = 9.0271861e-06
  using double precision FFTW3
  3d grid and FFT values/proc = 18259 6912
Generated 105 of 105 mixed pair_coeff terms from geometric mixing rule
Per MPI rank memory allocation (min/avg/max) = 15.91 | 16.1 | 16.3 Mbytes
   Step          Temp          Press          Volume         v_dens         PotEng         TotEng    
     20000   303.88263     -419.93361      45652.403      0.59985675    -10735.049     -8571.6571    
     21000   297.5988      -551.75718      42893.39       0.63844108    -10828.906     -8710.2505    
     22000   296.14372     -330.47557      40083.219      0.68320116    -10796.24      -8687.9436    
     23000   297.40363      161.71654      38610.046      0.70926883    -10766.416     -8649.1499    
     24000   302.4295      -611.70675      37576.947      0.72876867    -10800.536     -8647.4898    
     25000   297.31138      63.15755       36482.609      0.75062895    -10878.035     -8761.4252    
     26000   305.65388     -63.741391      35612.05       0.76897853    -10886.064     -8710.0629    
     27000   305.3664      -332.57064      34434.856      0.79526693    -10875.256     -8701.3013    
     28000   295.53559     -292.02507      34309.668      0.79816867    -10916.502     -8812.5346    
     29000   294.18647      355.35144      33850.006      0.8090073     -10936.086     -8841.7228    
     30000   301.05973     -130.10628      32761.455      0.83588785    -10914.948     -8771.6533    
     31000   304.57844      610.83886      32244.069      0.84930044    -11002.814     -8834.4693    
     32000   305.32048      135.18273      32149.759      0.85179184    -10982.042     -8808.4141    
     33000   305.39188      412.47526      31738.758      0.86282211    -11001.442     -8827.3056    
     34000   295.4393       885.6279       31912.764      0.85811753    -10949.476     -8846.1941    
     35000   304.41495     -1210.3397      31760.834      0.86222238    -10938.392     -8771.2108    
     36000   304.80809      885.28348      31140.366      0.87940206    -11006.273     -8836.2932    
     37000   297.01667     -17.160591      31304.289      0.87479712    -11023.968     -8909.4568    
     38000   296.13759     -1152.2095      30607.125      0.89472312    -10975.336     -8867.0827    
     39000   304.03432      353.55252      30842.331      0.88789989    -10947.13      -8782.6589    
     40000   294.41334      965.29872      30697.421      0.8920913     -10953.021     -8857.0433    
     41000   299.40814      221.30925      30609.91       0.89464171    -11092.106     -8960.5691    
     42000   297.14419      489.16241      30344.833      0.90245683    -11013.441     -8898.0217    
     43000   299.32063      685.67384      30320.391      0.90318433    -11060.669     -8929.7553    
     44000   289.96967      1243.9668      30537.037      0.89677665    -11009.948     -8945.6054    
     45000   306.09017     -381.61839      30640.752      0.89374118    -11030.151     -8851.0441    
     46000   297.65533      102.76915      30631.97       0.89399742    -11019.014     -8899.9559    
     47000   298.71738     -307.38707      30765.153      0.89012728    -11053.588     -8926.9684    
     48000   295.44367     -281.79862      30171.785      0.90763282    -11096.437     -8993.1236    
     49000   301.37873     -941.64347      30131.472      0.90884714    -11068.371     -8922.8056    
     50000   299.62648      213.44226      30357.313      0.90208584    -11032.901     -8899.8093    
     51000   300.78267     -131.10721      29572.797      0.92601663    -11106.994     -8965.6715    
     52000   300.04228      6.604617       29817.931      0.91840383    -11042.93      -8906.8788    
     53000   299.61179     -145.36476      29662.886      0.92320425    -11180.787     -9047.8005    
     54000   308.89992      946.35457      29483.479      0.92882195    -11085.302     -8886.1912    
     55000   300.08588     -34.706287      30071.388      0.91066307    -11117.608     -8981.2458    
     56000   309.09736      446.00469      30054.096      0.91118703    -11056.53      -8856.0143    
     57000   297.80936      695.04352      29229.632      0.93688838    -11139.694     -9019.5395    
     58000   297.96887      56.911537      29775.712      0.91970604    -11057.428     -8936.1371    
     59000   306.26367     -406.9701       29735.246      0.92095765    -11114.162     -8933.8193    
     60000   300.8199       828.37037      29498.323      0.92835455    -11167.193     -9025.6059    
     61000   304.2649      -386.7031       29109.88       0.94074253    -11138.311     -8972.198     
     62000   300.22408      337.91025      29047.529      0.94276185    -11020.214     -8882.8684    
     63000   286.69065      14.196741      29417.647      0.9309005     -11088.291     -9047.2925    
     64000   307.87322     -651.89311      29522.405      0.92759727    -11081.639     -8889.8375    
     65000   303.62886      476.34362      29110.99       0.94070667    -11153.417     -8991.8322    
     66000   296.27576     -570.25701      29205.563      0.93766046    -11103.34      -8994.1033    
     67000   294.88358      90.121777      29244.802      0.93640237    -11052.14      -8952.8143    
     68000   301.00633     -81.632735      29900.999      0.91585242    -11138.924     -8996.0089    
     69000   296.89005      135.57321      29276.784      0.93537944    -11075.098     -8961.4877    
     70000   298.60607     -720.01774      29438.549      0.93023952    -11156.574     -9030.7469    
     71000   300.29013     -126.97611      29049.825      0.94268733    -11126.034     -8988.2178    
     72000   302.54672     -869.34977      29429.597      0.93052249    -11123.6       -8969.7187    
     73000   311.39399     -303.11197      29216.453      0.93731099    -11243.534     -9026.6681    
     74000   296.38413      35.161055      29228.277      0.93693181    -11161.024     -9051.0155    
     75000   287.78546      747.25261      29058.51       0.94240558    -11126.427     -9077.6338    
     76000   303.70319      460.86109      29067.962      0.94209914    -11134.286     -8972.1721    
     77000   303.55481      596.58086      28763.75       0.95206301    -11186.726     -9025.6679    
     78000   298.01184      1098.8134      29056.128      0.94248286    -11090.296     -8968.6995    
     79000   306.58761     -1267.3428      29001.263      0.94426584    -11104.136     -8921.4868    
     80000   301.13108     -243.31234      29010.361      0.94396972    -11114.877     -8971.0741    
     81000   294.87387      449.57206      28902.399      0.94749581    -11167.41      -9068.1534    
     82000   314.07419      1136.5658      28973.72       0.94516349    -11159.705     -8923.7583    
     83000   300.9317      -330.91594      29128.857      0.94012966    -11113.254     -8970.8704    
     84000   288.19192      1079.5742      28832.047      0.94980778    -11174.842     -9123.1558    
     85000   301.39647      912.51101      28474.384      0.96173818    -11138.465     -8992.7725    
     86000   298.34409      1313.7482      28586.205      0.95797613    -11185.001     -9061.0389    
     87000   296.60219      554.10663      29032.57       0.94324761    -11098.165     -8986.604     
     88000   301.35235      656.74826      29052.078      0.94261422    -11141.158     -8995.7796    
     89000   291.27598     -923.78546      29062.027      0.94229152    -11096.239     -9022.596     
     90000   298.16024     -331.64347      28894.555      0.94775304    -11113.802     -8991.1495    
     91000   297.37644      52.269533      28669.43       0.95519521    -11187.084     -9070.0116    
     92000   306.68857      355.68611      28778.902      0.95156176    -11105.24      -8921.8722    
     93000   302.44659      1154.1464      28637.625      0.95625604    -11141.081     -8987.9128    
     94000   288.20031      21.097999      28706.668      0.95395615    -11238.42      -9186.6738    
     95000   293.16065     -470.85602      28637.368      0.95626464    -11136.293     -9049.2336    
     96000   293.68208     -384.27117      28365.626      0.96542563    -11275.353     -9184.5811    
     97000   303.07618      1003.296       28480.941      0.96151678    -11207.078     -9049.4281    
     98000   296.07262     -246.36404      28136.522      0.97328669    -11250.736     -9142.9457    
     99000   295.79332      147.45714      28400.017      0.96425653    -11182.835     -9077.0332    
    100000   299.70971      459.69836      28484.453      0.96139823    -11255.027     -9121.343     
    101000   302.04601     -427.71707      28412.483      0.96383348    -11190.138     -9039.822     
    102000   292.63052      776.60839      28175.297      0.97194726    -11222.595     -9139.309     
    103000   303.72054      796.01805      28133.239      0.97340026    -11201.054     -9038.8165    
    104000   298.52295      871.72351      28381.309      0.96489216    -11170.862     -9045.6266    
    105000   301.58616     -399.70232      28258.886      0.96907226    -11186.458     -9039.4152    
    106000   303.84583      451.29185      28444.189      0.96275911    -11126.704     -8963.5747    
    107000   295.39529      1259.6161      28177.96       0.97185538    -11196.533     -9093.5647    
    108000   309.4312       1127.537       28198.329      0.97115338    -11201.674     -8998.7816    
    109000   297.68143     -1621.2693      28484.119      0.96140948    -11194.241     -9074.9971    
    110000   300.75355      1010.8514      28196.017      0.971233      -11194.373     -9053.2581    
    111000   294.4216      -221.67369      28324.164      0.96683885    -11151.019     -9054.9825    
    112000   302.63937     -481.83165      28624.02       0.95671055    -11251.277     -9096.737     
    113000   289.35552      316.31311      28262.486      0.9689488     -11220.011     -9160.0402    
    114000   298.14965     -137.79356      28342.636      0.96620872    -11228.711     -9106.1334    
    115000   298.7167      -235.23056      28292.134      0.96793343    -11294.09      -9167.4757    
    116000   303.93737     -1069.0684      28682.502      0.95475988    -11186.133     -9022.3515    
    117000   304.8202      -529.52974      28599.123      0.95754341    -11167.552     -8997.4855    
    118000   301.06093      1152.1799      28500.984      0.96084058    -11182.504     -9039.2008    
    119000   293.83667     -58.129845      28706.336      0.95396716    -11235.473     -9143.6008    
    120000   294.12924      203.51099      28658.011      0.95557582    -11186.301     -9092.3457    
Loop time of 6904.3 on 2 procs for 100000 steps with 3046 atoms

Performance: 1.251 ns/day, 19.179 hours/ns, 14.484 timesteps/s, 44.117 katom-step/s
98.4% CPU use with 2 MPI tasks x 1 OpenMP threads

MPI task timing breakdown:
Section |  min time  |  avg time  |  max time  |%varavg| %total
---------------------------------------------------------------
Pair    | 3753.4     | 3857.1     | 3960.8     | 167.0 | 55.86
Bond    | 259.1      | 260.29     | 261.49     |   7.4 |  3.77
Kspace  | 1626.1     | 1731.5     | 1836.8     | 253.1 | 25.08
Neigh   | 248.69     | 248.73     | 248.78     |   0.3 |  3.60
Comm    | 181.97     | 183.01     | 184.05     |   7.7 |  2.65
Output  | 0.082254   | 0.095928   | 0.1096     |   4.4 |  0.00
Modify  | 546.75     | 548.06     | 549.38     |   5.6 |  7.94
Other   |            | 75.55      |            |       |  1.09

Nlocal:           1523 ave        1544 max        1502 min
Histogram: 1 0 0 0 0 0 0 0 0 1
Nghost:          10866 ave       10878 max       10854 min
Histogram: 1 0 0 0 0 0 0 0 0 1
Neighs:         585722 ave      586317 max      585128 min
Histogram: 1 0 0 0 0 0 0 0 0 1

Total # of neighbors = 1171445
Ave neighs/atom = 384.5847
Ave special neighs/atom = 8.3072882
Neighbor list builds = 3920
Dangerous builds = 0
unfix NPTEQ
write_data data.after_equilibration.lmp
System init for write_data ...
PPPM initialization ...
  using 12-bit tables for long-range coulomb
  G vector (1/distance) = 0.29729724
  grid = 24 24 24
  stencil order = 5
  estimated absolute RMS force accuracy = 0.001877771
  estimated relative force accuracy = 5.6548516e-06
  using double precision FFTW3
  3d grid and FFT values/proc = 18259 6912
Generated 105 of 105 mixed pair_coeff terms from geometric mixing rule

# --- 4. NPT production - this is the trajectory you analyse ----------------
print "RENEU >>> stage 4 of 4: NPT production"
RENEU >>> stage 4 of 4: NPT production
reset_timestep 0
fix NPTPROD all npt temp ${TK} ${TK} 100 iso ${PBAR} ${PBAR} 1000
fix NPTPROD all npt temp 300 ${TK} 100 iso ${PBAR} ${PBAR} 1000
fix NPTPROD all npt temp 300 300 100 iso ${PBAR} ${PBAR} 1000
fix NPTPROD all npt temp 300 300 100 iso 1 ${PBAR} 1000
fix NPTPROD all npt temp 300 300 100 iso 1 1 1000
fix DENSAVG all ave/time 10 100 1000 v_dens v_vol file density.dat

dump TRAJ all custom 500 dump.lammpstrj id mol type element q xu yu zu
dump_modify TRAJ element N C H C H H C H C C O C H O N

run ${PRODRUN}
run 200000
PPPM initialization ...
  using 12-bit tables for long-range coulomb
  G vector (1/distance) = 0.29729724
  grid = 24 24 24
  stencil order = 5
  estimated absolute RMS force accuracy = 0.001877771
  estimated relative force accuracy = 5.6548516e-06
  using double precision FFTW3
  3d grid and FFT values/proc = 18259 6912
Generated 105 of 105 mixed pair_coeff terms from geometric mixing rule
Per MPI rank memory allocation (min/avg/max) = 17.2 | 17.2 | 17.21 Mbytes
   Step          Temp          Press          Volume         v_dens         PotEng         TotEng    
         0   294.12924      251.25856      28658.011      0.95557582    -11186.291     -9092.3356    
      1000   295.82854     -555.68267      28769.614      0.95186894    -11228.826     -9122.7728    
      2000   292.6647      -102.59021      28473.4        0.9617714     -11261.361     -9177.8322    
      3000   300.75784     -994.61161      28538.879      0.95956474    -11183.646     -9042.5       
      4000   297.64123     -584.47634      28635.691      0.95632062    -11257.718     -9138.7599    
      5000   302.34947      1402.729       28125.59       0.973665      -11245.521     -9093.0442    
      6000   297.9292      -1297.0603      28469.699      0.96189645    -11175.49      -9054.4816    
      7000   289.43634     -223.48742      28535.874      0.9596658     -11168.939     -9108.3927    
      8000   305.41733     -284.82882      28576.748      0.95829315    -11221.506     -9047.1884    
      9000   308.71645     -315.98768      28790.825      0.95116766    -11220.962     -9023.1579    
     10000   298.97445     -168.312        28586.265      0.95797412    -11203.569     -9075.1201    
     11000   306.73709      1152.8948      28842.293      0.94947037    -11132.196     -8948.4827    
     12000   300.0664      -2231.5578      28716.218      0.95363889    -11125.358     -8989.1354    
     13000   292.55813     -558.41263      28606.878      0.95728384    -11191.15      -9108.3795    
     14000   300.23047      694.28826      28602.965      0.95741481    -11160.918     -9023.5269    
     15000   296.07703      710.45463      28641.071      0.95614099    -11198.948     -9091.1259    
     16000   292.26878      517.50432      28536.42       0.95964744    -11212.926     -9132.2157    
     17000   295.75826     -78.309518      28459.55       0.96223945    -11124.639     -9019.086     
     18000   295.99409     -1099.9217      28699.076      0.9542085     -11234.922     -9127.6906    
     19000   306.5907       26.011671      28469.745      0.96189487    -11191.046     -9008.3749    
     20000   292.56509      2.3907322      28644.922      0.95601247    -11180.294     -9097.4734    
     21000   300.88251      46.130298      28496.92       0.9609776     -11162.012     -9019.9789    
     22000   304.21751      535.21607      28662.998      0.95540956    -11170.694     -9004.9185    
     23000   299.54962      1076.0229      28397.686      0.9643357     -11144.538     -9011.9943    
     24000   295.54309     -650.68551      28792.445      0.95111417    -11064.067     -8960.0465    
     25000   297.9586       477.87388      28691.003      0.95447697    -11206.423     -9085.2061    
     26000   295.88762      616.46499      28345.676      0.9661051     -11229.651     -9123.1776    
     27000   309.06729      260.35067      28256.069      0.96916885    -11213.558     -9013.2563    
     28000   290.79827      628.1275       28619.478      0.95686237    -11206.044     -9135.8025    
     29000   297.97342      850.22712      28466.717      0.96199721    -11215.948     -9094.6252    
     30000   293.9198      -792.65819      28143.606      0.9730417     -11220.515     -9128.0507    
     31000   304.68033      28.214038      28463.624      0.96210173    -11224.411     -9055.3404    
     32000   289.79195      230.63694      28092.253      0.97482043    -11160.055     -9096.9772    
     33000   300.53683      571.45279      28420.495      0.96356177    -11263.982     -9124.4099    
     34000   297.60376     -617.92857      28613.049      0.95707738    -11164.198     -9045.5073    
     35000   304.54129      1152.962       28393.156      0.96448956    -11189.017     -9020.936     
     36000   296.63898      1388.8629      28542.373      0.95944726    -11206.392     -9094.5693    
     37000   301.66948      216.41718      28797.603      0.95094379    -11195.535     -9047.899     
     38000   296.36364     -26.244068      28724.782      0.95335456    -11181.853     -9071.9905    
     39000   310.74506     -161.79753      28563.328      0.95874339    -11207.86      -8995.6137    
     40000   305.11279      1445.8435      28546.417      0.95931135    -11183.963     -9011.8136    
     41000   297.06089     -50.796683      28337.048      0.96639925    -11266.992     -9152.1657    
     42000   300.12345     -1125.4294      28849.983      0.94921726    -11207.304     -9070.6752    
     43000   302.74963     -279.64438      28923.425      0.94680704    -11194.339     -9039.0135    
     44000   292.13867     -1055.0561      28781.791      0.95146623    -11160.048     -9080.2639    
     45000   302.47046     -586.02609      28830.984      0.94984278    -11188.802     -9035.4637    
     46000   304.78824      1460.4658      28722.99       0.95341404    -11231.575     -9061.7359    
     47000   302.99735     -483.08829      28359.009      0.96565088    -11184.199     -9027.1103    
     48000   295.55808      1093.9428      28588.102      0.95791257    -11166.455     -9062.3277    
     49000   304.68224     -1352.526       28800.41       0.95085113    -11241.475     -9072.3909    
     50000   304.38839      301.69934      28565.713      0.95866334    -11130.911     -8963.9186    
     51000   303.4458      -1299.4098      28694.028      0.95437638    -11179.691     -9019.4098    
     52000   307.32219      531.65245      28659.034      0.95554172    -11190.656     -9002.7774    
     53000   289.23754      330.5775       28671.269      0.95513395    -11251.095     -9191.9647    
     54000   301.72007      488.07373      28902.933      0.94747831    -11197.635     -9049.6396    
     55000   297.13528     -744.20162      28821.19       0.95016557    -11189.657     -9074.301     
     56000   298.84694      657.63746      28578.787      0.95822477    -11294.747     -9167.2059    
     57000   304.71108      1330.8722      28523.903      0.96006855    -11217.091     -9047.8021    
     58000   301.08511     -648.85654      28524.284      0.96005574    -11228.704     -9085.229     
     59000   303.40234     -774.07524      28603.242      0.95740552    -11185.505     -9025.5326    
     60000   306.97664     -227.61244      28476.693      0.96166018    -11245.703     -9060.2843    
     61000   291.36089      1034.1342      28703.62       0.95405744    -11132.788     -9058.5411    
     62000   294.63967      222.97444      28690.267      0.95450147    -11227.913     -9130.3234    
     63000   305.68041     -30.476013      28599.449      0.95753253    -11188.836     -9012.646     
     64000   303.73271      135.68397      29106.923      0.9408381     -11185.826     -9023.5018    
     65000   308.13476     -45.981777      28744.497      0.95270069    -11191.527     -8997.8641    
     66000   302.69016     -23.796156      28957.438      0.94569491    -11221.934     -9067.0318    
     67000   306.93001      528.00852      28758.479      0.95223751    -11167.657     -8982.5705    
     68000   303.56543     -792.07901      29005.737      0.94412021    -11185.833     -9024.6993    
     69000   304.29335      51.868574      29249.359      0.93625648    -11139.497     -8973.182     
     70000   302.51555      260.76897      28930.611      0.94657187    -11161.889     -9008.23      
     71000   298.04523      118.5242       29103.672      0.94094321    -11204.812     -9082.9782    
     72000   293.74741      826.70943      28899.41       0.94759383    -11192.684     -9101.4464    
     73000   305.75471      193.25354      28780.008      0.95152518    -11106.851     -8930.1317    
     74000   300.91228      214.43935      28860.674      0.94886566    -11176.386     -9034.1413    
     75000   299.22711     -67.530312      29208.846      0.93755509    -11108.772     -8978.5244    
     76000   311.36319      65.71055       28614.391      0.95703249    -11214.366     -8997.719     
     77000   296.98196     -1998.6221      28645.763      0.9559844     -11216.232     -9101.967     
     78000   302.37317     -635.96443      28952.315      0.94586226    -11211.159     -9058.5133    
     79000   292.54636     -463.87627      28687.368      0.95459794    -11190.818     -9108.1318    
     80000   294.22067     -562.84984      29181.242      0.93844198    -11163.012     -9068.4059    
     81000   306.05163      1146.9679      28755.394      0.95233966    -11135.006     -8956.1728    
     82000   309.66467     -134.48153      28791.596      0.9511422     -11233.757     -9029.2021    
     83000   300.51363      1207.5828      28774.737      0.95169947    -11217.362     -9077.9551    
     84000   294.80652      1005.2094      28858.989      0.94892104    -11226.161     -9127.3842    
     85000   294.72727      1068.8072      28709.515      0.95386152    -11160.883     -9062.6697    
     86000   298.33107     -201.67009      28525.801      0.96000466    -11224.894     -9101.0245    
     87000   304.61051     -1323.6544      29088.639      0.94142948    -11147.375     -8978.8012    
     88000   300.33655     -82.372403      28714.899      0.95368269    -11241.557     -9103.411     
     89000   290.97304      230.12349      28614.863      0.9570167     -11150.051     -9078.565     
     90000   299.30765     -1845.4921      28886.561      0.94801531    -11228.992     -9098.1705    
     91000   308.85236     -96.792028      28791.788      0.95113585    -11144.405     -8945.6329    
     92000   296.95971     -766.50574      28724.194      0.95337409    -11210.18      -9096.0735    
     93000   296.83997      209.38703      28814.443      0.95038806    -11220.781     -9107.5277    
     94000   293.49034     -357.07587      28972.489      0.94520363    -11185.52      -9096.1126    
     95000   299.33214      867.23542      28577.4        0.95827131    -11292.509     -9161.5134    
     96000   299.05365     -676.04762      29014.954      0.94382029    -11203.422     -9074.409     
     97000   303.83014     -282.53619      28336.316      0.96642421    -11238.134     -9075.116     
     98000   303.64524     -1.777656       28918.132      0.94698032    -11203.451     -9041.7497    
     99000   293.13508      234.44203      29234.886      0.93672001    -11198.137     -9111.2592    
    100000   300.20472      140.19298      29105.026      0.94089943    -11240.508     -9103.3001    
    101000   304.30995     -870.11883      29567.655      0.92617769    -11205.24      -9038.8066    
    102000   291.80194     -794.15062      28621.862      0.95678269    -11224.991     -9147.6039    
    103000   299.72673      398.60296      29093.529      0.94127124    -11162.876     -9029.0707    
    104000   303.87261     -580.84071      29190.869      0.93813247    -11120.771     -8957.4512    
    105000   299.73344      660.15287      28561.894      0.95879154    -11198.245     -9064.3927    
    106000   302.13845      251.6018       29056.408      0.94247376    -11182.29      -9031.3152    
    107000   298.91391     -284.48731      29034.324      0.94319063    -11198.163     -9070.1445    
    108000   302.71742      576.17878      29094.106      0.94125257    -11148.553     -8993.4564    
    109000   301.79596      1011.1106      28825.175      0.95003421    -11237.589     -9089.053     
    110000   297.01857     -518.17148      28780.623      0.95150483    -11255.908     -9141.3828    
    111000   295.76426     -141.45044      28884.278      0.94809024    -11198.403     -9092.8079    
    112000   300.99289      627.38269      28968.265      0.94534148    -11191.088     -9048.2693    
    113000   296.43763     -529.8008       29049.577      0.94269539    -11144.349     -9033.9601    
    114000   303.36555      628.03         28942.036      0.9461982     -11211.346     -9051.636     
    115000   307.07573     -1335.33        28728.54       0.95322985    -11245.672     -9059.5481    
    116000   295.50335     -452.53129      28577.29       0.95827498    -11209.831     -9106.0927    
    117000   303.17569     -96.856449      29127.453      0.94017496    -11203.66      -9045.3017    
    118000   296.14731     -826.55471      29098.961      0.94109551    -11229.051     -9120.7284    
    119000   292.6093      -760.47228      28586.164      0.95797752    -11153.076     -9069.9412    
    120000   296.27757     -310.3167       28490.34       0.96119954    -11215.622     -9106.3718    
    121000   297.93918     -272.29937      28858.754      0.94892878    -11242.127     -9121.0477    
    122000   298.4427       375.24491      28995.606      0.94445008    -11173.014     -9048.3503    
    123000   300.4097       950.92845      28661.072      0.95547377    -11225.006     -9086.339     
    124000   298.48413     -80.753305      28631.625      0.95645645    -11229.513     -9104.5542    
    125000   304.18061     -59.9869        28662.973      0.9554104     -11264.287     -9098.7743    
    126000   302.40639      431.70236      29056.843      0.94245966    -11134.08      -8981.1985    
    127000   301.85986     -837.66174      28886.392      0.94802087    -11217.139     -9068.1484    
    128000   295.24821      344.14001      28877.153      0.94832416    -11240.287     -9138.3658    
    129000   303.7116       503.71718      28744.048      0.95271557    -11228.621     -9066.447     
    130000   303.46237      17.737015      29085.446      0.94153282    -11224.771     -9064.3717    
    131000   310.47028     -1592.6169      28922.219      0.94684652    -11302.942     -9092.6516    
    132000   296.92049     -6.510657       28774.098      0.95172062    -11184.574     -9070.7467    
    133000   295.44979     -718.44573      28703.135      0.95407356    -11190.175     -9086.818     
    134000   300.74068      760.51836      28438.349      0.96295683    -11211.321     -9070.2979    
    135000   303.14088     -48.164912      28725.822      0.95332005    -11185.626     -9027.5154    
    136000   311.92578     -662.86512      29169.871      0.9388078     -11178.365     -8957.7127    
    137000   299.88779      1105.7345      28834.107      0.94973989    -11167.091     -9032.1395    
    138000   302.50271      1063.0498      28659.314      0.95553237    -11130.101     -8976.5333    
    139000   294.84053     -618.74928      28906.806      0.94735138    -11218.91      -9119.8911    
    140000   307.14455     -882.35437      28751.802      0.95245863    -11163.791     -8977.1774    
    141000   299.66008     -203.02575      28826.978      0.94997478    -11196.177     -9062.8467    
    142000   300.94577     -274.53614      28597.987      0.95758147    -11218.666     -9076.1821    
    143000   301.016       -969.7475       29080.711      0.94168612    -11287.942     -9144.9587    
    144000   302.15898      949.44788      28622.463      0.95676261    -11257.847     -9106.7268    
    145000   299.78353      477.81531      28834.55       0.94972531    -11173.07      -9038.8608    
    146000   296.8196      -1337.0282      28831.164      0.94983687    -11197.093     -9083.9845    
    147000   299.62517     -558.60998      28863.34       0.94877802    -11241.432     -9108.35      
    148000   302.65759      607.64135      28492.36       0.96113142    -11228.544     -9073.8739    
    149000   299.09646     -265.32007      28415.742      0.96372292    -11276.6       -9147.2821    
    150000   298.95906      556.33474      28748.519      0.95256742    -11252.434     -9124.0938    
    151000   307.03682     -1205.4861      28744.413      0.95270348    -11253.781     -9067.9339    
    152000   302.7804       462.95174      28496.44       0.96099381    -11300.699     -9145.1546    
    153000   297.31285      1438.9591      28667.717      0.95525227    -11182.023     -9065.4024    
    154000   299.43187     -564.3351       28509.861      0.96054142    -11261.63      -9129.9237    
    155000   307.12487     -1195.3887      28680.744      0.95481841    -11220.569     -9034.0951    
    156000   307.04464     -769.6342       28272.392      0.96860931    -11290.171     -9104.2686    
    157000   301.5008       1326.4211      28576.401      0.95830481    -11251.191     -9104.7559    
    158000   313.48566     -448.53685      28535.052      0.95969342    -11247.454     -9015.6966    
    159000   297.43889      299.40464      28355.278      0.96577795    -11207.271     -9089.7539    
    160000   306.48499     -593.65994      28586.938      0.95795156    -11177.964     -8996.0461    
    161000   298.74622      482.84888      28643.701      0.95605321    -11173.985     -9047.1605    
    162000   303.33699      1412.7598      28223.844      0.97027541    -11152.943     -8993.4357    
    163000   302.03607     -247.11392      28635.533      0.95632591    -11200.511     -9050.2653    
    164000   299.52246     -597.43878      28324.67       0.96682157    -11271.078     -9138.727     
    165000   301.19613      297.70097      28314.748      0.96716038    -11236.645     -9092.3793    
    166000   300.88583     -39.595947      28253.688      0.96925055    -11228.718     -9086.6615    
    167000   302.14158      1917.8568      28352.037      0.96588836    -11277.689     -9126.6922    
    168000   297.51596      569.25617      28363.423      0.96550061    -11265.312     -9147.2456    
    169000   297.95537     -750.83731      28565.725      0.95866296    -11174.264     -9053.0695    
    170000   296.96919     -235.9577       28281.382      0.9683014     -11217.841     -9103.6675    
    171000   294.1344      -1047.0783      28411.831      0.96385559    -11272.358     -9178.3655    
    172000   300.63269     -648.31397      28515.337      0.96035695    -11207.576     -9067.3209    
    173000   298.15084     -604.92968      28286.619      0.96812214    -11227.724     -9105.1376    
    174000   299.74119      561.14927      28675.736      0.95498515    -11223.175     -9089.2672    
    175000   306.62238      600.36182      28393.776      0.96446847    -11239.905     -9057.0086    
    176000   301.24207     -1337.2241      28452.232      0.96248697    -11224.761     -9080.1682    
    177000   302.55674     -321.86833      28346.127      0.96608974    -11294.929     -9140.9768    
    178000   299.22734     -671.03521      28422.914      0.96347974    -11183.483     -9053.2336    
    179000   295.27708     -297.48657      28049.125      0.97631931    -11212.192     -9110.0651    
    180000   298.17342      1146.2256      28222.544      0.97032013    -11283.878     -9161.1309    
    181000   301.6241       666.60009      28217.486      0.97049404    -11256.627     -9109.3146    
    182000   289.61306      11.47015       28235.756      0.96986608    -11287.517     -9225.7134    
    183000   297.2929      -340.3117       28060.288      0.9759309     -11216.102     -9099.6241    
    184000   299.33667      873.82228      28294.868      0.96783988    -11284.846     -9153.8175    
    185000   303.55559     -1133.2958      28332.997      0.96653745    -11266.291     -9105.2276    
    186000   302.30581      2009.1693      27938.418      0.980188      -11257.167     -9105.0015    
    187000   313.7639      -194.3727       28405.92       0.96405615    -11271.931     -9038.1934    
    188000   304.85942      101.53109      28064.698      0.97577754    -11265.331     -9094.9855    
    189000   293.97997     -632.73648      28470.009      0.96188595    -11217.62      -9124.7274    
    190000   293.29003     -487.61905      28427.15       0.9633362     -11240.725     -9152.7442    
    191000   299.34969      95.505187      28391.935      0.96453103    -11277.663     -9146.5425    
    192000   299.29792      826.6628       28183.516      0.97166378    -11245.842     -9115.0898    
    193000   299.99216     -294.53604      28604.061      0.95737811    -11213.149     -9077.4542    
    194000   297.57868      321.26804      28284.505      0.96819452    -11232.78      -9114.2672    
    195000   307.2734       1117.2063      28161.897      0.9724097     -11253.947     -9066.4164    
    196000   290.54701     -456.70236      28582.979      0.95808424    -11261.807     -9193.354     
    197000   305.65382     -2112.3833      28190.464      0.97142431    -11251.117     -9075.1161    
    198000   298.61524     -485.35525      28106.252      0.9743349     -11238.056     -9112.1641    
    199000   304.87602      832.01263      28546.614      0.95930476    -11271.258     -9100.7947    
    200000   309.22393     -733.97659      28427.222      0.96333376    -11189.479     -8988.062     
Loop time of 14007 on 2 procs for 200000 steps with 3046 atoms

Performance: 1.234 ns/day, 19.454 hours/ns, 14.279 timesteps/s, 43.493 katom-step/s
98.0% CPU use with 2 MPI tasks x 1 OpenMP threads

MPI task timing breakdown:
Section |  min time  |  avg time  |  max time  |%varavg| %total
---------------------------------------------------------------
Pair    | 8040       | 8141.1     | 8242.2     | 112.1 | 58.12
Bond    | 505.45     | 506.12     | 506.79     |   3.0 |  3.61
Kspace  | 3209.6     | 3310.5     | 3411.3     | 175.3 | 23.63
Neigh   | 477.97     | 478.22     | 478.46     |   1.1 |  3.41
Comm    | 347.82     | 348.62     | 349.41     |   4.3 |  2.49
Output  | 14.713     | 19.666     | 24.619     | 111.7 |  0.14
Modify  | 1057.8     | 1059.4     | 1061       |   4.8 |  7.56
Other   |            | 143.4      |            |       |  1.02

Nlocal:           1523 ave        1548 max        1498 min
Histogram: 1 0 0 0 0 0 0 0 0 1
Nghost:          10927 ave       11083 max       10771 min
Histogram: 1 0 0 0 0 0 0 0 0 1
Neighs:         590090 ave      616153 max      564027 min
Histogram: 1 0 0 0 0 0 0 0 0 1

Total # of neighbors = 1180180
Ave neighs/atom = 387.4524
Ave special neighs/atom = 8.3072882
Neighbor list builds = 7700
Dangerous builds = 0

write_data data.final.lmp
System init for write_data ...
PPPM initialization ...
  using 12-bit tables for long-range coulomb
  G vector (1/distance) = 0.29750125
  grid = 24 24 24
  stencil order = 5
  estimated absolute RMS force accuracy = 0.0018626274
  estimated relative force accuracy = 5.6092471e-06
  using double precision FFTW3
  3d grid and FFT values/proc = 18259 6912
Generated 105 of 105 mixed pair_coeff terms from geometric mixing rule
print "RENEU >>> finished. trajectory = dump.lammpstrj, density log = density.dat"
RENEU >>> finished. trajectory = dump.lammpstrj, density log = density.dat
Total wall time: 6:06:39
