LAMMPS data file via write_data, version 10 Dec 2025, timestep = 120000, units = real

2736 atoms
14 atom types
2304 bonds
9 bond types
3240 angles
14 angle types
3528 dihedrals
12 dihedral types

3.2799870633445423 32.88001293665484 xlo xhi
3.2799870633445423 32.88001293665484 ylo yhi
3.2799870633445423 32.88001293665484 zlo zhi

Masses

1 14.007
2 12.011
3 1.008
4 12.011
5 1.008
6 15.999
7 1.008
8 1.008
9 12.011
10 12.011
11 15.999
12 1.008
13 1.008
14 15.999

Bond Coeffs # harmonic

1 382.003 1.448
2 434.034 1.01
3 267.925 1.529
4 339.986 1.09
5 320.005 1.41
6 553 0.945
7 317.041 1.522
8 655.951 1.25
9 517.63 1

Angle Coeffs # harmonic

1 51.8045 107.2
2 35.0024 109.5
3 35.0024 109.5
4 56.2022 109.5
5 35.0024 109.5
6 37.5 110.7
7 32.9947 107.8
8 50 109.5
9 35.0024 109.5
10 54.9952 108.5
11 70.0048 117
12 79.9952 126
13 35.0024 109.5
14 37.9505 109.47

Dihedral Coeffs # opls

1 0.415989 -0.128011 0.695005 0
2 -0.19001 -0.416993 0.417997 0
3 0 0 0.55999 0
4 0 0 0.4 0
5 -10.5286 -1.29897 0 0
6 0 0 0.467997 0
7 -1.013 -0.709011 0.472992 0
8 0 0 0.3 0
9 -0.355999 -0.173996 0.491993 0
10 0 0 0.45 0
11 0 0 0 0
12 0 21 0 0

Atoms # full

2047 203 13 0.4238 6.94043847586164 10.051308603336064 6.477320911851372 0 0 0
2048 203 14 -0.8476 7.357995238032186 9.337553064935339 7.039603179581782 0 0 0
2198 253 14 -0.8476 9.362409614661217 5.190432427362786 8.512517074136689 0 1 0
2049 203 13 0.4238 7.448187489345507 8.726835698230243 6.252931995494561 0 0 0
1692 119 10 -0.28 5.39107231510391 10.088669342680639 9.584383566812019 0 0 0
2199 253 13 0.4238 8.666376252118415 5.72357280018594 8.993412782175898 0 1 0
1695 119 12 0.06 6.36570845819936 10.54038235326287 9.769028685261429 0 0 0
1697 119 12 0.06 5.388145836116015 9.474801029379208 8.683710939401063 0 0 0
113 6 8 0.418 9.79775779276606 9.792897040233033 4.99535683592378 0 0 0
2147 236 14 -0.8476 3.883224355016253 10.447212961249466 4.719627347514255 0 0 0
2626 396 13 0.4238 7.9466587781060944 5.743628259938687 5.28731190090684 0 1 1
1998 186 13 0.4238 8.046941229539593 9.832134785170886 4.175586292526789 0 1 1
107 6 6 -0.6830000000000001 10.454120803946992 10.231626536262649 5.514677990963268 0 0 0
2146 236 13 0.4238 3.53585578553708 10.179024117579221 5.618166641742189 0 0 0
2197 253 13 0.4238 9.200394963181399 4.2679076294099705 8.862748672037554 0 1 0
2644 402 13 0.4238 8.371141850187124 10.444854298043984 8.421843641258167 0 0 1
2645 402 14 -0.8476 9.064146859641054 10.89064304381241 8.988392935740208 0 0 1
2646 402 13 0.4238 9.08130717162263 10.381059402766326 9.848621094949257 0 0 1
2628 396 13 0.4238 8.422719075317417 5.38873707445181 6.613396551160365 0 1 1
2627 396 14 -0.8476 8.258475599433185 4.913297664761057 5.74913791160602 0 1 1
2227 263 13 0.4238 7.517618554074257 8.030639738569828 8.752929959944478 0 1 0
2228 263 14 -0.8476 7.81513753627897 7.546703874547252 9.575881989116292 0 1 0
2163 241 13 0.4238 10.849840546935484 5.391243373024665 7.713879710693532 0 1 0
2161 241 13 0.4238 12.072174774748332 4.35616215234056 7.658458411746672 0 1 0
2675 412 14 -0.8476 6.942156992842746 10.85057730607981 4.856983986733175 0 0 0
2676 412 13 0.4238 5.970972832537912 11.078636740733543 4.788050710532865 0 0 0
1691 119 9 0.7 4.344101215782793 11.211458701765535 9.645125226105602 0 0 0
992 53 3 0.35 27.579802485178483 15.701668715043498 17.743924534851317 0 0 0
1199 64 2 0.235 19.257442996071404 20.07085573244127 3.5652179014591447 0 0 0
1696 119 12 0.06 5.265396645327667 9.366373497305503 10.390949354194397 0 0 0
2337 299 13 0.4238 7.6653082895060844 8.033129666930684 4.47812424392206 0 1 0
2336 299 14 -0.8476 7.033048928955246 7.508995231759068 5.048645206449598 0 1 0
2335 299 13 0.4238 6.1807669707927815 7.5773668342757645 4.5300870599729635 0 1 0
2162 241 14 -0.8476 11.838064483164082 5.324861642227331 7.576148057835572 0 1 0
1955 172 14 -0.8476 13.81075575129359 7.229508382088536 6.376556624531901 0 0 0
1956 172 13 0.4238 14.104828346335495 7.873907834225773 7.0824128634268915 0 0 0
108 6 7 0.04 11.69590140329394 8.720691641960924 5.189220732227752 0 0 0
1954 172 13 0.4238 13.135737259817452 6.692041862541394 6.88196967579198 0 0 0
2096 219 14 -0.8476 15.140559648802732 5.633966288743414 4.869072085949439 0 1 1
2095 219 13 0.4238 14.783801916563451 6.468946407005495 5.2879932469855735 0 1 1
101 6 4 0.18 11.743587077396823 9.799581846913831 5.041653621234283 0 0 0
102 6 5 0.08 13.791937507044892 9.648373237154166 5.6482712468483935 0 0 0
109 6 7 0.04 11.918112966387772 9.857902805962372 3.967319686769236 0 0 0
2097 219 13 0.4238 15.387782683313516 5.214881251922793 5.742691235452774 0 1 1
110 6 6 -0.6830000000000001 14.698975277148623 8.859680567165418 8.49111242211347 0 0 0
114 6 8 0.418 15.499274676219798 8.497404407094015 8.839346984058174 0 0 0
605 32 7 0.04 15.656929395162791 5.804776913936835 9.34723861340598 0 0 0
111 6 7 0.04 15.611229075532071 9.970496988597505 7.01100676983202 0 0 0
100 6 3 0.35 12.609438568405146 9.639306278914233 7.6487720180943475 0 0 0
97 6 2 0.235 12.984252773439101 10.36639260171167 5.790213412549851 0 0 0
104 6 4 0.18 15.064911407260068 10.111651502900237 7.943565873604069 0 0 0
96 6 1 -0.48 12.694067479577066 10.550561712133874 7.221557765414538 0 0 0
2480 347 14 -0.8476 17.454573687631772 7.499851696043703 8.506560197359045 0 0 0
600 32 5 0.08 13.96207158052346 3.97199946893903 9.14083088685371 0 0 0
112 6 7 0.04 15.740618424283214 10.540911645994814 8.683302172163716 0 0 0
2243 268 14 -0.8476 15.553254138550459 3.958293166925151 7.102875459923033 0 1 1
2479 347 13 0.4238 18.01711493460966 8.32051867139131 8.606634704748888 0 0 0
1381 74 12 0.06 11.589945324305685 32.173065592321066 4.836358050755341 0 0 0
2481 347 13 0.4238 17.68294892251776 6.849864378340257 9.23135244136545 0 0 0
160 9 5 0.08 13.537057230275746 3.6158187403829967 3.7575853726093458 0 0 1
606 32 7 0.04 14.021071857410663 6.472361905729581 9.529251703503977 0 0 0
592 32 2 0.235 14.335243822860923 4.308766287978454 10.107983730479331 0 0 0
598 32 4 0.18 14.780137859992267 5.842905908615126 9.993641593479332 0 0 0
596 32 5 0.08 11.539076448632574 4.529606947131242 9.964670627158306 0 0 0
2638 400 13 0.4238 17.976544439176315 4.669970097869959 10.118627342948859 0 1 1
2169 243 13 0.4238 16.572892937467138 10.58175262674986 4.771555149616699 0 0 1
2168 243 14 -0.8476 15.690592980372838 10.710824453096404 4.318953162742454 0 0 1
2244 268 13 0.4238 16.449731832977676 3.522068703983178 7.180319029132804 0 1 1
829 44 6 -0.6830000000000001 20.42552878031042 9.328637934757277 3.4583855215659765 0 0 1
627 33 8 0.418 18.468493749394064 4.469492773808003 5.091776502016522 0 0 1
621 33 7 0.04 23.979904688960385 6.045308190231737 4.23680919933045 0 0 1
902 48 4 0.18 22.692095510895292 3.7742895522873705 8.384561286337311 0 0 0
910 48 7 0.04 21.699982509131765 4.030739882425821 8.756043485970437 0 0 0
624 33 7 0.04 19.73876533340588 4.616938615400445 6.822791486178801 0 0 1
617 33 4 0.18 19.40785790458709 5.472875339258916 6.234636187594862 0 0 1
625 33 7 0.04 18.460728649035424 5.825576545998901 6.642805691552807 0 0 1
623 33 6 -0.6830000000000001 19.06323545886584 5.18748687375734 4.937642625686759 0 0 1
611 33 2 0.235 20.521014675724064 6.5558699141498105 6.427027339636307 0 0 1
618 33 5 0.08 20.83653421923586 6.588847005059517 7.469818777036029 0 0 1
908 48 6 -0.6830000000000001 22.75560586389257 4.319970203362756 7.163502452063435 0 0 0
613 33 3 0.35 21.952386255694787 5.328627566607597 5.519279664908973 0 0 1
912 48 8 0.418 23.058145483293455 3.6675118767143937 6.550511114581895 0 0 0
609 33 1 -0.48 21.55018212139953 6.252910494274323 5.45608488197829 0 0 1
1846 141 10 -0.28 24.346586054297646 8.096002157577129 9.24056171484757 0 0 0
615 33 5 0.08 23.26425534411823 7.010808891200309 6.174443552085089 0 0 1
610 33 2 0.235 22.622370912246996 7.276105664474531 5.334410200850726 0 0 1
616 33 5 0.08 22.26140872272806 8.304124503298416 5.3037887132211745 0 0 1
612 33 3 0.35 21.02639658465024 6.376652736358794 4.601452087308869 0 0 1
619 33 5 0.08 20.132740522950808 7.532362671986676 6.13761571571437 0 0 1
2584 382 13 0.4238 18.905186003267602 9.937175116440628 8.440431388043296 0 0 0
2585 382 14 -0.8476 18.70396453242501 9.83057214787921 9.414139316250363 0 0 0
2269 277 13 0.4238 24.670506519878646 9.737495507364038 5.720281525330534 0 0 1
835 44 8 0.418 19.76631906173577 9.566873231316581 4.092165429052503 0 0 1
904 48 5 0.08 23.766270777712553 5.193700311542351 9.635222154642227 0 0 0
614 33 4 0.18 23.285504718212625 6.849413354992832 3.993339294172723 0 0 1
1889 150 14 -0.8476 21.568748894101883 9.981372720787522 7.371354914541662 0 0 0
896 48 2 0.235 23.902311254088357 4.18300814866327 9.250451584272579 0 0 0
2639 400 14 -0.8476 18.20238106400542 5.6305212021655615 10.280807085352315 0 1 1
2455 339 13 0.4238 19.976847984753757 5.889844901882002 10.152053461066583 0 0 0
2262 274 13 0.4238 19.67548412377327 9.408929834276012 10.421473323693117 0 0 0
2456 339 14 -0.8476 20.93442326747762 6.17767457959899 10.164924230127161 0 0 0
622 33 7 0.04 23.77961617112464 7.745355406523249 3.6175790470480895 0 0 1
1849 141 12 0.06 24.543091559612517 8.341900532940725 10.284100745906787 0 0 0
2260 274 13 0.4238 20.631346298462574 8.217625420340262 10.462192252225059 0 0 0
1890 150 13 0.4238 20.613663349271636 10.021514927805663 7.077817750964501 0 0 0
1851 141 12 0.06 23.56368767312218 7.344656019286217 9.34353327360276 0 0 0
1850 141 12 0.06 23.871655443106995 8.92882433569148 8.722003909686801 0 0 0
2586 382 13 0.4238 18.262379584185478 10.684286196258338 9.690067590374142 0 0 0
1603 106 11 -0.8 19.11027418772047 10.320829243025308 6.931942454947999 0 0 0
2270 277 14 -0.8476 25.240831319647736 8.937622069465228 5.533478387176371 0 0 1
2271 277 13 0.4238 25.457440365473655 8.697456111126321 6.479714394962199 0 0 1
1848 141 11 -0.8 25.501400504773855 6.740527460078546 7.598432237590133 0 0 0
1602 106 11 -0.8 18.266127396895723 10.433121098492983 4.867099477672219 0 0 0
830 44 7 0.04 21.965495324547735 10.499275961891955 4.317650526641213 0 0 1
1233 65 7 0.04 22.417195273075922 10.483281674622802 9.806273041398821 0 0 0
2241 267 13 0.4238 30.965688899946084 20.156452491605613 3.483062139712997 0 0 0
2636 399 14 -0.8476 10.830856955335307 7.669775449527307 18.0415173231516 0 0 0
2643 401 13 0.4238 17.554845810595257 11.768759422454803 17.830256171722247 0 0 0
1924 162 13 0.4238 32.699550706933444 8.593389653615414 7.34741928534444 -1 1 0
897 48 3 0.35 24.977288098414174 5.025950742977096 7.854926415140825 0 0 0
1925 162 14 -0.8476 32.57751893487982 9.54876441972926 7.078479494879277 -1 1 0
1926 162 13 0.4238 32.565721097795944 10.07939685147781 7.925976657929171 -1 1 0
894 48 1 -0.48 24.972632342393172 4.139743928752583 8.33936064375726 0 0 0
1845 141 9 0.7 25.620118851551414 7.47777783865385 8.647743555023201 0 0 0
901 48 5 0.08 26.5215971051002 4.704084827628327 9.56632596972961 0 0 0
1875 145 13 0.4238 26.17914415701417 10.209152081670126 4.624531372223906 0 0 0
1847 141 11 -0.8 26.696977904113208 7.6827042859297 9.219905516098084 0 0 0
2235 265 13 0.4238 26.023110762969843 6.338373519975942 5.980941495639392 0 0 1
2234 265 14 -0.8476 26.58293448485344 6.396022310764112 5.154360373456901 0 0 1
2233 265 13 0.4238 26.58170578232597 7.348947157574037 4.851219989774009 0 0 1
2431 331 13 0.4238 28.264552782151615 7.4905980415649545 8.400234337316903 0 1 0
2433 331 13 0.4238 29.68682272345229 6.8769050328727594 8.845453374116374 0 1 0
2432 331 14 -0.8476 29.24781676145467 7.5229307203426234 8.221043976398093 0 1 0
2492 351 14 -0.8476 30.513260905082348 7.0107995514499235 5.884090382269736 -1 1 0
2491 351 13 0.4238 31.339442145965705 7.5661433973100705 5.97884871122219 -1 1 0
790 42 5 0.08 28.787942375882814 9.831784173864886 9.006859275026116 0 0 0
2493 351 13 0.4238 30.079925288612984 7.133459432162746 6.776916059405417 -1 1 0
2731 431 13 0.4238 21.665992268342958 26.724876287056475 18.040244183079917 0 0 0
789 42 5 0.08 27.51245969395901 9.693087944127683 7.969919291283274 0 0 0
907 48 7 0.04 27.394111745367237 4.595576453410022 7.406104086759931 0 0 0
787 42 5 0.08 30.16418600211176 10.459710235663035 7.206125735735785 0 0 0
782 42 2 0.235 28.001434549927612 10.453366280515446 8.578963178636478 0 0 0
786 42 5 0.08 28.8073191010057 10.4322166036022 5.9834431297616515 0 0 0
2306 289 14 -0.8476 29.942808863125713 5.472412335816736 9.810592963403208 0 1 0
2559 373 13 0.4238 27.25093473352054 7.251700007684616 10.766939087846747 0 1 0
795 42 7 0.04 26.348633675653673 10.153051315062445 9.947205262647119 0 0 0
2523 361 13 0.4238 29.535443992777694 3.7856609819713944 5.628998849970687 0 1 0
2522 361 14 -0.8476 30.29980803996865 4.127940832598885 6.175399285218596 0 1 0
2521 361 13 0.4238 30.33470281550813 5.101296826506714 5.948854275325866 0 1 0
2307 289 13 0.4238 29.365744734325837 5.3899773254807375 10.623097235323119 0 1 0
1874 145 14 -0.8476 26.955334753421635 10.72677221198224 4.2645879210145266 0 0 0
1693 119 11 -0.8 32.817127063361454 10.9295107238094 9.185330359977211 -1 0 0
2153 238 14 -0.8476 27.291435048184894 3.8892546632682654 4.452998405632735 0 1 0
2305 289 13 0.4238 30.126228301042225 4.588777133192123 9.3798871787675 0 1 0
2220 260 13 0.4238 30.936926648051838 32.095462295717226 7.680106178371145 0 0 0
2662 408 13 0.4238 28.489583814115484 10.124135340024951 3.667243044841638 -1 0 0
2148 236 13 0.4238 32.838368584447785 11.09548273813432 4.314860358022422 -1 0 0
1541 97 12 0.06 8.858083638036355 17.513504604821726 4.952762586802479 0 0 0
2674 412 13 0.4238 7.425274663235199 11.67994528489641 4.576430898620935 0 0 0
244 13 7 0.04 4.0153326551241015 13.002144081675393 7.1992377407575425 0 0 0
243 13 6 -0.6830000000000001 5.734199737919427 13.711417577377942 6.418828104089782 0 0 0
2072 211 14 -0.8476 4.587047966544815 14.775065992819844 9.710322201531827 0 0 0
247 13 8 0.418 5.930475966276111 14.467860091054632 5.88754583512805 0 0 0
2073 211 13 0.4238 4.491787299072835 13.78537195561933 9.817058044390777 0 0 0
237 13 4 0.18 4.358835660436744 13.730945982066977 6.465134472098241 0 0 0
939 50 5 0.08 6.998422125768504 14.676751885609313 8.89113218632323 0 0 0
1540 97 11 -0.8 6.479138920474827 15.585288707209244 4.934903822570642 0 0 0
938 50 5 0.08 7.09450377127 12.860970393480915 9.10994792750092 0 0 0
933 50 2 0.235 7.549701520569414 13.832093902055588 9.304288253919324 0 0 0
942 50 5 0.08 8.30977012290506 14.196687535020887 6.732152580592215 0 0 0
941 50 5 0.08 8.691419486813293 12.467996295727684 7.104836620146584 0 0 0
935 50 3 0.35 9.476555840830123 14.640718990802485 8.87963116616633 0 0 0
932 50 1 -0.48 8.912817174295242 13.817539039881943 8.722678405896385 0 0 0
934 50 2 0.235 8.958820282593413 13.510654181068777 7.2763457386092405 0 0 0
936 50 3 0.35 9.429132826135985 13.07175204667562 9.166841236667928 0 0 0
233 13 3 0.35 4.372344799122585 15.717734965645967 8.278442843604413 0 0 0
229 13 1 -0.48 4.411402331350017 16.00871306416686 7.312074851084489 0 0 0
232 13 3 0.35 5.370554082725235 16.021902854870817 6.995981723832022 0 0 0
1537 97 9 0.7 7.046605086661175 16.52774249288659 5.448607222040049 0 0 0
230 13 2 0.235 3.710442493503398 17.251275836654557 7.372550727789858 0 0 0
1539 97 11 -0.8 6.865208964608065 16.844594177482875 6.667830387189971 0 0 0
246 13 8 0.418 6.094531033473825 17.821328797118095 8.043931754671412 0 0 0
1310 69 8 0.418 8.006015306754254 17.011394109536358 7.962643217791543 0 0 0
1304 69 6 -0.6830000000000001 8.564324662916565 17.01372100749164 8.725057594146095 0 0 0
1298 69 4 0.18 9.640945616934154 17.961366277969496 8.384725776975397 0 0 0
1305 69 7 0.04 9.97853704676399 17.547374877477928 7.434621969561391 0 0 0
1538 97 10 -0.28 7.8148122343117965 17.552538860272897 4.639529210685759 0 0 0
940 50 4 0.18 10.396863941919896 13.617594927910256 6.816598696213353 0 0 0
948 50 7 0.04 10.672744320297593 14.667130983714067 6.714529366597775 0 0 0
947 50 7 0.04 10.508527677954472 13.032912111066048 5.9035098252694205 0 0 0
2272 278 13 0.4238 7.774143080115702 13.92157952611857 4.260322249630566 0 0 1
2273 278 14 -0.8476 8.27953010844912 13.060472124633602 4.205191398091088 0 0 1
1543 97 12 0.06 7.636086495011437 18.60542428025304 4.857573923635104 0 0 0
240 13 6 -0.6830000000000001 5.608125965598569 17.80653896824364 8.853982249220547 0 0 0
2071 211 13 0.4238 4.895585014764328 15.185825742174904 10.568251486555742 0 0 0
1297 69 3 0.35 9.294967773033049 16.80288061165765 10.549217999114592 0 0 0
1694 119 11 -0.8 4.639840240718399 12.345831330717264 10.132219276015766 0 0 0
1293 69 1 -0.48 9.95509799439753 17.536749601845294 10.763051973497463 0 0 0
245 13 7 0.04 4.063263351289914 13.288797938159258 5.513716471219829 0 0 0
231 13 2 0.235 3.631456358976436 15.064865970421124 6.533894600164205 0 0 0
2665 409 13 0.4238 5.759132803705926 18.551039623607352 10.358004716126228 1 0 0
1542 97 12 0.06 7.852457770387555 17.26499785836075 3.588835619974075 0 0 0
1997 186 14 -0.8476 8.650561367606361 9.206554299899295 3.6813647041068784 0 1 1
150 8 7 0.04 16.86488490513723 16.51422017013154 3.325673308825951 0 0 0
149 8 7 0.04 16.263792533882953 15.024894941997502 4.0064812556668254 0 0 0
99 6 3 0.35 11.872344005420443 11.132299587651591 7.3016345276568035 0 0 0
98 6 2 0.235 13.853491963305855 11.114169209568779 7.867941206908731 0 0 0
1294 69 2 0.235 10.683462633847235 17.829719599879542 9.54672951250149 0 0 0
103 6 5 0.08 13.213286858995595 11.362955575721108 5.412775382320696 0 0 0
946 50 6 -0.6830000000000001 11.26056286252971 13.010084780432715 7.763162866797341 0 0 0
950 50 8 0.418 11.702821345584333 13.676294704031768 8.266712525182868 0 0 0
1630 110 11 -0.8 13.273861836627043 14.659620069688193 5.06926108500782 0 0 0
106 6 5 0.08 13.5662415150376 11.408273545047068 8.877418219186048 0 0 0
1686 118 11 -0.8 12.275056448439413 14.750586037142408 9.40403342366945 0 0 0
1628 110 9 0.7 13.77708150153951 13.68943476575187 4.551804345751526 0 0 0
105 6 5 0.08 14.08920818591652 12.0271209251555 7.321122142039925 0 0 0
146 8 7 0.04 16.667762721502246 15.080737205352191 9.815607472720412 0 0 0
1631 110 11 -0.8 14.724245027330388 13.005802544738588 4.983442619350284 0 0 0
151 8 8 0.418 15.229419292702026 13.29354359079423 9.235319807975262 0 0 0
145 8 6 -0.6830000000000001 15.674367533698156 13.65972503006798 8.486372094823665 0 0 0
2167 243 13 0.4238 15.335837989734168 11.615446462652368 4.555108375359099 0 0 1
139 8 4 0.18 16.650651384660755 14.712954129152338 8.789694768758427 0 0 0
147 8 7 0.04 17.616155243054017 14.280754332818587 8.526902717370923 0 0 0
138 8 3 0.35 15.729256189942035 14.732453084696452 6.46326298072281 0 0 0
1299 69 5 0.08 11.448146072837579 17.084263909157762 9.32853438768353 0 0 0
2282 281 14 -0.8476 12.918263494453901 16.32914827783026 7.275231709868303 0 0 0
2283 281 13 0.4238 12.769479647713412 15.628949541963795 7.973477855659321 0 0 0
2281 281 13 0.4238 12.855507737893062 15.755770608122711 6.4583704159082735 0 0 0
140 8 5 0.08 15.43747956674283 16.371305258414985 8.132523478769137 0 0 0
143 8 5 0.08 15.18529997714433 16.679713998423516 5.390700623851715 0 0 0
134 8 1 -0.48 16.38924746387032 15.489972456464196 6.566396237428822 0 0 0
135 8 2 0.235 16.422724809799583 15.934033050089715 7.970848335596214 0 0 0
142 8 4 0.18 16.90347601605228 15.882842697913105 4.21332596849728 0 0 0
136 8 2 0.235 16.238364139495474 16.44126005389755 5.539863667886914 0 0 0
141 8 5 0.08 17.18193132245488 16.712536795710548 8.045625856857649 0 0 0
144 8 5 0.08 16.645987774122876 17.38120007036929 5.911898343074417 0 0 0
2012 191 14 -0.8476 17.544308676633143 12.197903905546799 10.64908669975988 0 0 0
2208 256 13 0.4238 11.504900669333619 13.200383342105114 10.90000272788374 0 0 0
2207 256 14 -0.8476 10.622743740868438 12.805054819198487 11.155885266026441 0 0 0
1948 170 13 0.4238 12.422214016432797 16.03774213572313 4.22412578868404 0 0 1
1949 170 14 -0.8476 12.231448624522697 16.929482882211943 3.813797110420595 0 0 1
1950 170 13 0.4238 12.517043154171116 17.513914419458388 4.573295204226801 0 0 1
137 8 3 0.35 17.287690396854643 15.047644656468538 6.4352208385312535 0 0 0
1606 106 12 0.06 17.181855486767972 12.399847370432479 6.756668464575405 0 0 0
1684 118 9 0.7 13.141138308634563 14.521023674069385 10.263123685237211 0 0 0
1604 106 12 0.06 18.81278427861316 12.696245884397838 7.144547865233919 0 0 0
2367 309 13 0.4238 12.946626733963367 17.692088985637497 6.571322425386649 0 0 0
148 8 6 -0.6830000000000001 18.135851784129436 15.295758506179967 4.3776002880403215 0 0 0
1601 106 10 -0.28 18.183103079899773 12.337319504385837 6.330467014261609 0 0 0
92 5 7 0.04 27.04518140518879 20.82262466311672 17.607508023284073 0 0 0
2140 234 13 0.4238 28.535112614125698 32.688216813062176 3.4042593213282024 0 0 0
1688 118 12 0.06 13.522608793565793 15.681990711282157 11.978569481758651 0 0 0
128 7 7 0.04 13.28678779821611 29.52359159739299 17.558075815549977 0 0 0
2600 387 14 -0.8476 32.63093181240511 23.459434386941957 3.5255210417294047 0 0 1
91 5 6 -0.6830000000000001 27.577272517444804 18.79994341848139 17.86065200674848 0 0 0
2152 238 13 0.4238 26.361109803050404 3.599639980281965 4.228095445750175 0 1 0
1605 106 12 0.06 18.282706611816558 13.082767233464848 5.5415177813634 0 0 0
152 8 8 0.418 18.700512986534477 16.03007997964541 4.564469670125752 0 0 0
1600 106 9 0.7 18.521380139541513 10.91799877782158 5.985088691465486 0 0 0
1224 65 5 0.08 19.15074943197901 13.913714040924729 9.946740270697653 0 0 0
1815 136 12 0.06 22.127301203522727 14.919929485781479 5.172556412325214 0 0 0
1814 136 12 0.06 20.6614818049739 13.99237540113815 5.243202832526787 0 0 0
1227 65 5 0.08 20.39351720886824 11.952413908355757 9.350908572421869 0 0 0
1219 65 2 0.235 21.00184914226273 12.185006313674577 10.224914942220524 0 0 0
1217 65 1 -0.48 21.191345512049274 13.62276609203696 10.219377681404712 0 0 0
1231 65 6 -0.6830000000000001 23.338802681371334 12.134015627564168 9.609377124326347 0 0 0
1235 65 8 0.418 23.01527404704524 12.32722313210197 8.742779983658341 0 0 0
1888 150 13 0.4238 21.757030718326828 10.944868931303157 7.1811225972533945 0 0 0
2103 221 13 0.4238 23.66614334781051 11.92457618525753 6.433804375463113 0 0 0
1813 136 11 -0.8 22.28339636850761 12.442630882023728 7.17375067265777 0 0 0
1220 65 3 0.35 21.540142912688868 13.85811729922356 9.301221397091014 0 0 0
1810 136 9 0.7 21.97692348323102 13.628309217333216 6.8388161634202165 0 0 0
1811 136 10 -0.28 21.73287623447116 13.938639180665792 5.436284207712248 0 0 0
1812 136 11 -0.8 21.78264326444612 14.543311512540305 7.648613215234505 0 0 0
2102 221 14 -0.8476 24.32166799032566 11.409284883235305 5.8817852000015876 0 0 0
1225 65 4 0.18 22.36006480296922 11.45314546322998 10.300392883679764 0 0 0
2212 258 13 0.4238 20.131587395648907 15.292529067128608 6.98041229157462 0 0 0
2213 258 14 -0.8476 19.43548048592649 15.999558242886748 6.855887073552226 0 0 0
2214 258 13 0.4238 19.895052070078883 16.887043519121526 6.88945818946404 0 0 0
1230 65 7 0.04 20.12695262796457 15.982150399251383 9.328608825518408 0 0 0
1222 65 4 0.18 20.159271478141044 15.82374214895514 10.4065310913867 0 0 0
1816 136 12 0.06 22.20584369831591 13.159614664401506 4.838390757307116 0 0 0
1036 55 5 0.08 24.102833074890224 15.191591922045507 9.512252902621308 0 0 0
2708 423 14 -0.8476 23.06803350512031 17.05325497925241 6.898403178505475 0 0 0
2707 423 13 0.4238 22.709827597336755 16.156513004964594 7.1582193073558855 0 0 0
1218 65 2 0.235 19.96616215135674 14.336419396542942 10.533661360184654 0 0 0
2709 423 13 0.4238 22.333269880356777 17.731530065246382 6.893132417170998 0 0 0
1209 64 6 -0.6830000000000001 19.655025459914395 17.771551310976257 4.3275992346101395 0 0 0
1681 117 12 0.06 24.618275285180953 14.380958361143342 7.128106684459741 0 0 0
1683 117 12 0.06 24.992654467579392 14.43300867519334 5.3802722488289305 0 0 0
2101 221 13 0.4238 25.189418006250115 11.875848477219446 6.052932984218749 0 0 0
184 10 7 0.04 24.476893829372173 16.348850377956605 3.9703693454055546 0 0 1
2266 276 13 0.4238 24.33894443373204 17.84028385097018 5.936449860432752 0 0 1
1033 55 5 0.08 23.96342928504566 17.50208829379528 9.253808230213139 0 0 0
798 42 8 0.418 25.22826509226618 11.773320841707413 9.048558366925814 0 0 0
1678 117 10 -0.28 25.397586586388215 14.551217914099858 6.385314850662381 0 0 0
1034 55 5 0.08 25.683273046973326 17.926519605242078 9.351227337214908 0 0 0
291 16 4 0.18 31.826391189778402 29.511546827164373 13.47751094927112 0 0 0
2461 341 13 0.4238 23.193379102907024 4.841887457928808 17.9167221097632 0 0 0
236 13 5 0.08 3.765583403259233 17.80640764755747 6.4361521853023795 0 0 0
239 13 5 0.08 3.512764267915686 15.53425892736937 5.557351476167385 0 0 0
796 42 7 0.04 27.281662856106184 11.423831139570707 10.565681965482636 0 0 0
1682 117 12 0.06 25.691318030400772 15.600415817879927 6.416293895576734 0 0 0
235 13 5 0.08 32.25643748754261 17.118633826641492 7.616434185957896 -1 0 0
788 42 4 0.18 26.909974352511572 11.028361110504921 9.620427935090548 0 0 0
781 42 2 0.235 29.35063638105729 11.008769145920251 6.732073600834948 0 0 0
1873 145 13 0.4238 26.96893988207291 11.488562532939541 4.91224051153128 0 0 0
238 13 5 0.08 32.28815247060015 14.93645392782632 7.064642542594271 -1 0 0
568 30 7 0.04 31.252568576977218 13.544659589956222 9.156752748810327 -1 0 0
566 30 6 -0.6830000000000001 29.3686896459328 13.216616176783777 9.692633608659946 -1 0 0
1680 117 11 -0.8 26.693382589232325 12.58725187361609 6.122714586929781 0 0 0
784 42 3 0.35 27.740812664903356 12.114398827618237 7.485664477717299 0 0 0
780 42 1 -0.48 28.496565413241186 11.527034235230605 7.80800191583707 0 0 0
783 42 3 0.35 28.97255711172147 12.135497294655364 8.458590286454534 0 0 0
794 42 6 -0.6830000000000001 26.130676691114118 12.05175295835831 9.082014586457774 0 0 0
570 30 8 0.418 28.799367377540044 13.531272735501503 10.378092494867662 -1 0 0
785 42 4 0.18 29.963745706022248 12.118100812841385 5.888168939943252 0 0 0
560 30 4 0.18 30.664254767228396 13.707014371713068 10.059848424807523 -1 0 0
1677 117 9 0.7 26.665742031751396 13.766113552650669 6.5007811499626325 0 0 0
178 10 5 0.08 26.903793546110165 16.595417298148046 4.32406469922442 0 0 1
793 42 7 0.04 30.94399305718088 11.744488262617544 5.592224918618701 0 0 0
1679 117 11 -0.8 27.69356665735811 14.334584000266668 6.897029376277251 0 0 0
2648 403 14 -0.8476 28.621184528395204 16.82161564219458 6.261343026899835 0 0 0
2649 403 13 0.4238 28.374421976305843 15.880871867519271 6.4938779873424455 0 0 0
2647 403 13 0.4238 28.49195162798 17.216656349815686 7.170850037718093 0 0 0
567 30 7 0.04 30.49653012835132 14.734633273553982 10.38221775289298 -1 0 0
1980 180 13 0.4238 27.943677331710116 15.131213773645877 8.581502031910308 -1 0 0
1979 180 14 -0.8476 28.176005149529423 15.94135240969273 9.1197045316933 -1 0 0
2173 245 13 0.4238 29.53467348855806 17.013367664644942 8.997726259695185 0 0 0
791 42 6 -0.6830000000000001 30.110160961334575 13.27904917875098 6.560842611482952 0 0 0
797 42 8 0.418 29.219902812266312 13.586160645458321 6.6390313484189445 0 0 0
1978 180 13 0.4238 28.241264499599794 15.562144479885182 10.042691571279814 -1 0 0
792 42 7 0.04 29.307874538192852 12.168867590082321 5.019083277672953 0 0 0
1037 55 5 0.08 25.888984693278857 15.28242029972428 9.755061820762027 0 0 0
2175 245 13 0.4238 30.38019883292996 17.166541087240233 10.269622050157807 0 0 0
2611 391 13 0.4238 30.190999806128648 17.35115646661979 5.397587981487076 -1 0 0
2612 391 14 -0.8476 31.153649376520995 17.545473599965007 5.209152360872912 -1 0 0
2476 346 13 0.4238 4.880326761656513 9.436538381320668 3.6237593507079717 1 0 0
2174 245 14 -0.8476 30.337789156832397 17.507539584738332 9.33053484208857 0 0 0
2106 222 13 0.4238 9.231362629179422 15.302441965123814 17.81512720007599 0 0 0
176 10 3 0.35 25.96598562988155 18.73716284013968 3.82971788467602 0 0 1
181 10 5 0.08 28.348199179860636 18.505799655966648 4.138021218221984 0 0 1
2613 391 13 0.4238 31.185657862885446 18.5311662259491 5.043783316484672 -1 0 0
2593 385 13 0.4238 29.336350624384078 14.176748875925997 4.149209920783349 0 0 0
555 30 3 0.35 31.635202025684084 11.204396978058982 10.14571682394615 -1 0 0
2720 427 14 -0.8476 7.831585549171996 23.251463560645334 3.741100469513392 0 0 1
234 13 4 0.18 4.288822875138955 18.032227825055376 8.548466485138151 0 0 0
1306 69 7 0.04 9.247634523605091 18.977829214655557 8.397517450307658 0 0 0
241 13 7 0.04 3.6279902290387773 17.772892810113426 9.375569609991478 0 0 0
242 13 7 0.04 4.167062050034041 19.09451711150414 8.336877625516149 0 0 0
1580 103 10 -0.28 6.136369692643339 21.855076353065922 8.496727947441379 1 0 0
1583 103 12 0.06 7.057603955667373 21.42796718088323 8.892908720049991 1 0 0
1585 103 12 0.06 6.37483979324208 22.68309030790292 7.829210952519389 1 0 0
1584 103 12 0.06 5.6017875978148925 21.074088198589227 7.956049098908196 1 0 0
1582 103 11 -0.8 4.965446128517886 21.626733417449802 10.590424717857747 1 0 0
1579 103 9 0.7 5.241777994909561 22.38438873084831 9.623128963889435 1 0 0
678 36 7 0.04 9.424020588104911 21.78399736281126 9.375906418981259 0 0 0
1156 61 7 0.04 6.451741758874232 24.865879071853232 8.346519713853725 0 0 0
1159 61 8 0.418 5.894592883929002 24.476574602484668 10.25463424228862 0 0 0
1155 61 6 -0.6830000000000001 6.523929691633505 25.175491803710454 10.34650570629152 0 0 0
1157 61 7 0.04 8.116446779524878 24.915772014969885 8.880039810625 0 0 0
2404 322 13 0.4238 8.18856392850503 24.075142705164676 5.533421066507394 1 0 1
2406 322 13 0.4238 9.245467400425289 25.093062259418712 6.175629144743251 1 0 1
671 36 4 0.18 9.688841628699677 21.755272154920192 10.432835336096312 0 0 0
679 36 7 0.04 8.946920724215023 22.49010805917185 10.74528314242163 0 0 0
1963 175 13 0.4238 10.736442911176844 25.12236285697693 8.357159645341472 0 0 0
1964 175 14 -0.8476 10.73192998362909 24.863620899555652 7.3912429598891105 0 0 0
1965 175 13 0.4238 10.926767858557751 23.888113006956488 7.289331606852904 0 0 0
2287 283 13 0.4238 4.851114084782718 21.203406064829068 5.492687719067278 1 0 0
1581 103 11 -0.8 4.718914195419146 23.529441007437025 9.522322047177237 1 0 0
2496 352 13 0.4238 3.9832639439008224 24.501612743056825 8.454991788489323 1 0 0
1597 105 12 0.06 9.188849707366082 21.208729229066645 6.269721811714941 0 0 1
2495 352 14 -0.8476 3.85570330681087 25.267571896035914 7.824915426222782 1 0 0
2494 352 13 0.4238 4.028872256660866 24.87397050650529 6.922113189695658 1 0 0
2378 313 14 -0.8476 4.748894957494548 24.14544673619302 5.552183796515307 0 0 1
2377 313 13 0.4238 5.248959968687714 23.298690490802908 5.733569555699766 0 0 1
2379 313 13 0.4238 4.064666829272829 23.809916822841352 4.904715912102706 0 0 1
2288 283 14 -0.8476 5.71340452019826 21.392190955259885 5.0228155602048234 1 0 0
2572 378 13 0.4238 10.107817454105822 25.42980481929936 10.624931264897944 0 0 0
2289 283 13 0.4238 5.571156857503392 20.99889752682949 4.114493734471019 1 0 0
1149 61 4 0.18 7.135024595454791 25.364233466261517 9.034139926853541 0 0 0
2405 322 14 -0.8476 8.28743043233312 24.998154145425488 5.9052232827093345 1 0 1
2617 393 13 0.4238 5.504564084348056 25.516234310801433 4.891389834160763 1 0 0
2721 427 13 0.4238 7.334514622733115 22.428657329930974 4.016549088184199 0 0 1
672 36 5 0.08 11.019936429118228 23.096873450893796 9.88301852749606 0 0 0
2667 409 13 0.4238 5.37785442019854 20.037999127852668 10.959582796628794 1 0 0
1525 95 11 -0.8 24.728294172665905 32.75093038010449 3.6774933099950395 0 0 0
1594 105 10 -0.28 10.187575400135508 21.122907156551054 5.841661565393208 0 0 1
1598 105 12 0.06 10.435846329577092 21.873731251290888 5.091542352778225 0 0 1
667 36 2 0.235 11.185664686265731 22.271747864695573 10.575662710610313 0 0 0
1599 105 12 0.06 10.198643626678564 20.136330773434278 5.378413726486821 0 0 1
1596 105 11 -0.8 11.513382328432645 22.330912778158176 7.3402378630057346 0 0 1
1593 105 9 0.7 11.154829005447557 21.224170381584756 6.970517878272345 0 0 1
1300 69 5 0.08 11.189297895957544 18.79449917403786 9.58394713115186 0 0 0
2366 309 14 -0.8476 13.153472438337793 18.562130320400268 6.123877545371306 0 0 0
690 37 4 0.18 14.14862803747985 20.940028674932222 3.4512416232158643 0 0 1
2200 254 13 0.4238 27.42889363147837 29.812881001567924 3.5019777298811916 0 0 0
1595 105 11 -0.8 11.419875831287554 20.15886071834386 7.547875660714171 0 0 1
2365 309 13 0.4238 12.6091822529168 19.19399576784568 6.675653841838798 0 0 0
669 36 3 0.35 12.020980492568523 20.43859716031145 10.465630448440525 0 0 0
681 36 7 0.04 14.665682144380641 20.473074558673183 8.820919754016177 0 0 0
674 36 4 0.18 14.483971404501292 20.63113130792165 9.883959426019306 0 0 0
698 37 7 0.04 13.84822275591965 21.473862773220823 4.352813498967194 0 0 1
670 36 3 0.35 11.828962731377755 21.14017552025128 9.05046972693593 0 0 0
532 28 8 0.418 15.89121359155518 18.61777817976557 10.139101762357054 0 0 0
2353 305 13 0.4238 15.053897896754735 18.804658325052394 6.893310988382033 0 0 0
2354 305 14 -0.8476 15.863690807373754 19.07296287598527 7.415048446197862 0 0 0
2355 305 13 0.4238 16.121935638191903 19.952545708205676 7.015542116293127 0 0 0
528 28 6 -0.6830000000000001 16.61913349450274 18.151913390837734 10.521322985927263 0 0 0
666 36 1 -0.48 12.088836878634273 21.33570368776919 10.006657793504756 0 0 0
668 36 2 0.235 13.472998166198186 21.762652766007584 10.04961423416691 0 0 0
1248 66 7 0.04 14.245850840627703 23.23955501319832 6.2412552344473164 0 0 0
1253 66 8 0.418 12.138633286056534 23.369719574247142 5.776557815978512 0 0 0
1247 66 6 -0.6830000000000001 12.650558273197609 23.913956494149232 5.197999663831392 0 0 0
1241 66 4 0.18 13.856125622939771 24.178120464607293 5.847220538205154 0 0 0
1242 66 5 0.08 13.162896174724377 24.77396079095542 7.788185684115392 0 0 0
675 36 5 0.08 13.624632734987827 22.406359553182632 9.183183301006181 0 0 0
1249 66 7 0.04 14.643638716374674 24.460336097684376 5.148484851732541 0 0 0
2402 321 14 -0.8476 17.410593441780705 21.278353219058346 6.316729477073717 0 0 0
2403 321 13 0.4238 17.313934287129733 21.87648908579009 5.521209046906433 0 0 0
2251 271 13 0.4238 16.727909895766004 22.119040577965734 7.649620179742717 0 0 0
2678 413 14 -0.8476 17.68178062616357 23.55539026569519 10.344210516353481 0 0 0
2252 271 14 -0.8476 16.384912844273053 22.937566912382295 8.110412693149453 0 0 0
2253 271 13 0.4238 16.43039780154787 23.673132621431613 7.43451429997474 0 0 0
1560 100 11 -0.8 16.77537742220911 23.405538777613668 4.530117555601788 0 0 0
1558 100 9 0.7 17.421224474414323 24.133559010222562 5.379198515204975 0 0 0
1561 100 11 -0.8 16.904415531428626 24.771964390822795 6.309357742435539 0 0 0
2679 413 13 0.4238 17.083792681519235 23.250748830967286 9.602882489139244 0 0 0
1237 66 2 0.235 13.69302956272052 25.228177080572706 6.951107169610225 0 0 0
680 36 6 -0.6830000000000001 13.902977518874884 19.462510530463415 10.497657408013305 0 0 0
1243 66 5 0.08 14.69097316053179 25.466681832322678 7.318908917410999 0 0 0
696 37 6 -0.6830000000000001 15.217013006750001 20.05189722614991 3.779143209518991 0 0 1
1193 63 6 -0.6830000000000001 6.436588253884921 28.563058157077872 3.4040635857376693 0 0 1
1211 64 7 0.04 18.148164806911183 18.811564875763082 5.067141261956333 0 0 0
335 18 6 -0.6830000000000001 20.26025908923481 10.65114898888056 17.978901837438777 0 0 0
155 9 2 0.235 16.118348413324114 32.581585464277104 3.3626428540071385 0 -1 1
162 9 5 0.08 16.479260178803372 4.005016583873942 3.464292041968147 0 0 1
2320 294 13 0.4238 11.936070440005796 13.85796087286515 17.923988752154752 0 0 0
1202 64 3 0.35 21.144844716695825 19.349789495666368 3.590683199510602 0 0 0
2005 189 13 0.4238 18.03184971899567 24.958425146915506 9.353537341284735 0 -1 0
1215 64 8 0.418 20.037070514612065 18.07963848148445 5.135135228002495 0 0 0
1206 64 4 0.18 22.552502021353213 21.53912339663515 4.062238999086155 0 0 0
2267 276 14 -0.8476 25.01717978726071 18.5105021643555 5.635174029846384 0 0 1
2268 276 13 0.4238 24.41109919780231 19.197815411599123 5.234887829311058 0 0 1
2401 321 13 0.4238 18.365966252440735 21.109620627965075 6.5591233812160095 0 0 0
1553 99 11 -0.8 19.97803291270766 20.417829621343877 6.5944855313227935 0 0 0
1203 64 4 0.18 18.65048356022713 18.696002019988445 4.106737623802022 0 0 0
1551 99 9 0.7 20.126151836742817 19.334931061348 7.165766757858902 0 0 0
1552 99 10 -0.28 19.715357501130416 19.3238675245946 8.597064665389262 0 0 0
1554 99 11 -0.8 20.652648628252553 18.353737840354363 6.605514904646213 0 0 0
1201 64 3 0.35 20.65764869535941 20.17435846340454 4.975089484709216 0 0 0
1556 99 12 0.06 18.699400589825203 19.712945638952203 8.664175185046716 0 0 0
1198 64 1 -0.48 20.648432431016104 20.145465150177618 3.9655642340295407 0 0 0
1557 99 12 0.06 19.642606126706557 18.308328597150748 8.986220074685836 0 0 0
1555 99 12 0.06 20.437859399167877 19.841835498899993 9.227742308130338 0 0 0
2061 207 13 0.4238 24.56510152250001 19.81512542368771 7.1100557818200905 0 0 0
2060 207 14 -0.8476 24.52406555984618 20.782643361457083 7.359428073261439 0 0 0
1562 100 12 0.06 19.455236314918707 24.90278491926666 5.9032800711747075 0 0 0
1559 100 10 -0.28 18.954942555371865 24.09988168206492 5.3618868348513455 0 0 0
541 29 4 0.18 20.886348552629606 22.74630181111619 9.090399827744509 0 0 0
549 29 7 0.04 20.331084878961434 21.815797148405757 8.972512557815271 0 0 0
548 29 7 0.04 20.435056467246955 23.479990002447327 8.422499290476043 0 0 0
547 29 6 -0.6830000000000001 20.866115156695688 23.322084717134928 10.342023242085691 0 0 0
542 29 5 0.08 22.416722163346872 22.408059401867842 7.53487284381408 0 0 0
535 29 2 0.235 22.28179187197659 22.64743395050677 8.58964660493369 0 0 0
543 29 5 0.08 22.732191502842802 21.836835303432544 9.162467721584294 0 0 0
533 29 1 -0.48 22.92008273206787 23.867042756374293 8.890484601869037 0 0 0
539 29 5 0.08 24.656413430588547 23.463057335849875 7.841399470531178 0 0 0
534 29 2 0.235 24.280880681043985 23.747764905989907 8.824237630109579 0 0 0
540 29 5 0.08 24.49633642340834 22.97036884220413 9.557237284099381 0 0 0
536 29 3 0.35 22.590172164384892 24.27777851905179 9.752178118258303 0 0 0
537 29 3 0.35 22.609664890112164 24.57109867019469 8.23626249903377 0 0 0
1563 100 12 0.06 19.1567067820301 23.210244156879526 5.95845234090239 0 0 0
2352 304 13 0.4238 22.59216695654207 24.957679449017572 5.356651989608365 0 0 0
1214 64 7 0.04 22.577905287986752 21.892231861145774 5.0931236319814275 0 0 0
2351 304 14 -0.8476 22.300921665276647 24.97738262083064 6.313077625359094 0 0 0
1564 100 12 0.06 19.396505729487306 23.998868670426422 4.370487630622061 0 0 0
1212 64 6 -0.6830000000000001 23.346812164270336 20.27994741425783 4.095688792475242 0 0 0
2007 189 13 0.4238 18.0717328767837 25.324199018294728 7.805633269235553 0 -1 0
2044 202 13 0.4238 22.2331700219406 25.868417134905116 3.6456778034421795 0 0 1
2002 188 13 0.4238 27.31087513187031 30.19365154801877 15.80243719184929 0 0 0
1506 92 12 0.06 26.704098424873077 19.946352866581297 8.509667314967025 0 0 0
2474 345 14 -0.8476 3.4525568614926545 20.850930069983146 6.098324965229465 0 0 0
2059 207 13 0.4238 25.232627682922725 21.275121566991615 6.854089176672601 0 0 0
538 29 4 0.18 24.8666992650687 25.148145486354316 9.227714423144533 0 0 0
546 29 7 0.04 25.9484124841283 25.1417469106395 9.361541318792948 0 0 0
1753 127 12 0.06 6.7028004165890085 8.72865138334151 17.413960255057916 0 0 0
2475 345 13 0.4238 32.597385554748755 20.670361673216075 6.970191944599051 -1 0 0
54 3 7 0.04 25.532181297929196 24.590151552655012 4.16604829969425 0 0 0
55 3 7 0.04 25.632956514684377 23.21048336918478 5.135382181588284 0 0 0
47 3 4 0.18 26.169628544009996 24.13540157345193 4.92428142696993 0 0 0
190 10 8 0.418 27.01505970315581 20.786653943225613 4.680821434183591 0 0 1
1502 92 9 0.7 27.801401186239453 20.52696360881155 6.707331383969114 0 0 0
1505 92 11 -0.8 28.796483867346115 20.34019204006147 5.993504170440316 0 0 0
1508 92 12 0.06 28.41259292150428 19.4298979974223 8.43715116053631 0 0 0
1503 92 10 -0.28 27.488870350129854 19.54305845304916 7.869713600257846 0 0 0
1507 92 12 0.06 27.20416302879851 18.651045554496612 7.31176309262966 0 0 0
2264 275 14 -0.8476 30.87802479617181 19.868502570252733 7.713717858786498 0 0 1
2263 275 13 0.4238 30.724065342175642 19.039467796471854 8.251267547251622 0 0 1
2265 275 13 0.4238 30.04703341051751 19.864886058596696 7.157478099828245 0 0 1
2240 267 14 -0.8476 30.993299834157956 19.991465030142717 4.468952213425329 0 0 0
2239 267 13 0.4238 30.085941364380332 20.22227964188392 4.820218763776934 0 0 0
2473 345 13 0.4238 32.407397816943345 20.6176471413729 5.3708102248116765 -1 0 0
1504 92 11 -0.8 26.948978757431952 21.42902149211384 6.492049290430609 0 0 0
49 3 5 0.08 27.868356700165016 23.14270243385767 3.8622455386265857 0 0 0
2299 287 13 0.4238 27.239743977614097 22.035322866319817 8.788438587087093 0 0 0
41 3 2 0.235 27.66519668639724 23.97429906210572 4.536950724822935 0 0 0
48 3 5 0.08 28.137323286018688 24.879065134091963 4.154133748241716 0 0 0
42 3 3 0.35 28.16798521472337 22.781354423324526 6.066565444464036 0 0 0
2301 287 13 0.4238 28.372537731774084 23.229098093167618 8.652366628350416 0 0 0
2300 287 14 -0.8476 27.616404788978645 22.866599332102435 9.197177632575205 0 0 0
805 43 5 0.08 31.260301580726612 22.152931281756242 9.537393206001628 0 0 0
43 3 3 0.35 28.14710956999024 24.426411480081654 6.344047061015484 0 0 0
39 3 1 -0.48 28.448608823412574 23.688858791136898 5.723422493659138 0 0 0
50 3 6 -0.6830000000000001 30.004666873820835 23.962771138673766 7.857937998303308 0 0 0
52 3 7 0.04 30.914328602455946 22.485321891720105 6.701632621363438 0 0 0
46 3 5 0.08 30.1629184944212 23.255863451644146 4.6236841245929075 0 0 0
40 3 2 0.235 29.899208760527223 23.885022692002966 5.473784028746273 0 0 0
45 3 5 0.08 30.05091052316196 24.933830744774387 5.218750173110303 0 0 0
44 3 4 0.18 30.740439073485483 23.561340637244054 6.7012756273496645 0 0 0
51 3 7 0.04 31.68227064685285 24.100065504037854 6.597434867952404 0 0 0
808 43 5 0.08 31.328748313826395 24.61018831109913 9.99213535478166 0 0 0
56 3 8 0.418 29.628884092625896 24.813389655630658 7.689932389522987 0 0 0
186 10 6 -0.6830000000000001 26.809383113816477 20.969824971200453 3.7768657028679757 0 0 1
53 3 6 -0.6830000000000001 26.085199759105528 24.979462583806804 6.057011163286509 0 0 0
806 43 5 0.08 30.03131548309033 22.226027011877854 10.753367834317123 0 0 0
811 43 7 0.04 31.589473353625205 19.90715671974075 10.229058995896402 0 0 0
800 43 2 0.235 31.091069093143016 22.018252591166185 10.605698455509728 0 0 0
801 43 2 0.235 31.37307543699071 24.394603173849934 11.059661617621307 0 0 0
809 43 5 0.08 30.328810228295644 24.55261770770789 11.32909737163273 0 0 0
209 11 8 0.418 5.708323190123483 12.972014210601465 17.997945104751345 0 0 0
2619 393 13 0.4238 6.994283082837136 25.7487479334192 4.926959355732612 1 0 0
2573 378 14 -0.8476 10.7731626834916 25.704627402608885 9.930848472818191 0 0 0
2618 393 14 -0.8476 6.177061994009097 26.15580005781124 4.519011662844242 1 0 0
1907 156 14 -0.8476 9.66366344309925 32.21987914878297 8.943571297864953 0 0 0
2535 365 13 0.4238 29.87242114008994 26.965259447911702 11.245723843013531 0 0 0
2434 332 13 0.4238 8.986035826449735 29.62026879245375 8.115878483411347 0 0 1
1143 61 2 0.235 6.960436784192591 26.79713451877462 8.479425102599855 0 0 0
2574 378 13 0.4238 10.714803165850299 26.689397524320864 10.094510880615346 0 0 0
1150 61 5 0.08 7.287306689279672 26.784648372661795 7.439687533600929 0 0 0
1145 61 3 0.35 4.905239933110765 26.440462925255478 8.431848932865403 0 0 0
1151 61 5 0.08 7.676501011274436 27.48458234036758 8.92967144196081 0 0 0
1144 61 3 0.35 5.417117613012845 27.254223617427698 9.664196783267066 0 0 0
1141 61 1 -0.48 5.533426018634597 27.19690803566564 8.662574158123219 0 0 0
1147 61 5 0.08 5.477434989361884 28.381894887399323 6.9747740562803475 0 0 0
1142 61 2 0.235 5.303176648549373 28.483108555422728 8.045962170128101 0 0 0
1148 61 5 0.08 6.073777973007914 29.149409949456345 8.433609074870285 0 0 0
2435 332 14 -0.8476 8.712341772355835 29.31610301603205 7.203443893059038 0 0 1
1906 156 13 0.4238 9.14139908168412 31.49804183283855 9.397613124037335 0 0 0
2398 320 13 0.4238 10.099574282078663 29.050505692644936 9.792067531543399 0 0 0
2436 332 13 0.4238 8.679074396376253 30.044297760998838 6.518909706627645 0 0 1
32 2 7 0.04 9.376265068524225 27.16782989264034 3.8281657076443945 0 0 1
1575 102 11 -0.8 8.636142570233009 29.97386269440435 9.836986293659102 0 0 0
2358 306 13 0.4238 8.589785443655302 32.844705855845184 5.169926299447127 0 -1 0
2357 306 14 -0.8476 8.898413114356 31.90135648521052 5.291597547108045 0 -1 0
2356 306 13 0.4238 9.374463583643276 32.050509461801056 6.158252512175465 0 -1 0
2374 312 13 0.4238 8.61106299461664 30.870923457606196 3.882886605854513 0 0 0
2399 320 14 -0.8476 10.87191562945956 28.42332030025788 9.89251641569664 0 0 0
1908 156 13 0.4238 10.59885175845689 31.90155119416255 9.098661277290553 0 0 0
2400 320 13 0.4238 11.328473186462858 28.66103274703232 10.749844651797893 0 0 0
1611 107 12 0.06 3.3642873200799843 27.527216313259952 4.544489012849768 1 0 0
2003 188 14 -0.8476 26.369866674658482 30.13776381511096 16.136118771815408 0 0 0
1572 102 9 0.7 7.986261233628055 30.149226220472958 10.899249248591445 0 0 0
1577 102 12 0.06 6.809835424202663 31.901598782377054 11.164611627542678 0 0 0
1676 116 12 0.06 29.044579607817088 32.39175331054187 15.674688089911278 0 0 0
599 32 5 0.08 15.258544307593603 3.7879446552805103 10.361587882883171 0 0 0
85 5 4 0.18 26.614699554106462 19.833182041584415 17.761594694119715 0 0 0
2527 363 13 0.4238 12.318222874900448 25.10725433454184 10.070273484014027 0 0 0
1518 94 11 -0.8 18.9576454839838 24.21338873618997 17.27054086062889 0 0 0
290 16 3 0.35 29.81906781835458 27.833712907030577 13.608892183462483 0 0 0
924 49 6 -0.6830000000000001 3.304447152199308 28.489074101270838 17.912935381291035 0 0 0
1251 66 7 0.04 10.950922516405885 27.89832513702798 7.124653111259136 0 0 0
1240 66 3 0.35 12.089363774676702 26.09794801496081 6.019836058444248 0 0 0
2242 268 13 0.4238 14.907257173153388 32.80667153925627 6.969917232947134 0 0 1
1380 74 12 0.06 12.424704645740684 3.7457794352506277 5.8428024815522965 0 1 0
1382 74 12 0.06 11.372399872161996 32.17081037265177 6.525636990714293 0 0 0
1876 146 13 0.4238 17.381448779452114 28.263936425640292 9.3245146911017 0 0 0
1236 66 1 -0.48 12.985196651661774 26.38434500740219 6.387967471903025 0 0 0
1239 66 3 0.35 13.554843370968035 26.679033539328927 5.607760839042453 0 0 0
2256 272 13 0.4238 16.406410378599794 26.435929552946046 6.047879427679721 0 0 1
1877 146 14 -0.8476 16.475681859721675 28.446655993745388 9.706824982413591 0 0 0
2255 272 14 -0.8476 16.1158599713637 27.39270519630161 6.036825025666214 0 0 1
2254 272 13 0.4238 15.548533564572221 27.370686537869652 5.213649888395226 0 0 1
1245 66 5 0.08 12.666300500136014 27.125809380454044 8.35991981167708 0 0 0
1254 66 8 0.418 12.722567527706586 29.043999876394206 5.13278747896856 0 0 0
1246 66 5 0.08 13.935067536313596 27.97339247797899 7.348412984470801 0 0 0
1238 66 2 0.235 12.961408360385445 27.4841058347159 7.373720521195339 0 0 0
1250 66 6 -0.6830000000000001 11.89448818430273 28.675432604515734 5.40005743619105 0 0 0
1377 74 10 -0.28 12.144717519256155 32.29515955777793 5.766613333916018 0 0 0
1244 66 4 0.18 11.855207287973911 28.4368794638963 6.841311272449065 0 0 0
1252 66 7 0.04 11.776888060579257 29.374298881465503 7.391915437610474 0 0 0
1995 185 13 0.4238 13.430031832729442 30.092806305877307 3.5436439039544876 0 0 1
1376 74 9 0.7 13.278058449399548 31.36163309511267 6.179925345301879 0 0 0
1379 74 11 -0.8 13.886082503720331 30.589811337410772 5.373973536192047 0 0 0
2086 216 13 0.4238 12.911848339811034 31.29892357503671 8.497904724481668 0 0 0
1378 74 11 -0.8 13.859590019847785 31.588923268649307 7.245413717758086 0 0 0
2087 216 14 -0.8476 12.26544711538581 31.49095464133784 9.236317588837924 0 0 0
1805 135 11 -0.8 14.413402221520439 27.158557644383592 4.151298797443912 0 0 1
1878 146 13 0.4238 16.232316605298823 29.33049307364493 9.307365023890913 0 0 0
2110 224 13 0.4238 14.961893510955909 30.70064063355881 8.468950036745525 0 0 0
2454 338 13 0.4238 15.595717519729211 30.329610172150577 5.688875948347848 0 0 1
2452 338 13 0.4238 16.339637590202386 29.095914736354075 5.889767801242667 0 0 1
2111 224 14 -0.8476 15.398640058834065 30.704102151933455 9.368506482928222 0 0 0
2453 338 14 -0.8476 16.557364817252758 30.05744060378519 5.722358778093026 0 0 1
163 9 5 0.08 15.75462999439833 32.24064953708599 4.331934233981934 0 -1 1
2340 300 13 0.4238 17.319523589589764 31.890910823559768 9.410632446490016 0 0 0
2692 418 13 0.4238 14.967323334358552 27.66011618484601 10.052120643457517 0 0 0
2339 300 14 -0.8476 17.793704511319138 32.73990312213668 9.177553085137848 0 0 0
2338 300 13 0.4238 17.787240392161078 32.644241213531984 8.182179329435566 0 0 0
1208 64 5 0.08 20.554244093932457 22.3173024277847 3.856753049478781 0 0 0
292 16 5 0.08 32.11134457198379 27.454744618932626 14.139214494650234 0 0 0
2534 365 14 -0.8476 29.451665230705665 26.883724321362884 12.14920503280205 0 0 0
909 48 7 0.04 22.63893183008512 32.289643250172354 8.291212170485277 0 -1 0
544 29 6 -0.6830000000000001 24.31793605240671 25.571512461933864 10.491432952978922 0 0 0
903 48 5 0.08 23.939655265501013 3.5069680153276357 10.104634951076495 0 0 0
2006 189 14 -0.8476 18.45096586306869 25.58250949233562 8.694126572443704 0 -1 0
1567 101 11 -0.8 21.32727932808651 27.31396997155897 3.991230518782548 0 0 0
2324 295 14 -0.8476 20.946701818722666 31.577884168627655 6.143322758997062 0 0 0
1523 95 9 0.7 23.52776757980174 32.54835000685415 4.0274062822544625 0 0 0
1972 178 13 0.4238 17.423206261685408 31.415287713695182 6.337697158286538 0 0 1
1526 95 11 -0.8 23.210516314114955 32.23394139473653 5.162735374230642 0 0 0
898 48 3 0.35 24.78548857161589 3.39974979745929 7.677963322377224 0 0 0
1973 178 14 -0.8476 17.84417069030726 32.300287392427116 6.536508334643592 0 0 1
1565 101 9 0.7 20.64077977780409 27.40880922301156 5.004638123719079 0 0 0
1566 101 10 -0.28 19.13232070673579 27.650861128199644 4.843052814057164 0 0 0
2350 304 13 0.4238 22.000307724048536 25.920524761038532 6.454768645855177 0 0 0
2507 356 14 -0.8476 21.057269064398827 26.524531633188882 8.739682144495303 0 0 0
2508 356 13 0.4238 21.140994647928043 26.824331285569205 7.7893808387034795 0 0 0
2506 356 13 0.4238 20.162447459266748 26.087009525035064 8.828179679176046 0 0 0
1568 101 11 -0.8 21.20087927510581 27.386400622701366 6.137701290914018 0 0 0
1974 178 13 0.4238 18.775388038235022 32.21416217065417 6.182420740496284 0 0 1
2215 259 13 0.4238 21.491213170407935 29.14909750028252 8.494202869656357 0 0 1
1920 160 13 0.4238 22.381863656494936 27.444294894705028 9.626685626165614 0 0 0
2217 259 13 0.4238 21.51274683284473 28.611752976833724 7.002942012098128 0 0 1
2216 259 14 -0.8476 21.796502088577764 29.383969557279464 7.571383735389029 0 0 1
1280 68 5 0.08 23.18516091037 29.86439786685443 4.820907458860752 0 0 0
1283 68 5 0.08 24.926484221854082 27.75632778744153 7.252466493888157 0 0 0
1277 68 3 0.35 24.840190662145694 30.46821584659489 6.423056463559869 0 0 0
1274 68 1 -0.48 24.325188119972626 29.602377789904477 6.494871889504585 0 0 0
1278 68 3 0.35 23.598495956431382 29.55278571028033 7.1945288576432604 0 0 0
1288 68 6 -0.6830000000000001 24.58255500211619 30.080234160429818 9.064063748457432 0 0 0
1292 68 8 0.418 24.00460372138957 29.43868789921419 9.447966315054366 0 0 0
1275 68 2 0.235 23.947463771350062 29.150763772484687 5.13343706734322 0 0 0
1281 68 5 0.08 23.51656708421995 28.14958200673516 5.137575658435883 0 0 0
1571 101 12 0.06 18.55514024010013 26.89488808304306 5.375426467473855 0 0 0
1570 101 12 0.06 18.786943605094542 27.735024687547533 3.812671727271649 0 0 0
1919 160 14 -0.8476 22.910675025242984 28.200388320112864 10.012229117139414 0 0 0
1569 101 12 0.06 19.00063202514412 28.57090696331678 5.412462862706841 0 0 0
1279 68 4 0.18 25.09173187561861 29.2137182371218 4.216812227906695 0 0 0
2325 295 13 0.4238 21.785600342523157 31.843499287666617 5.668283469621329 0 0 0
2323 295 13 0.4238 21.173267472958404 30.782827476281213 6.705919158017515 0 0 0
1423 80 12 0.06 19.483956164030687 28.835724001495773 9.8936453688599 0 0 0
2004 188 13 0.4238 26.048477162099875 31.08294544251336 16.0786348590378 0 0 0
206 11 7 0.04 5.618921606146374 15.842111118843723 17.67303409664445 0 0 0
1422 80 12 0.06 20.787473088824008 30.038736953902816 9.855332799475988 0 0 0
1419 80 10 -0.28 19.97686388255454 29.627908354216345 10.45715226924753 0 0 0
895 48 2 0.235 26.199504305509084 3.8354972184931895 8.991986509654229 0 0 0
57 3 8 0.418 26.421058119544703 25.833708930863622 5.832394065558589 0 0 0
1146 61 4 0.18 3.8697594513939486 29.05256654223907 8.346465003664449 0 0 0
545 29 7 0.04 24.684191263114116 25.839552796709484 8.405096151954655 0 0 0
1276 68 2 0.235 25.267041296627216 28.787604185730796 7.160032965902339 0 0 0
1282 68 4 0.18 25.667290686735907 29.35318371803143 8.535489323199222 0 0 0
1287 68 7 0.04 25.78863916472009 28.376903943758524 4.262813367962391 0 0 0
899 48 4 0.18 27.21183516731611 3.6215853914576788 7.860164337129188 0 0 0
1612 107 12 0.06 31.264044743095432 27.513345810268305 5.072555950497151 0 0 0
1158 61 8 0.418 3.5461162962951107 28.299828565596627 10.186398689216894 0 0 0
900 48 5 0.08 26.153720748733996 32.54055666473219 9.612464554652906 0 -1 0
906 48 7 0.04 28.080704772539654 32.8300848920633 8.389150864617095 0 -1 0
1154 61 7 0.04 3.9489850939934747 29.99930893543364 8.880746033411256 0 0 0
1152 61 6 -0.6830000000000001 32.82620531530236 28.176681399703554 9.305793359120205 -1 0 0
1289 68 7 0.04 25.96467401624403 28.532683610814708 9.188479936872547 0 0 0
1284 68 5 0.08 26.179412808272808 28.70987569732231 6.56877113110369 0 0 0
1153 61 7 0.04 3.2927375394571 29.129788457016488 7.424978973635266 0 0 0
1291 68 8 0.418 25.265566347025825 31.0784105192144 4.282658253656936 0 0 0
1290 68 7 0.04 26.5751589742936 29.945065479478938 8.419277557346437 0 0 0
905 48 6 -0.6830000000000001 26.676874127856795 32.34388154300461 6.841737474320348 0 -1 0
911 48 8 0.418 26.870341724283268 32.65553617221626 5.970857380785244 0 -1 0
1608 107 10 -0.28 32.06226112892776 26.920771417517184 4.625610521483926 0 0 0
1285 68 6 -0.6830000000000001 25.868687245834167 30.367172490155006 4.435550689834452 0 0 0
2540 367 14 -0.8476 29.77152026025354 30.013733662721922 9.26883174987997 -1 0 0
1497 91 11 -0.8 28.7334770201715 26.230506340637127 7.296428835575172 0 0 0
1902 154 13 0.4238 29.67260899410086 26.581200461042382 8.678291969476778 -1 0 0
1901 154 14 -0.8476 30.389273080499073 26.855463916856927 9.31948985122707 -1 0 0
1498 91 11 -0.8 27.574304099421592 26.910646283411378 5.567358965903912 0 0 0
1495 91 9 0.7 28.355627110335572 27.111798252347878 6.496199681088658 0 0 0
2541 367 13 0.4238 30.45706310094335 30.673505820368447 8.96110798305855 -1 0 0
1900 154 13 0.4238 31.227599341406144 26.946161288787497 8.781954261396706 -1 0 0
1500 91 12 0.06 30.15851493944855 28.286355858911588 6.80341728789351 0 0 0
1499 91 12 0.06 28.773849693319143 29.15224674367423 7.281377517188462 0 0 0
1496 91 10 -0.28 29.118344336716234 28.450333118406288 6.521973334546999 0 0 0
1501 91 12 0.06 29.039115210042684 28.758479928127635 5.479465627031512 0 0 0
1613 107 12 0.06 32.33366125059253 26.168145014579395 5.365846661773714 0 0 0
2218 260 13 0.4238 31.937831526250633 32.87453061850299 8.534150794843002 0 0 0
2196 252 13 0.4238 28.712937370695737 31.75712318064781 12.124280610659488 0 0 0
2219 260 14 -0.8476 31.560259095384623 31.952507898790895 8.448859995647116 0 0 0
2154 238 13 0.4238 27.29146713605424 4.842050677633619 4.756549659845486 0 1 0
1957 173 13 0.4238 28.28442628386091 26.948307467378665 3.9634556860326686 0 0 0
2130 230 13 0.4238 28.159785085123183 29.536374812201103 10.425580587447051 0 0 0
2229 263 13 0.4238 8.161204960934375 8.260087538074234 10.18521169013509 0 1 0
2699 420 14 -0.8476 8.731078042823999 9.652787875001685 11.355981110378403 0 0 0
1327 70 7 0.04 9.582356324928208 8.11209780007356 14.748002492114937 0 0 0
2698 420 13 0.4238 8.212416980733689 9.536095870773831 12.202937786906285 0 0 0
2700 420 13 0.4238 9.571760507440686 9.788653651433577 11.880152125585838 0 0 0
1328 70 7 0.04 10.915999791024092 8.382904641009151 13.66756849736695 0 0 0
1321 70 5 0.08 10.476547156006731 9.927890666098397 16.035916888963555 0 0 0
2063 208 14 -0.8476 7.827171272975874 9.999204209803924 14.05192735399152 0 0 0
1320 70 4 0.18 10.644701311513185 8.354678449992523 14.722866825235469 0 0 0
1748 127 10 -0.28 7.096122115190266 9.639720232498128 17.864854551539953 0 0 0
2537 366 14 -0.8476 5.18312429901258 10.360078513691391 13.646149452645433 0 0 0
2062 208 13 0.4238 6.8555226077676235 9.817669819762457 13.900578542406386 0 0 0
1314 70 2 0.235 11.032331800509045 9.81574868548062 15.105013202952309 0 0 0
293 16 5 0.08 31.928044514192287 28.60773925060998 15.471015815981064 0 0 0
1515 93 12 0.06 12.176113744078476 4.902056962501985 17.42417336613128 0 1 0
602 32 7 0.04 10.098750052145112 4.765362576189771 11.824812710674228 0 0 0
1389 75 12 0.06 11.031090475155871 8.561081898068 10.6944853196513 0 0 0
1514 93 12 0.06 11.862117748377358 32.79058624564054 17.283353239731852 0 0 0
603 32 7 0.04 11.233246216797426 5.820692556129945 12.590955049345917 0 0 0
2160 240 13 0.4238 17.163480882968646 5.863326478626609 17.110163682621085 0 0 0
1509 93 9 0.7 13.886259224350674 3.72013059608114 17.218109069771867 0 1 0
1388 75 12 0.06 12.71240461552874 8.113699049541408 10.833592069268361 0 0 0
597 32 5 0.08 12.15748099824475 5.99888168314526 10.70613308202628 0 0 0
591 32 2 0.235 12.0781036908232 4.918699989384951 10.828447412923449 0 0 0
1387 75 12 0.06 12.374965986410354 9.580680768742818 10.005936878517346 0 0 0
604 32 6 -0.6830000000000001 15.021190950928387 6.287524686577541 11.32128312647396 0 0 0
608 32 8 0.418 15.907549254858825 6.010638897154845 11.496479174169913 0 0 0
590 32 1 -0.48 13.363464181079852 4.217944830951441 11.140483696103109 0 0 0
1268 67 7 0.04 14.663989872531271 7.448843501273307 16.602378706862055 0 0 0
1330 70 8 0.418 11.166921352567396 7.422676237261269 16.285432647858492 0 0 0
1326 70 6 -0.6830000000000001 11.431242538421904 7.326427304831385 15.383290243733427 0 0 0
595 32 4 0.18 11.14523722814605 4.841692644927232 12.119926796209358 0 0 0
1261 67 5 0.08 14.55095834484307 6.634908362930252 13.680220796509046 0 0 0
1267 67 7 0.04 13.832095981805429 6.084300216284188 15.859991995318836 0 0 0
1384 75 10 -0.28 12.032829044636381 8.965877378028402 10.83841098759748 0 0 0
1260 67 4 0.18 14.711701985257218 6.724139780304714 15.789616668697997 0 0 0
1256 67 2 0.235 14.785323747661577 7.416112197891337 14.403302799554842 0 0 0
1262 67 5 0.08 14.062632515760487 8.229720216684601 14.341549554102468 0 0 0
593 32 3 0.35 13.713168414200176 4.615047361918094 12.000761046557068 0 0 0
1266 67 6 -0.6830000000000001 15.857147279162009 5.855736868910044 15.797991412525866 0 0 0
1259 67 3 0.35 16.570879787483122 6.956318533685858 13.686899613347467 0 0 0
1255 67 1 -0.48 16.134334488822184 7.780485040236831 14.07450549358706 0 0 0
1258 67 3 0.35 16.669335777386983 8.101136015706679 14.868871359862593 0 0 0
1272 67 8 0.418 15.474519949410878 5.002823288104499 15.6596970340928 0 0 0
1383 75 9 0.7 12.181299909583961 9.94625990399309 11.970664309315023 0 0 0
1264 67 5 0.08 15.32901349171837 8.735528943925413 12.377271200753013 0 0 0
1257 67 2 0.235 16.085054368050162 8.909485741824064 13.142905101147667 0 0 0
1316 70 3 0.35 12.874606498974934 9.409344319810302 15.920713761153305 0 0 0
1386 75 11 -0.8 13.235016638982245 9.951004530342663 12.629523745418728 0 0 0
1967 176 14 -0.8476 14.201077621834244 4.046138344502262 13.755598696029352 0 1 0
1966 176 13 0.4238 14.33744200356904 3.701424858767151 14.684328374277626 0 1 0
1265 67 5 0.08 15.888445685319644 9.841252281901863 13.673197624434918 0 0 0
1263 67 4 0.18 17.405560173599724 9.152380831303379 12.442789683526142 0 0 0
1315 70 3 0.35 12.912970032730723 10.106983580600847 14.458350772367794 0 0 0
1312 70 1 -0.48 12.449549576869037 10.130346997285235 15.355433046777563 0 0 0
2545 369 13 0.4238 16.655539907445796 4.205289028330196 12.774224585572458 0 1 0
1270 67 7 0.04 17.256067418824923 9.336244170499088 11.378881696899635 0 0 0
1511 93 11 -0.8 14.710261185131948 3.5551308604198364 16.297544862041846 0 1 0
2546 369 14 -0.8476 17.048249783605996 5.12107707932287 12.85832678298275 0 1 0
1968 176 13 0.4238 14.804352293084422 3.4489528791065003 13.227024635931063 0 1 0
1385 75 11 -0.8 11.2586009250066 10.710826528841363 12.228244117657571 0 0 0
1510 93 10 -0.28 12.422077356198661 4.0145562233142 16.84116532448521 0 1 0
1197 63 8 0.418 6.271639143021054 27.74457458336161 3.84663210027568 0 0 1
607 32 8 0.418 12.340772523531943 3.880181051596552 13.219326349543003 0 0 0
1271 67 7 0.04 18.006144678987567 9.949121335391538 12.88160268930535 0 0 0
1269 67 6 -0.6830000000000001 18.18078155514942 7.993110948535148 12.543550907310975 0 0 0
451 24 7 0.04 28.49250906509846 31.287508863876734 18.061934877584868 0 0 0
502 27 5 0.08 16.025798968852786 17.37783916592553 17.982408428544296 0 0 0
2261 274 14 -0.8476 20.392943035356566 9.024628349435563 11.002443584334916 0 0 0
2045 202 14 -0.8476 22.911810456364158 25.134480481610513 3.6183296985637865 0 0 1
1513 93 12 0.06 12.088832846656539 4.203292533703826 15.820684690737421 0 1 0
1939 167 13 0.4238 19.638809191621466 5.590177247992145 15.449186217829858 0 0 0
2134 232 13 0.4238 17.80380677963132 9.285824894993228 17.273763891439113 0 0 0
2547 369 13 0.4238 17.75392587852661 5.238669096565038 13.55700889179402 0 1 0
2640 400 13 0.4238 17.98275541417295 5.634650709578222 11.256363045377487 0 1 1
2135 232 14 -0.8476 17.66688128105264 8.710101501562875 16.467689159311483 0 0 0
2457 339 13 0.4238 21.39943098252522 5.772950945832735 10.952279912361647 0 0 0
2382 314 13 0.4238 21.047713302131275 6.265370819840462 17.24590542880337 0 0 0
1941 167 13 0.4238 19.474857150455332 4.167483415198478 14.736061531271144 0 0 0
1940 167 14 -0.8476 19.288321580950253 5.143717307385355 14.625903605108476 0 0 0
2381 314 14 -0.8476 20.248734864263252 6.5113113554948185 16.697171797046067 0 0 0
1273 67 8 0.418 19.03299100226826 8.173965966281386 12.17746210586665 0 0 0
2136 232 13 0.4238 17.76788881014677 7.790134950847144 16.846399422195123 0 0 0
738 39 7 0.04 20.94762553833947 6.716018785411004 13.161951117376313 0 0 0
739 39 7 0.04 20.61416763772269 8.02006209195913 14.280834644192407 0 0 0
741 39 8 0.418 21.641895415239258 8.639375433631741 12.272851987929917 0 0 0
731 39 4 0.18 21.418634799542556 7.469122157254415 13.793646938240812 0 0 0
732 39 5 0.08 22.006307248834506 5.883794240351927 15.219218822796648 0 0 0
737 39 6 -0.6830000000000001 22.144688385842006 8.40840800672285 13.038909272575111 0 0 0
725 39 2 0.235 22.424515197539435 6.766592396575806 14.735665782177156 0 0 0
733 39 5 0.08 22.67570691822799 7.5252888649117855 15.476838126721095 0 0 0
726 39 3 0.35 23.982171197119303 7.167103319343733 13.531083345717194 0 0 0
727 39 3 0.35 23.27788832472305 5.766767970227828 13.299787279891456 0 0 0
723 39 1 -0.48 23.57950215744356 6.389998111803493 14.035092979016767 0 0 0
724 39 2 0.235 24.51140869637594 5.678841901919833 14.946387895409945 0 0 0
729 39 5 0.08 24.05419124275468 4.735087841094792 15.24359917896874 0 0 0
730 39 5 0.08 24.630639049906893 6.172234659072593 15.910961237436805 0 0 0
1483 89 11 -0.8 22.555057636765074 4.916561091371743 11.960563665220413 0 1 0
1481 89 9 0.7 21.907771973409464 3.8959767394249485 12.370164730599127 0 1 0
2295 285 13 0.4238 20.802448167573505 32.20582769096144 14.241627831807138 0 -1 0
1484 89 11 -0.8 22.27227661978253 3.324869880158457 13.410879660582252 0 1 0
2294 285 14 -0.8476 19.963252431701484 32.17833679943358 14.784727493173639 0 -1 0
2380 314 13 0.4238 19.400141201305782 6.421877235766824 17.218567745573708 0 0 0
1656 114 9 0.7 25.03157752240576 3.3439294902548755 17.2885441286264 0 0 0
1800 134 12 0.06 24.871259241740553 11.274912302721189 12.866650653293394 0 0 0
2349 303 13 0.4238 24.443089691728538 27.57272627603052 11.255521977649572 0 0 0
2121 227 13 0.4238 12.503465438275937 22.69439394909859 17.782758095958982 0 0 0
1659 114 11 -0.8 23.94190077780755 32.879957596417064 17.80626026048754 0 -1 0
1485 89 12 0.06 20.318698931053753 32.11245162636686 11.971129337944639 0 0 0
1482 89 10 -0.28 20.742210245163655 3.4396177405740316 11.585114702767996 0 1 0
2533 365 13 0.4238 28.58146814267379 27.375815394669285 12.17297096800114 0 0 0
770 41 5 0.08 20.935687190015518 22.11279844487532 17.567630428894986 0 0 0
337 18 7 0.04 21.412642973595627 9.13446054512185 17.343468064679556 0 0 0
1473 87 12 0.06 24.76756307090031 9.111100020828918 16.403942603147097 0 0 0
740 39 8 0.418 25.445631173589955 4.718055580225682 12.607294897656052 0 0 0
1471 87 12 0.06 26.3432149928215 9.629466853523471 17.07244999376025 0 0 0
2195 252 14 -0.8476 28.59596174069011 32.4457341458814 11.408673771844521 0 0 0
734 39 6 -0.6830000000000001 25.841511135550054 5.544056758011432 12.839656214233116 0 0 0
569 30 8 0.418 28.964107553298913 8.682258807035868 11.256225114348219 -1 0 0
563 30 6 -0.6830000000000001 29.561220972744604 9.391868010559612 11.074839396051646 -1 0 0
565 30 7 0.04 31.484829751283932 8.657058005360238 11.259139394692355 -1 0 0
728 39 4 0.18 25.92977770790142 5.659320861692601 14.304954951522772 0 0 0
557 30 4 0.18 30.786460390824196 9.275478374115124 11.822957231674103 -1 0 0
2558 373 14 -0.8476 27.83151801553877 7.203018664947672 11.579661022456033 0 1 0
735 39 7 0.04 26.441691231328935 4.767535580739687 14.666503844181705 0 0 0
2557 373 13 0.4238 27.403865048796664 6.6028654540855864 12.255597794013012 0 1 0
564 30 7 0.04 30.428157747703775 8.627345263019256 12.622705157398137 -1 0 0
736 39 7 0.04 26.59018685000069 6.501382292152921 14.51194851045204 0 0 0
1657 114 10 -0.28 26.062007768390618 4.263133466684043 17.86618807479641 0 0 0
1662 114 12 0.06 27.067896544921513 3.965881020671775 17.569737749598247 0 0 0
1468 87 10 -0.28 25.63805067825258 8.803137388309512 16.983135470153435 0 0 0
2194 252 13 0.4238 28.963494088092848 32.048165159696474 10.567947761217592 0 0 0
553 30 2 0.235 31.3021815626573 10.689588911689567 12.13057080845475 -1 0 0
559 30 5 0.08 32.31963243756528 10.705626145208242 12.521199239086352 -1 0 0
1472 87 12 0.06 26.116908345342384 7.951457162507148 16.50003073072947 0 0 0
937 50 4 0.18 7.671332019831412 14.062267582000704 10.834519033944007 0 0 0
949 50 8 0.418 9.524843685815572 14.242440195484377 11.102157175246429 0 0 0
173 10 2 0.235 26.541993144619813 16.860507531813127 3.33064542862515 0 0 1
2064 208 13 0.4238 7.901707106765526 10.425694929233607 14.953322457740814 0 0 0
1322 70 5 0.08 10.440675467670545 10.440591732887693 14.436007942792257 0 0 0
1747 127 9 0.7 6.7603316050408875 10.911033105099442 17.087310114544458 0 0 0
1881 147 13 0.4238 32.701685321521396 18.760494671054154 12.683487632374334 0 0 0
943 50 6 -0.6830000000000001 8.799405891627478 14.846098461753929 11.150397744793224 0 0 0
945 50 7 0.04 6.663285808332512 14.349848410014472 11.13317294000591 0 0 0
2536 366 13 0.4238 4.725936819238535 10.615064993987508 14.498160591001607 0 0 0
1750 127 11 -0.8 7.578827927408905 11.320371021920433 16.288095274753093 0 0 0
2515 359 13 0.4238 3.891102327848725 16.09394300600067 12.522626544051823 0 0 0
2516 359 14 -0.8476 4.764921879437247 15.610961023377945 12.466683339949592 0 0 0
2538 366 13 0.4238 5.341585357635143 11.226090299702463 13.17193859307064 0 0 0
2526 362 13 0.4238 4.4697334670695 11.774445568721916 16.633569165634924 0 0 0
944 50 7 0.04 7.9695805532384405 13.143661674436334 11.339756645693154 0 0 0
2448 336 13 0.4238 4.983137171778667 12.627644891292663 11.806880199948198 0 0 0
194 11 3 0.35 7.221570582282499 13.137702587413658 16.308670277415132 0 0 0
198 11 5 0.08 7.194674640571067 12.8928055976969 13.984209639848237 0 0 0
201 11 5 0.08 5.205165366105948 13.848670585192407 15.369034709590045 0 0 0
193 11 2 0.235 5.8674561974326895 14.583971511943288 15.82593454944337 0 0 0
1749 127 11 -0.8 5.699240508611069 11.489853364527265 17.391759059889264 0 0 0
191 11 1 -0.48 7.217917086858044 14.008142862671322 15.796438828855331 0 0 0
192 11 2 0.235 7.678965117588498 13.762831078897337 14.427574519538073 0 0 0
208 11 8 0.418 8.817937151777464 12.280445419044085 15.830887244059548 0 0 0
2447 336 14 -0.8476 5.083322082567036 12.959664913580152 12.744797349511694 0 0 0
197 11 5 0.08 7.381188042969113 14.59463910085005 13.789234238400358 0 0 0
207 11 7 0.04 4.340472610110325 14.723637426228363 17.402984777501853 0 0 0
196 11 4 0.18 9.154906600304994 13.449445966498654 14.359814443599845 0 0 0
203 11 7 0.04 9.781366268293123 14.341407852845252 14.357291985670168 0 0 0
204 11 7 0.04 9.442672791335934 12.86039642578551 13.489030142706218 0 0 0
202 11 6 -0.6830000000000001 9.528960449796624 12.831521309488041 15.541488303999337 0 0 0
199 11 4 0.18 5.422112633414278 14.829759624488684 17.32023844827205 0 0 0
2446 336 13 0.4238 4.517708134178035 13.778472674029466 12.646835856442566 0 0 0
195 11 3 0.35 7.802702398222977 14.59696784659995 16.372088169780348 0 0 0
200 11 5 0.08 5.850591169057196 15.402357398376322 15.106202528740623 0 0 0
2104 222 13 0.4238 8.404599384893555 16.634746355969796 17.318078234244854 0 0 0
2105 222 14 -0.8476 8.815834112155684 15.768601084620357 17.034106605431834 0 0 0
2517 359 13 0.4238 5.519180524423163 16.183957904447286 12.787201048656094 0 0 0
1308 69 7 0.04 9.479996654286262 16.430901685559547 13.60139490286373 0 0 0
1301 69 4 0.18 9.928092671056795 17.364906318820957 13.262426705268508 0 0 0
2615 392 14 -0.8476 6.334902589857151 17.582037441073986 13.139545070244372 0 0 0
2616 392 13 0.4238 7.294732778518854 17.84947243710878 13.22419644648949 0 0 0
2614 392 13 0.4238 5.992046533997433 18.20825521505845 12.43935763698983 0 0 0
2525 362 14 -0.8476 3.620376331482573 11.971526545581936 16.14396425203383 0 0 0
2236 266 13 0.4238 3.6672370942070183 17.068600693361038 15.367681517784161 1 0 0
2237 266 14 -0.8476 4.559508374695927 17.506094357922002 15.256264929639592 1 0 0
2238 266 13 0.4238 4.703541610982835 17.412668329686873 14.271131466590687 1 0 0
2013 191 13 0.4238 17.57332511754439 12.961290368615883 11.294348361069124 0 0 0
1687 118 11 -0.8 13.490088272802716 13.389728292125838 10.514861389428066 0 0 0
2206 256 13 0.4238 10.748588685376463 11.953969760973578 11.665570185578092 0 0 0
2011 191 13 0.4238 16.578986441372408 11.937859413327743 10.671270983494214 0 0 0
529 28 7 0.04 16.94533812114225 16.847786450569004 12.044956239269197 0 0 0
2224 262 13 0.4238 14.302537811688977 12.059782915044197 10.889744922679188 0 0 0
2322 294 13 0.4238 11.130631324925352 14.856336128122978 16.941175533996983 0 0 0
1295 69 2 0.235 10.728639536165634 17.194500343324624 11.957625943608384 0 0 0
1780 131 12 0.06 8.330564445906747 29.64393825743495 17.715630042302152 0 0 0
1690 118 12 0.06 13.602776945124877 16.588857276112257 10.363284848588561 0 0 0
2689 417 13 0.4238 5.828188716859017 15.15891055748868 3.3727163114735177 0 0 1
1309 69 7 0.04 10.660091439523015 17.606867407658548 14.032937403808585 0 0 0
1689 118 12 0.06 14.897758925732191 15.512369440143914 10.948569827959444 0 0 0
1685 118 10 -0.28 13.821546702156764 15.684098336772648 10.930387340566815 0 0 0
2321 294 14 -0.8476 12.00626792001333 14.394772304790507 17.083234684128975 0 0 0
2226 262 13 0.4238 14.432558987264537 10.702298768217211 11.611495113040203 0 0 0
1324 70 7 0.04 14.537212031136056 12.281999253622807 16.727383845822423 0 0 0
1318 70 5 0.08 12.431934571483396 11.224741612075949 17.081137103172438 0 0 0
1319 70 5 0.08 12.31263145691602 12.251555368533477 15.601194033118444 0 0 0
1313 70 2 0.235 12.717309238118084 11.337271160261418 16.035215281309455 0 0 0
1317 70 4 0.18 14.241479987351177 11.53661414409616 15.989144301084739 0 0 0
1325 70 7 0.04 14.658552037529146 11.881105462313936 15.042872317033511 0 0 0
2164 242 13 0.4238 12.205345801680007 12.31124228794625 13.038599057913414 0 0 0
2165 242 14 -0.8476 12.80614406524116 13.099956244580843 13.168728078259745 0 0 0
2166 242 13 0.4238 13.297281329328534 13.36546816183441 12.339119986668365 0 0 0
1323 70 6 -0.6830000000000001 14.860941169572884 10.289756594911255 16.169599215563068 0 0 0
2225 262 14 -0.8476 14.959882137177837 11.318793096702501 11.026835919543021 0 0 0
1329 70 8 0.418 15.782715572597148 10.421449382939556 16.330780641946014 0 0 0
2544 368 13 0.4238 12.632927430476059 14.625040687287546 13.941708326106834 0 0 0
2641 401 13 0.4238 17.38815663010996 13.304984629362925 17.38117009927217 0 0 0
2642 401 14 -0.8476 17.242258316801397 12.360406310065251 17.087150767182848 0 0 0
1636 111 10 -0.28 16.321793413053285 13.959121286203942 14.216744836642137 0 0 0
1639 111 12 0.06 16.61527023506642 12.918154455081316 14.352072066670887 0 0 0
1640 111 12 0.06 16.112791906247345 14.291228176597867 15.233640802197407 0 0 0
1635 111 9 0.7 17.5700437399543 14.51880435270081 13.510603670462574 0 0 0
1641 111 12 0.06 15.432047644905115 14.095794340965274 13.60214982866615 0 0 0
1302 69 5 0.08 11.024891696639095 16.14584386832515 11.93296190671751 0 0 0
2542 368 13 0.4238 12.340916682362275 15.075980373755119 15.36262993972901 0 0 0
2543 368 14 -0.8476 12.459197542168194 15.468237656842721 14.450431611625064 0 0 0
2008 190 13 0.4238 14.030953043226303 16.42660495478293 14.884035139463286 0 0 0
508 27 7 0.04 13.675322959962187 16.785769954917384 17.420133313109933 0 0 0
2009 190 14 -0.8476 14.886345613731441 16.921699541456046 14.731894881092446 0 0 0
2625 395 13 0.4238 17.272240086571678 15.738716345122835 16.74921114300747 0 0 0
2409 323 13 0.4238 16.557793070976576 16.694313094186768 15.181876607484275 0 0 0
2408 323 14 -0.8476 17.45272695600923 16.865122031361068 15.594040374901704 0 0 0
2407 323 13 0.4238 17.907163204047215 16.108235983338183 15.12438883836917 0 0 0
1303 69 5 0.08 11.64548493784887 17.76847156671399 12.091811127702593 0 0 0
1638 111 11 -0.8 17.549304571860077 14.369730902031009 12.28810815808106 0 0 0
823 44 4 0.18 21.47196442834707 10.262472657261156 3.3750978745791285 0 0 1
302 16 7 0.04 27.82577694290082 27.69424619590623 16.094635340683425 0 0 0
1029 55 2 0.235 24.90885703213585 15.37249128610146 10.223347010080893 0 0 0
1028 55 2 0.235 24.77707943070805 17.757143741265907 9.93275902606069 0 0 0
1229 65 7 0.04 19.32848303300392 16.363753861255343 10.860658750600003 0 0 0
1221 65 3 0.35 21.891813638109678 13.863305671456144 10.90606952367742 0 0 0
1226 65 5 0.08 20.394852820876622 11.9085048887156 11.08698017028509 0 0 0
1232 65 7 0.04 22.85249221285162 11.40107127499796 11.271401441229514 0 0 0
1637 111 11 -0.8 18.465721404532157 14.98360666949723 14.233791392484415 0 0 0
1062 56 7 0.04 19.380622436207823 11.005510835692137 14.82800134074181 0 0 0
1056 56 5 0.08 19.861043346958713 12.741721958782524 16.518362844547504 0 0 0
1049 56 3 0.35 19.949031598833184 14.000391179732976 14.488485758649254 0 0 0
1223 65 5 0.08 19.63117512959468 14.06260074875511 11.534091848998317 0 0 0
1048 56 2 0.235 20.68688631147106 12.606584283132799 15.819953417091968 0 0 0
1054 56 4 0.18 20.413648444352454 11.33787960300901 14.93018963217398 0 0 0
1046 56 1 -0.48 20.823208247760906 13.790129401424451 14.948557291503597 0 0 0
1061 56 7 0.04 20.917385740561183 10.439751121537643 15.28749620143926 0 0 0
1060 56 6 -0.6830000000000001 20.86551681238387 11.487201660118052 13.536822908407824 0 0 0
1055 56 5 0.08 21.460381909534433 12.444825588024106 16.570681538480898 0 0 0
1050 56 3 0.35 21.568722061344353 13.631392775415568 14.285931839414078 0 0 0
1064 56 8 0.418 21.775522502477884 11.74184916624862 13.53092950596549 0 0 0
1035 55 4 0.18 24.769446944862306 14.480974851395807 11.358267343882149 0 0 0
1797 134 10 -0.28 24.64598351719099 11.240603231408759 13.932543596165818 0 0 0
1799 134 11 -0.8 24.843155549629536 12.933063743446683 15.495435238651218 0 0 0
1798 134 11 -0.8 23.213761870027515 13.119220483882605 14.093555491500377 0 0 0
1796 134 9 0.7 24.178229658748123 12.498638781383695 14.569894563443285 0 0 0
1045 55 8 0.418 23.497148406025875 14.120691968205271 12.717226902313172 0 0 0
1041 55 6 -0.6830000000000001 23.502265958391025 14.594125461398908 11.89940965065363 0 0 0
94 5 8 0.418 24.409021474153235 14.7015390022905 15.66081865228751 0 0 0
1053 56 5 0.08 20.076469172140435 15.145020647925037 16.21180151391917 0 0 0
1047 56 2 0.235 21.050817263477047 14.934423781056005 15.770951149057483 0 0 0
1063 56 8 0.418 19.930147088663606 15.824505972653494 13.987728708037906 0 0 0
1059 56 7 0.04 21.59027079700407 16.967491451134997 15.204689441003755 0 0 0
1057 56 6 -0.6830000000000001 20.78092889776377 16.019907096285785 13.625818255918404 0 0 0
1051 56 4 0.18 21.579261341531627 15.959781621396486 14.78941394339163 0 0 0
1234 65 8 0.418 21.28518456445335 16.39935618440689 11.747477805055997 0 0 0
1052 56 5 0.08 21.812587027752816 14.733465513931753 16.52419523627278 0 0 0
1027 55 1 -0.48 24.790867608141944 16.698228063210138 10.888661182893644 0 0 0
1228 65 6 -0.6830000000000001 21.358362926472907 16.331357054739584 10.807790822018358 0 0 0
1058 56 7 0.04 22.586568596695983 15.752022818084221 14.428550493990135 0 0 0
1030 55 3 0.35 25.520196001808962 16.794849662161013 11.580618980276363 0 0 0
1031 55 3 0.35 23.86276348332804 16.728876727227806 11.285831189265089 0 0 0
90 5 7 0.04 24.878120625344437 16.015293104134877 14.061918488860874 0 0 0
82 5 4 0.18 25.312833203868895 16.204216587993187 15.043441290419564 0 0 0
2274 278 13 0.4238 8.898794839664625 13.052160014736534 3.420076442941895 0 0 1
88 5 6 -0.6830000000000001 24.633107210701496 15.53342256745745 16.0490785526713 0 0 0
1042 55 7 0.04 24.813344226956886 13.416991228566552 11.125746473835743 0 0 0
1801 134 12 0.06 25.5241658621946 10.872995406129895 14.46331134486423 0 0 0
1802 134 12 0.06 23.87539385452755 10.491371288389793 14.113919560489744 0 0 0
80 5 3 0.35 25.622013354118483 17.48180770082505 17.275821283955658 0 0 0
1043 55 7 0.04 25.451688611356545 14.672911770653752 12.18637394316483 0 0 0
78 5 2 0.235 25.012066064553483 17.66886864872089 15.219935054817775 0 0 0
2078 213 14 -0.8476 3.593483653076294 17.47200522215759 3.6783454710094587 1 0 0
1004 53 7 0.04 28.61973093481148 11.939288776080259 17.881346346489114 0 0 0
303 16 8 0.418 30.19251696096548 29.77543871975449 12.579202770177726 0 0 0
1880 147 14 -0.8476 32.64474378779004 17.76984105599568 12.807280105791476 0 0 0
556 30 3 0.35 30.117374288363216 11.219647626148697 10.693680141708109 -1 0 0
554 30 2 0.235 31.220572625116837 12.888697063844724 11.195981376092044 -1 0 0
552 30 1 -0.48 31.06451961444978 11.475255254457918 10.93376556965965 -1 0 0
89 5 7 0.04 26.349243454987487 15.871854809725681 15.102122675254499 0 0 0
561 30 5 0.08 30.742550574692824 13.238771715980157 12.110856611882896 -1 0 0
562 30 5 0.08 32.26732284493184 13.08647917532775 11.426741536778344 -1 0 0
2056 206 13 0.4238 32.41318178932218 13.209034705364305 15.035962182769802 -1 0 0
2057 206 14 -0.8476 31.740295870486996 13.641711406381413 14.435980674416516 -1 0 0
999 53 5 0.08 27.12835522059034 13.913961212367301 16.184724380793064 0 0 0
2058 206 13 0.4238 30.84544845336263 13.375588475122228 14.794293755729797 -1 0 0
558 30 5 0.08 30.75216387231407 11.067315866043424 12.992462372464656 -1 0 0
2524 362 13 0.4238 32.58647226668539 11.860834973059761 16.909367094855277 -1 0 0
1007 53 8 0.418 30.33949265896334 12.498419635335415 16.983008803085184 0 0 0
991 53 2 0.235 27.519542027922924 13.709362160513853 17.181301597755446 0 0 0
1375 73 12 0.06 28.632151844044436 12.276518449785751 13.150118023835239 0 0 0
1005 53 7 0.04 27.92046232226909 11.759179589563665 16.339070729216218 0 0 0
997 53 4 0.18 28.427350440622895 12.494833892908096 16.96351551971454 0 0 0
1373 73 12 0.06 27.379989776679057 13.160149505456587 14.143014452786332 0 0 0
1374 73 12 0.06 26.98545578361874 12.591598667788581 12.49308576231543 0 0 0
1370 73 10 -0.28 27.77722669384971 12.952652000232526 13.149434243500812 0 0 0
1003 53 6 -0.6830000000000001 29.67584990139055 12.84686806657612 16.40755023747513 0 0 0
2099 220 14 -0.8476 31.717589049417906 16.047071475053478 15.840850862508306 0 0 0
2100 220 13 0.4238 31.67623595349046 15.180211869100999 15.344054853947915 0 0 0
1369 73 9 0.7 28.262188995519924 14.24745421070941 12.642187772681385 0 0 0
2098 220 13 0.4238 30.751404033881276 16.303479540683327 15.81432962474197 0 0 0
993 53 3 0.35 28.96912701669147 15.118082482465288 17.26629020142925 0 0 0
1372 73 11 -0.8 27.98622332756155 14.49813424434754 11.43768767279065 0 0 0
1371 73 11 -0.8 28.926350856186545 15.048181371154822 13.34884508870057 0 0 0
2359 307 13 0.4238 27.36444119194551 16.236103670074357 12.514962300069753 0 0 0
2413 325 13 0.4238 29.77643384423314 16.160205752153033 12.368343168671961 0 0 0
2465 342 14 -0.8476 29.05453297417948 16.754884136609718 15.30404006376336 0 0 0
2466 342 13 0.4238 28.866024862119836 16.01087130511908 14.66304604473596 0 0 0
2360 307 14 -0.8476 26.86176667622326 17.094077923273105 12.620603432076383 0 0 0
2414 325 14 -0.8476 30.04294315567965 16.979333487325995 11.86043954648919 0 0 0
1879 147 13 0.4238 31.688947114457644 17.610888962006886 12.559997552364244 0 0 0
81 5 3 0.35 26.708142188261373 17.919673800695264 16.21727584850568 0 0 0
1675 116 12 0.06 28.277135868837053 3.387240259528258 14.060820356811076 0 1 0
2464 342 13 0.4238 28.841331227896408 17.46857382857464 14.636840865275738 0 0 0
2361 307 13 0.4238 27.452880409465134 17.756242241579116 13.081129597485917 0 0 0
2415 325 13 0.4238 29.371235905697503 17.64359564733723 12.18835310891237 0 0 0
1724 123 12 0.06 21.18512931661393 18.291164082108676 17.81941289238212 0 0 0
2129 230 14 -0.8476 27.54091409587424 29.172546717673505 11.121705545706268 0 0 0
1296 69 3 0.35 9.449017485596464 18.40481605472249 10.865051077440068 0 0 0
677 36 6 -0.6830000000000001 9.553228991799088 20.521630550065666 11.129706615186638 0 0 0
2663 408 14 -0.8476 29.432930787315982 9.84726001749624 3.4844904380932045 -1 0 0
2077 213 13 0.4238 32.37547373369999 17.37183377681162 4.244690784616593 0 0 0
1673 116 11 -0.8 28.771396521838206 30.105185760265215 15.283097651271163 0 0 0
2016 192 13 0.4238 6.675204164765171 18.031309068087246 17.590257121306603 0 0 0
2666 409 14 -0.8476 5.658875472445104 19.105032321209542 11.184444699876877 1 0 0
1307 69 6 -0.6830000000000001 8.943057908582151 18.32372006953024 13.078911964871784 0 0 0
2484 348 13 0.4238 5.572788062130562 18.645600122079298 15.912293528556718 0 0 0
2483 348 14 -0.8476 6.055791136391325 19.435228740817262 16.29065460916271 0 0 0
683 36 8 0.418 9.924481350137984 20.624276111842743 11.992623771500567 0 0 0
863 46 5 0.08 8.648093449683103 20.339234008637636 16.64498909210669 0 0 0
857 46 2 0.235 9.408437933233717 20.267683047437114 17.42268488111894 0 0 0
1311 69 8 0.418 9.175189025790008 19.169845036716993 13.429879459152115 0 0 0
1665 115 11 -0.8 10.26531038729603 20.58079644405251 13.751798630617799 0 0 0
376 20 6 -0.6830000000000001 7.169970112484693 21.20258729550507 14.319007571696487 0 0 0
380 20 8 0.418 8.06058561064749 21.4787583887542 14.165632229969834 0 0 0
862 46 5 0.08 9.781967946011182 21.2860618657742 17.315755171858104 0 0 0
377 20 7 0.04 5.463976589564071 20.971424268042895 13.130857018718917 0 0 0
378 20 7 0.04 7.078765368809021 21.332856388898875 12.343546258011441 0 0 0
379 20 8 0.418 6.62539786702791 22.748147585829116 17.21255421158432 0 0 0
370 20 4 0.18 6.398524407687685 21.530882001469728 13.171865124651223 0 0 0
368 20 5 0.08 4.39032873531725 21.87193750337822 14.943587343745584 0 0 0
373 20 6 -0.6830000000000001 5.79565821267332 22.298606911074327 17.261907872707628 0 0 0
367 20 4 0.18 4.656926501807954 22.99634517770021 16.797018201921027 0 0 0
375 20 7 0.04 4.709658811913922 24.01018772995224 17.193750604660533 0 0 0
2313 291 13 0.4238 8.486994787623972 24.023621605657272 17.228082542727073 0 0 0
371 20 5 0.08 5.294321995442576 23.467725641843305 12.708734659843534 0 0 0
366 20 3 0.35 6.565410523194203 22.756593444158884 15.279564516747882 0 0 0
363 20 2 0.235 4.591475683727799 22.899191872958994 15.247466281239065 0 0 0
364 20 2 0.235 6.1117684570847235 23.06496444711783 13.30674696327357 0 0 0
362 20 1 -0.48 5.923425907812074 23.304879115240503 14.725218844416423 0 0 0
372 20 5 0.08 7.02629656916422 23.531807022540868 12.941027983640982 0 0 0
365 20 3 0.35 6.146797935109916 24.26656931725984 14.938099571431321 0 0 0
2311 291 13 0.4238 8.97210997279644 23.365829337889345 15.897751126521063 0 0 0
2312 291 14 -0.8476 8.260778689017549 23.282792456565414 16.595658023635437 0 0 0
1666 115 11 -0.8 9.281352002433508 22.56267568303752 13.734658163514492 0 0 0
2680 414 13 0.4238 9.269102461128924 23.80583287964115 12.67956188124957 0 0 0
2681 414 14 -0.8476 9.358415775048005 24.614256145435473 12.097806652024001 0 0 0
1663 115 9 0.7 10.250577987152028 21.82855718221319 14.046493591684936 0 0 0
2482 348 13 0.4238 6.1613738460478125 20.048308822289254 15.507745280202773 0 0 0
369 20 5 0.08 3.7300766313912055 23.389659348402674 14.794159102743064 0 0 0
374 20 7 0.04 3.8397048258426576 22.57022951439984 17.378935929831282 0 0 0
2682 414 13 0.4238 8.56836869186984 25.19878029766667 12.282521178827349 0 0 0
817 43 8 0.418 3.9027322794903907 25.499312940024456 13.205058946190807 1 0 0
816 43 8 0.418 3.6939399207270904 20.916098130082055 11.365990605383798 1 0 0
813 43 6 -0.6830000000000001 32.783690623992726 24.949820129297354 12.933047889065532 0 0 0
1083 57 8 0.418 3.828923346384941 19.128941148006938 15.862333351361197 1 0 0
530 28 7 0.04 15.280631956378025 17.460383864133608 11.929545877113105 0 0 0
682 36 7 0.04 15.434852825877748 20.871758317850908 10.359330011941806 0 0 0
2528 363 14 -0.8476 13.184265516687459 24.7915272476335 10.457892599826923 0 0 0
676 36 5 0.08 13.735539210874625 22.313564624820565 10.95273236736286 0 0 0
522 28 4 0.18 16.33407919249796 17.738866924577017 11.902155229449086 0 0 0
2091 217 13 0.4238 10.258037360028716 25.946424839454245 17.076124604224546 0 0 0
2725 429 13 0.4238 25.00929589811087 27.01879427499068 13.365921480231863 0 0 0
868 46 7 0.04 10.906191258607546 19.501768425187816 15.983394361784992 0 0 0
523 28 5 0.08 16.904527442374487 18.57498279321091 13.838826696412331 0 0 0
2010 190 13 0.4238 14.54069676915332 17.8598911402796 14.748851130542011 0 0 0
2677 413 13 0.4238 17.32579855225312 23.087317676010837 11.153004595794219 0 0 0
1216 64 8 0.418 23.04509050552299 19.710831599450852 3.404268753678921 0 0 0
869 46 7 0.04 9.941218093403933 18.23554222343624 16.684950568068757 0 0 0
861 46 4 0.18 10.422682637649501 19.187559969882315 16.908351927223634 0 0 0
673 36 5 0.08 11.554445710963847 22.644562308386547 11.53120653036763 0 0 0
684 36 8 0.418 13.60786147335806 19.614848368583754 11.382355216755869 0 0 0
2159 240 14 -0.8476 17.830122436326157 6.334647717576795 17.687578208954115 0 0 0
1667 115 12 0.06 12.070507505090525 22.79587870518764 13.930403647155723 0 0 0
130 7 7 0.04 16.1861635129061 23.54628704859385 17.429069506046012 0 0 0
1668 115 12 0.06 10.9981948872049 23.310113699753963 15.321856020202134 0 0 0
1868 144 11 -0.8 13.740836652933169 19.913705396416873 17.138378896519477 0 0 0
2278 280 13 0.4238 13.076779364045914 19.672609598049334 13.629174302063578 0 0 0
1866 144 9 0.7 14.415411126270273 19.858765861149358 16.037758159482856 0 0 0
1869 144 11 -0.8 14.020411928271903 19.38686257336217 14.937889262710305 0 0 0
2279 280 14 -0.8476 12.664950621272945 19.97435170754048 12.769342730476783 0 0 0
2280 280 13 0.4238 11.7554558885153 20.299429329529072 13.028389470993192 0 0 0
524 28 5 0.08 15.734737139609727 19.533660523693904 12.93013907715912 0 0 0
516 28 2 0.235 16.638513012628223 18.930567133979842 12.843412147233945 0 0 0
517 28 3 0.35 17.424270893608682 20.701214701872903 12.472260463621456 0 0 0
1867 144 10 -0.28 15.894628983398844 20.290852983186756 16.045546372891778 0 0 0
1669 115 12 0.06 11.935099212398136 21.842488687649254 15.36979151125622 0 0 0
1664 115 10 -0.28 11.365705875941805 22.49089571514595 14.703898427750891 0 0 0
1738 125 12 0.06 14.060847278224983 23.55792917727647 12.949928560974408 0 0 0
1737 125 12 0.06 14.515314931479143 22.691162303127335 14.532539135329834 0 0 0
1739 125 12 0.06 14.269675946332722 21.72417795743908 13.147678246334374 0 0 0
1734 125 10 -0.28 14.568105662405733 22.72960312356853 13.444518238919743 0 0 0
129 7 6 -0.6830000000000001 14.271992932583792 24.070052429845898 16.99938202677019 0 0 0
1872 144 12 0.06 16.572153244562248 19.564077930156582 16.493667916778833 0 0 0
1870 144 12 0.06 16.23506189512706 20.429871888632434 15.01946975589035 0 0 0
133 7 8 0.418 14.385919533736558 23.731319626567497 16.124584181677868 0 0 0
1871 144 12 0.06 15.93339036650278 21.2654448952566 16.532087631877516 0 0 0
123 7 4 0.18 15.427040019288794 24.225869004024283 17.816308508674027 0 0 0
1736 125 11 -0.8 16.575670642087175 22.09452924528371 12.235454474429226 0 0 0
1733 125 9 0.7 16.090230837368097 22.816014159201234 13.163174105759628 0 0 0
1735 125 11 -0.8 16.738107521606665 23.6874398593535 13.833218084027394 0 0 0
1023 54 7 0.04 11.788552546374598 25.222740292171306 13.937937519061133 0 0 0
514 28 1 -0.48 17.686852830423497 19.741973431758886 12.296283106617212 0 0 0
449 24 6 -0.6830000000000001 28.69293029334709 29.24541762065434 17.744202919864215 0 0 0
551 29 8 0.418 20.229987029704127 22.80046201875022 10.807040771535167 0 0 0
1039 55 7 0.04 24.028783477735146 19.765840086720377 10.05054529035582 0 0 0
772 41 6 -0.6830000000000001 25.405240105306163 22.953704674602946 17.453763849721287 0 0 0
2172 244 13 0.4238 18.063804955597508 23.09841494196239 14.457326755855348 0 0 0
518 28 3 0.35 17.665188508192152 19.656839584813582 11.290130330528152 0 0 0
1040 55 7 0.04 25.35175351429916 19.488762554836907 11.082455414527645 0 0 0
84 5 5 0.08 23.935508548800307 17.839313167983896 15.21477805377339 0 0 0
1672 116 11 -0.8 28.731978651373904 30.533163944336106 13.097098254674412 0 0 0
521 28 5 0.08 18.811041424180473 19.696227604241624 14.077090984871413 0 0 0
1032 55 4 0.18 24.435907221723422 19.015588907150462 10.728356100739026 0 0 0
87 5 5 0.08 24.626067036936263 19.861717221352176 16.885023817570037 0 0 0
531 28 8 0.418 18.984463219543063 21.94469202319887 12.937501723277894 0 0 0
2171 244 14 -0.8476 18.878278045473827 22.758554944674653 14.927529046514152 0 0 0
520 28 5 0.08 19.21540596203742 18.547618527220457 12.774152376294122 0 0 0
515 28 2 0.235 18.92564782756027 19.573798991131618 13.000090211357339 0 0 0
776 41 7 0.04 20.414301328212698 20.18991347226106 16.67611801422006 0 0 0
526 28 7 0.04 20.303229054590098 20.114898958294855 11.376345017879462 0 0 0
769 41 4 0.18 21.107919067352043 20.741190743400374 16.04126221521306 0 0 0
775 41 6 -0.6830000000000001 22.20638017041883 19.94329621132394 15.70827531439503 0 0 0
1038 55 6 -0.6830000000000001 23.502121141723773 18.70924468517972 11.763078215863345 0 0 0
1044 55 8 0.418 23.498098196939647 19.386818881186855 12.421764436500684 0 0 0
779 41 8 0.418 22.755215635835537 20.275813549001512 15.014587857930046 0 0 0
777 41 7 0.04 20.447117074865666 20.888765366482946 15.187086305294114 0 0 0
519 28 4 0.18 20.04173586491034 20.4839296123368 12.368056556904564 0 0 0
527 28 7 0.04 20.902931724975247 20.39825150085764 13.030668790097792 0 0 0
525 28 6 -0.6830000000000001 19.62936660687531 21.799318464314275 12.262256143639057 0 0 0
2170 244 13 0.4238 18.878183246237874 23.299659851418344 15.768461136437743 0 0 0
1756 128 11 -0.8 23.991569187293045 20.334245353016946 13.701878222778157 0 0 0
763 41 2 0.235 21.548129275752792 22.009149254256656 16.67195996476586 0 0 0
10 1 5 0.08 19.169588231024967 24.44252129458256 12.719363820571205 0 0 0
771 41 5 0.08 21.21403852222398 22.788734087885043 15.987354167301335 0 0 0
764 41 3 0.35 23.48645426661208 21.854641846435015 16.316905413015224 0 0 0
1759 128 12 0.06 23.32678057755498 21.7576153716425 11.541706336036238 0 0 0
761 41 1 -0.48 22.897471381273693 22.07423123842829 17.107437119047017 0 0 0
1760 128 12 0.06 23.753569365205443 23.302980743683754 12.2899362026676 0 0 0
1755 128 10 -0.28 23.93586538016439 22.228606541342717 12.313222446836921 0 0 0
1754 128 9 0.7 23.88516008665475 21.556544283276978 13.692509537019196 0 0 0
1757 128 11 -0.8 23.83767283535331 22.26818994744963 14.656937302015013 0 0 0
1758 128 12 0.06 24.945667767018612 22.27930860405271 11.906058531723886 0 0 0
2445 335 13 0.4238 24.893323749382322 23.510771986506306 14.912690333353105 0 0 0
778 41 8 0.418 25.30219614012975 23.49621705949777 16.686917912155362 0 0 0
1981 181 13 0.4238 19.185058920866133 25.47381360317333 16.320214478575153 0 0 0
83 5 5 0.08 25.262282887825375 18.234245665387085 14.32227454208338 0 0 0
768 41 5 0.08 22.90980467299587 24.17016772387459 16.885803440366658 0 0 0
16 1 7 0.04 21.221208038310714 24.52548613317269 13.9745577903613 0 0 0
17 1 7 0.04 21.88298919656936 24.695479231189445 12.358817417656981 0 0 0
1074 57 5 0.08 30.443252555108266 18.627562093410674 17.132941651370004 0 0 0
803 43 3 0.35 32.801021173241665 23.038241693078344 11.430768671300035 0 0 0
77 5 1 -0.48 25.731788092458217 18.04388992584071 16.443911284308243 0 0 0
807 43 4 0.18 32.42197846963794 25.36400558546724 11.647399821026907 0 0 0
804 43 4 0.18 31.414443089500605 20.610711800364474 11.042956210213688 0 0 0
812 43 7 0.04 30.56417164208937 20.27520387545635 11.636696008492294 0 0 0
2443 335 13 0.4238 24.90332225528359 25.06951011310361 14.644520271051567 0 0 0
2444 335 14 -0.8476 25.398336436069716 24.34685670027049 15.126906104324556 0 0 0
86 5 5 0.08 26.074869485541484 19.94475406531995 15.798715525148657 0 0 0
79 5 2 0.235 25.61592168322305 19.463434371850354 16.66228503447165 0 0 0
799 43 1 -0.48 31.791244189533746 23.044582314935372 11.411512473066699 0 0 0
810 43 6 -0.6830000000000001 32.55826497065834 20.68784483954918 11.91338012217246 0 0 0
1067 57 2 0.235 30.45529074395928 19.65024941371043 16.7560865425147 0 0 0
1654 113 12 0.06 28.260503387178378 21.412560765065685 11.932677904151486 0 0 0
1081 57 7 0.04 31.469283410721125 20.48856961626075 15.009986709719504 0 0 0
1651 113 11 -0.8 28.620885666551555 18.741942201734872 13.441466483397724 0 0 0
1649 113 9 0.7 28.437661929037667 19.94714654810972 13.391336087460195 0 0 0
1080 57 7 0.04 31.57856244047353 18.815248495004013 15.016656266984151 0 0 0
1075 57 5 0.08 29.48687707495089 19.897317670809016 16.321130975232343 0 0 0
1073 57 4 0.18 31.607721518338906 19.660137318197606 15.704672854499895 0 0 0
1079 57 6 -0.6830000000000001 32.866322503884675 19.70832979250028 16.352996683552803 0 0 0
1652 113 11 -0.8 28.79857742756593 20.703654044670326 14.289400773967438 0 0 0
1650 113 10 -0.28 27.735604600198254 20.496575852995772 12.203799678429391 0 0 0
1655 113 12 0.06 27.777345878438933 19.875692353129022 11.30891675628445 0 0 0
1653 113 12 0.06 26.724019760907247 20.784579227218785 12.489813978487462 0 0 0
2143 235 13 0.4238 27.126329251870363 23.06465023580387 15.775541365045907 0 0 0
1068 57 3 0.35 30.920869168009553 21.40936588269412 17.631808758450447 0 0 0
2145 235 13 0.4238 28.067187463113036 22.00886508548239 15.27900698012851 0 0 0
2144 235 14 -0.8476 27.999497311009534 22.65483390338277 16.03933968167962 0 0 0
1999 187 13 0.4238 30.19187628864636 22.12489690662485 14.011525998225649 -1 0 0
2001 187 13 0.4238 30.809492996754 23.015353576163598 14.98593603791097 -1 0 0
2000 187 14 -0.8476 30.858351655411912 22.870270856017825 13.997742548469912 -1 0 0
2630 397 14 -0.8476 30.696002361455914 23.037263316573362 16.644256980642115 0 0 0
2629 397 13 0.4238 29.705737706016457 22.917740429135268 16.573168860072506 0 0 0
2631 397 13 0.4238 30.864813344114793 23.75971672288114 17.31472416946546 0 0 0
802 43 3 0.35 31.426940474362432 22.99157595990403 12.352009184984762 0 0 0
1065 57 1 -0.48 30.83311042836457 20.443925637073097 17.915153205488 0 0 0
815 43 7 0.04 32.112198943480195 26.40614132015101 11.569656695541253 0 0 0
2348 303 14 -0.8476 25.162807969250572 27.846561258059285 11.893473407188013 0 0 0
299 16 7 0.04 31.622577654460866 30.425274252010276 14.035736962750182 0 0 0
1660 114 12 0.06 25.92188214242013 5.3191931395639145 17.635630494300546 0 0 0
2713 425 13 0.4238 29.90526288696642 4.893484638438473 17.916765719333153 0 0 0
918 49 4 0.18 4.010693712359451 27.25035536025859 18.055522802508783 0 0 0
1573 102 10 -0.28 7.783484486467998 31.50682969353252 11.454816597809913 0 0 0
1576 102 12 0.06 8.54414164621219 32.237902954532004 11.18097975000104 0 0 0
2372 311 14 -0.8476 8.777589715553438 26.42442204301666 16.1257106616799 0 0 0
1617 108 11 -0.8 6.381889453994927 25.84040089150243 15.229974761025147 0 0 0
2371 311 13 0.4238 7.90748421935121 26.166120024811537 15.705995632586646 0 0 0
1578 102 12 0.06 7.903613753666751 31.551336329581183 12.53724079600037 0 0 0
289 16 3 0.35 29.591810296404628 28.907235364709635 14.747013096648848 0 0 0
926 49 7 0.04 4.374161499323332 26.95186290130373 17.07223879736086 0 0 0
1574 102 11 -0.8 7.480788552844498 29.188648664913817 11.465279314495282 0 0 0
2303 288 14 -0.8476 5.035225638077627 27.911398451848136 11.391600158584694 0 0 0
2304 288 13 0.4238 5.792030397823149 28.5648070598653 11.407881759970516 0 0 0
2370 310 13 0.4238 7.114119248445613 26.547892249447287 11.576962082256273 0 0 0
1616 108 11 -0.8 4.975071469266854 26.52751616334181 13.695271816805079 0 0 0
2369 310 14 -0.8476 7.914382418517158 26.833555556512675 12.104159338372764 0 0 0
2373 311 13 0.4238 8.324506167568241 26.913921191126278 16.870739127159972 0 0 0
1614 108 9 0.7 5.80933889295653 26.717840228609894 14.535801622403156 0 0 0
2368 310 13 0.4238 7.977224886192637 27.776954331553476 11.778566029015302 0 0 0
2302 288 13 0.4238 5.011983850634284 27.548990337867863 12.323309263561065 0 0 0
1618 108 12 0.06 6.639535100042279 28.242044883599917 15.693274710718697 0 0 0
1620 108 12 0.06 5.118884519860792 28.806080026589605 15.097111167533127 0 0 0
1615 108 10 -0.28 5.960826182441636 28.161707155662224 14.84418449663141 0 0 0
1619 108 12 0.06 6.50129939594508 28.655583963392793 14.03670168082147 0 0 0
1014 54 5 0.08 8.978426501587967 28.50531694628467 14.763145212756301 0 0 0
1020 54 7 0.04 8.933607490535156 30.648289377883312 15.438868354222869 0 0 0
1015 54 5 0.08 9.269543345434546 29.368837896486824 13.260720856676945 0 0 0
1009 54 2 0.235 9.692110210224921 29.141178641489528 14.239323212501143 0 0 0
1013 54 4 0.18 9.91644168569702 30.456102024270972 15.008571885654254 0 0 0
1017 54 5 0.08 9.952428633571866 26.471804465476595 14.131014192257647 0 0 0
169 9 7 0.04 17.784914280255954 31.21098028971186 3.5747094183520636 0 -1 1
297 16 6 -0.6830000000000001 31.05508574346037 29.454790370007412 12.364376857620016 0 0 0
1021 54 7 0.04 10.240005943925793 31.304010645635497 14.404907003444539 0 0 0
1019 54 6 -0.6830000000000001 10.875815540814632 30.241136319439175 16.006151680448248 0 0 0
1025 54 8 0.418 11.074747537985896 31.10182785303592 16.34175056632213 0 0 0
2568 376 13 0.4238 17.023400438301167 29.65206382876251 17.113060078926225 0 -1 0
295 16 5 0.08 30.271752272321045 26.09057970195051 14.962016547614349 0 0 0
2529 363 13 0.4238 13.64014346036544 25.634330666002192 10.743934688937873 0 0 0
2693 418 14 -0.8476 14.149079025332671 27.247192668133287 10.45203786439984 0 0 0
601 32 6 -0.6830000000000001 11.43056259860022 3.731924362204297 13.013102454214918 0 0 0
2624 395 14 -0.8476 17.318957401988442 15.258779859602441 17.625247814333264 0 0 0
304 16 8 0.418 26.662235957857018 26.816095543103014 14.50603169532369 0 0 0
2090 217 14 -0.8476 11.203342259171613 25.656531930477303 17.225533047626367 0 0 0
2094 218 13 0.4238 24.36143836130428 12.504816191627988 17.07283683154211 0 0 0
18 1 8 0.418 16.81537200661124 25.314947226190068 14.29693679317877 0 0 0
7 1 5 0.08 17.408039734992506 25.544874396980607 11.927417533868335 0 0 0
116 7 2 0.235 14.541304376837086 27.754332168297058 17.50423294788318 0 0 0
1012 54 3 0.35 11.385233411963451 28.486917997558905 15.000312959630373 0 0 0
1008 54 1 -0.48 10.923839868293221 28.448774938615394 14.102692946374557 0 0 0
2112 224 13 0.4238 14.764752918362172 30.753482956235615 10.140329012954666 0 0 0
2088 216 13 0.4238 12.594049317433882 30.777433878855266 9.855083216431524 0 0 0
117 7 2 0.235 15.798048617432158 25.695699643921724 17.96601987414474 0 0 0
594 32 3 0.35 13.026708144072144 3.3184177167229763 11.452744687792087 0 0 0
124 7 5 0.08 16.427242195852003 26.044296904696246 17.147088006997848 0 0 0
1018 54 5 0.08 10.475110896150895 26.928278563686593 12.56734584051532 0 0 0
2596 386 13 0.4238 15.631781065003004 31.573733408296064 16.28500641623894 0 -1 0
1016 54 4 0.18 12.051697362732257 26.277770330398962 13.862303882779104 0 0 0
1024 54 7 0.04 12.78480333534325 26.407689872931137 13.066231898707613 0 0 0
13 1 7 0.04 15.667121803940182 26.626883053860695 12.853469458360927 0 0 0
12 1 6 -0.6830000000000001 16.798757091140352 26.244154289573462 14.468076333265294 0 0 0
6 1 4 0.18 16.632440935800087 26.881946270023306 13.290683069822908 0 0 0
119 7 3 0.35 13.850748595955931 25.831100159008365 17.458695675099285 0 0 0
127 7 7 0.04 12.492832424563835 28.077016479210812 16.957634633620074 0 0 0
1010 54 2 0.235 10.748665246071564 27.01217774763693 13.619098199876145 0 0 0
1022 54 6 -0.6830000000000001 12.6976670357484 26.567167308295595 15.035903222470855 0 0 0
1026 54 8 0.418 12.18623279087361 26.06187893640754 15.649180586434438 0 0 0
2694 418 13 0.4238 13.616119762361285 28.044069678497443 10.736472357145775 0 0 0
1011 54 3 0.35 11.438823201108908 28.944199589518924 13.388965055524098 0 0 0
1833 139 11 -0.8 12.315328865431741 29.127946115808736 11.975322635965034 0 0 0
1831 139 9 0.7 13.29020925120789 29.87843394372684 12.247590627961847 0 0 0
1835 139 12 0.06 13.277964179447826 30.118975502369633 14.379745269006428 0 0 0
1837 139 12 0.06 14.829491902590567 30.36685841550784 13.670490888241005 0 0 0
1834 139 11 -0.8 13.872546968645446 30.651529240181695 11.431122025930549 0 0 0
1832 139 10 -0.28 13.913933921634765 29.785904074891697 13.55958675479144 0 0 0
1836 139 12 0.06 14.195199223156784 28.771697301569453 13.843009599415884 0 0 0
121 7 5 0.08 14.758670012616253 27.745022775554244 16.436188217662483 0 0 0
2550 370 13 0.4238 15.358734142575395 31.499363611295244 11.976413097963029 0 0 0
2549 370 14 -0.8476 15.935796587974469 32.26629326687162 12.257092083364894 0 0 0
2597 386 14 -0.8476 16.18421647083654 30.744646455699623 16.199026027044248 0 -1 0
14 1 7 0.04 16.57649348783864 27.969365795690397 13.340106504828846 0 0 0
2548 370 13 0.4238 16.596886361784495 31.774039286237816 12.823316893549322 0 0 0
2598 386 13 0.4238 16.62282288272035 30.967466144785146 15.328429770619866 0 -1 0
115 7 1 -0.48 14.503403053265727 26.375734815869002 18.00410920927289 0 0 0
2 1 2 0.235 17.710519107973923 26.524252872311436 12.298063059397743 0 0 0
8 1 5 0.08 17.853416546348296 27.086795374915674 11.375468689502378 0 0 0
1486 89 12 0.06 20.020765268477035 4.208974301157528 11.860181450632963 0 1 0
2567 376 14 -0.8476 17.739981139786515 29.31469041028755 17.72351466542808 0 -1 0
762 41 2 0.235 23.07151252911879 23.44010679254874 17.678845492383452 0 0 0
963 51 7 0.04 23.14532164497748 30.361267789266922 17.4159877950519 0 0 0
1424 80 12 0.06 19.110473184720995 30.279218899424496 10.572112446243878 0 0 0
1918 160 13 0.4238 22.275681460783098 28.388821031256114 10.761388998780149 0 0 0
2733 431 13 0.4238 23.159938767445723 26.769340187966204 17.604454227769516 0 0 0
2293 285 13 0.4238 20.37129112500588 32.103531461567854 15.69460125601601 0 -1 0
968 51 8 0.418 22.702938835329025 32.18774315847958 17.014826576712693 0 0 0
962 51 6 -0.6830000000000001 21.94058275477471 31.735739433562166 16.68696023425163 0 0 0
2285 282 14 -0.8476 17.576806125313635 30.943842691379974 13.829594868078463 0 0 0
965 51 6 -0.6830000000000001 24.786903832736265 32.40650382172764 12.381374527294653 0 0 0
969 51 8 0.418 24.12876284356252 32.78218283471169 12.945915185131465 0 0 0
964 51 7 0.04 21.504646274965324 29.755383132899315 17.15341396228906 0 0 0
2732 431 14 -0.8476 22.24746393517618 26.586341447572007 17.238581596129663 0 0 0
2566 376 13 0.4238 18.489272092059938 29.247826040626858 17.064686623033566 0 -1 0
2284 282 13 0.4238 18.11563309464581 30.20280919649031 13.428973885343789 0 0 0
1487 89 12 0.06 20.766820380990783 3.3249690904884037 10.50146155632693 0 1 0
3 1 2 0.235 19.745958405832592 25.34137233625344 12.500461432934657 0 0 0
11 1 5 0.08 19.844587450334 25.485209701876396 11.42452591680882 0 0 0
1658 114 11 -0.8 25.210310616408115 32.40125030177588 16.217726481727155 0 -1 0
1982 181 14 -0.8476 19.353615432374774 26.27486735454682 15.745877423438454 0 0 0
1983 181 13 0.4238 20.232089285433883 26.37908003753579 16.212122815914526 0 0 0
1936 166 13 0.4238 19.403958230160335 27.96126292455204 15.58945931332731 0 -1 0
1937 166 14 -0.8476 19.422937214166147 28.956392947123692 15.492926936523977 0 -1 0
5 1 3 0.35 18.794037718884447 26.426964443763413 13.922542488361925 0 0 0
1 1 1 -0.48 19.060833243070626 26.538296470312787 12.954820422802866 0 0 0
9 1 4 0.18 21.197135698983217 25.14407724946055 13.077440308457861 0 0 0
550 29 8 0.418 25.044801501723295 25.74317579136465 11.070387846246703 0 0 0
4 1 3 0.35 19.51557656178988 27.428084335094344 12.808031013385142 0 0 0
1938 166 13 0.4238 19.489828701238686 29.13005547670717 14.510415136035897 0 -1 0
2286 282 13 0.4238 18.30068993222275 31.409307894429894 14.338806709484745 0 0 0
1420 80 11 -0.8 19.45661486424906 29.054489088160057 12.734452269663159 0 0 0
1418 80 9 0.7 20.377336536895395 29.210515273493943 11.91432022354467 0 0 0
956 51 4 0.18 22.307289162623462 30.351358666529404 16.71909655341404 0 0 0
958 51 5 0.08 21.803554991784495 29.53921886753008 14.796955874156486 0 0 0
951 51 1 -0.48 23.4576926151878 30.897305672358716 14.640804911380702 0 0 0
952 51 2 0.235 22.722266867780984 29.847074547995323 15.296202716605187 0 0 0
955 51 3 0.35 24.166416362485307 31.28129876068285 15.249344622368156 0 0 0
957 51 5 0.08 23.331262612656815 28.98510549844358 15.5685766945525 0 0 0
953 51 2 0.235 24.20821338252095 30.312082382579803 13.563998552922142 0 0 0
954 51 3 0.35 22.85710317603199 31.67897699335026 14.420934147237004 0 0 0
15 1 6 -0.6830000000000001 21.83896488179502 26.38543924714513 13.278009184705702 0 0 0
960 51 5 0.08 24.810107585030885 29.457917758035805 13.87412783932169 0 0 0
1421 80 11 -0.8 21.473422501212468 28.747610372827644 12.149957848205684 0 0 0
961 51 5 0.08 23.48515321252785 29.834549681880397 12.902787132290536 0 0 0
19 1 8 0.418 21.49433793810539 27.034097518236898 12.68347971933953 0 0 0
967 51 7 0.04 25.69124520933771 30.646024884759512 11.973284666015685 0 0 0
959 51 4 0.18 25.266828880510527 31.175866731623383 12.826040450722775 0 0 0
2727 429 13 0.4238 23.644783482498138 26.645173884186747 13.999628935256148 0 0 0
2726 429 14 -0.8476 24.62143835648268 26.657795985356728 14.213983547579243 0 0 0
298 16 7 0.04 3.281848924200389 29.43969574100833 13.215125805056662 1 0 0
288 16 2 0.235 29.753258473865408 26.92931459540471 15.426496874644876 0 0 0
455 24 8 0.418 28.667603717687186 29.6952725500457 16.913552817827387 0 0 0
1671 116 10 -0.28 28.958752602935846 32.321651104856514 14.59035721180427 0 0 0
2539 367 13 0.4238 30.26628595461737 29.144731560513314 9.26686291241022 -1 0 0
286 16 1 -0.48 30.10892390458737 28.062596267326853 14.548922248290047 0 0 0
1674 116 12 0.06 29.938869353372613 32.638935117745746 14.234329039124352 0 0 0
294 16 4 0.18 28.190800745650357 26.835428199605758 15.531391764614053 0 0 0
301 16 7 0.04 27.891278111179805 26.016533547961963 16.185419136450765 0 0 0
2128 230 13 0.4238 27.866150286907114 29.64589409609791 11.940318288758524 0 0 0
966 51 7 0.04 26.088382810810415 31.40670057291193 13.504139921998878 0 0 0
814 43 7 0.04 3.6263846947752443 25.24869254831021 10.921007415099801 1 0 0
287 16 2 0.235 31.556910293786544 28.327002677305632 14.485368559785575 0 0 0
1670 116 9 0.7 28.778334118595694 30.903846098943358 14.275580447194411 0 0 0
300 16 6 -0.6830000000000001 27.58113074966621 26.7803934258655 14.288435269454018 0 0 0
2347 303 13 0.4238 26.02008346899582 28.16590617962381 11.489666776230925 0 0 0
296 16 5 0.08 30.15914240003611 27.142371681202697 16.415394753689803 0 0 0
867 46 6 -0.6830000000000001 11.341065051642506 18.771082952105218 17.875796397544235 0 0 0
122 7 5 0.08 15.296561953186849 28.293421056511363 18.076092457711557 0 0 0
1205 64 5 0.08 18.803716971300005 20.982955869421602 3.9528518175905822 0 0 0
873 46 8 0.418 12.187449939054742 19.129288734020353 17.65599719051215 0 0 0
1213 64 7 0.04 23.078625561141873 22.26039701837334 3.4369291009390857 0 0 0
822 44 3 0.35 19.137924011871018 11.15761984413938 3.4822182727358895 0 0 1
120 7 4 0.18 13.180376914205521 28.450450786420348 17.716504458363502 0 0 0
1200 64 2 0.235 21.129562331276354 21.43557726047536 3.5745763590850768 0 0 0
2462 341 14 -0.8476 22.666707056876067 5.691586380645938 17.941004178222286 0 0 0
765 41 3 0.35 23.081554337431207 21.486379142602924 17.907814832802245 0 0 0
989 53 1 -0.48 28.13302848434399 14.857059155149734 17.769148791499312 0 0 0
2119 227 13 0.4238 13.02026181529679 21.151230622612808 17.842514326355825 0 0 0
1751 127 12 0.06 8.144771125763157 9.365829711836206 17.74921159409525 0 0 0
998 53 5 0.08 26.653631639523173 13.52428421710404 17.816911066275004 0 0 0
1725 123 12 0.06 22.96046166325128 17.747797814273966 17.937085817482668 0 0 0
2376 312 13 0.4238 7.5479455116812515 29.696099854722572 3.3498471052368286 0 0 0
187 10 7 0.04 28.788666189170208 20.741539439642395 3.4293900454769 0 0 1
2601 387 13 0.4238 32.03879054575984 24.23175060775626 3.2956121126025204 0 0 1
824 44 5 0.08 21.274853459230687 12.322334373690554 3.305182797290712 0 0 1
2093 218 14 -0.8476 24.076982211471847 12.094262803827514 17.93914728236685 0 0 0
1210 64 7 0.04 17.948639947074312 18.22860983438951 3.416075510621212 0 0 0
1634 110 12 0.06 12.132111960931155 13.155670218693217 3.309863583853513 0 0 0
75 4 8 0.418 20.598231706260098 28.912243180378272 3.4054453593959835 0 0 1
1853 142 10 -0.28 6.121218735776698 8.331040881810523 23.873238296673712 0 0 0
1858 142 12 0.06 5.995661755350342 7.540455207483021 24.613011064903297 0 0 0
1856 142 12 0.06 5.409915821821485 8.340594005145093 23.04739875466793 0 0 0
1852 142 9 0.7 6.0079143107043205 9.54625261325264 24.752149980412923 0 0 0
748 40 5 0.08 10.228236121922528 9.537312481673343 24.688176750314916 0 0 0
1857 142 12 0.06 7.1171831340183225 8.35321093116103 23.430951643133724 0 0 0
754 40 7 0.04 8.405707429246327 10.366784179380616 23.425960571411512 0 0 0
743 40 2 0.235 9.805623340248932 10.528456804469936 24.85275318146742 0 0 0
323 17 8 0.418 4.861653925166385 10.313636615596181 22.447441895381207 0 0 0
1854 142 11 -0.8 5.440184626934046 10.507764623824855 24.171260249269 0 0 0
747 40 4 0.18 9.068606382676794 11.204788315487974 23.641293202050885 0 0 0
645 34 8 0.418 4.023699818548742 11.050431462234766 25.46403482516267 1 0 0
1357 72 5 0.08 16.09006078363607 8.021692719874325 32.711000501739704 0 0 0
2561 374 14 -0.8476 11.79877710218887 6.221629206937164 20.152130424223785 0 0 0
2562 374 13 0.4238 12.349402061966163 6.802247888490499 20.751843502880476 0 0 0
2657 406 14 -0.8476 13.688378874179268 7.583554131682911 21.8243095137129 0 0 0
2389 317 13 0.4238 14.62431184509572 5.50628046661657 19.264901150417483 0 0 0
358 19 7 0.04 15.397018314553486 5.540941289406796 23.404349784439994 0 0 0
2656 406 13 0.4238 14.506201068120978 7.861102798881735 22.328389113730335 0 0 0
2658 406 13 0.4238 14.151967127982465 6.9987934659372275 21.15864841363261 0 0 0
2390 317 14 -0.8476 14.775186562526377 5.924731060103871 20.160500165019396 0 0 0
2391 317 13 0.4238 15.759175980214271 5.909320314429173 20.337954766775358 0 0 0
351 19 4 0.18 16.37250633875147 5.4676960072666585 23.885091256966923 0 0 0
2327 296 14 -0.8476 17.431107743655843 6.411884637036961 20.51855190826205 0 0 0
361 19 8 0.418 16.54988279220581 3.580404867382563 23.71236191584791 0 0 0
359 19 7 0.04 16.893006227641727 6.309020304516597 23.427590095594653 0 0 0
2499 353 13 0.4238 18.613902335798258 9.967433849472137 24.245430593488106 0 0 0
2498 353 14 -0.8476 17.640717277601972 10.157175748776528 24.37532330459367 0 0 0
1930 164 13 0.4238 12.231138313434217 8.941375319759757 21.926352626202227 0 0 0
1825 138 10 -0.28 15.688711420491828 9.31614623921605 19.51711671732844 0 0 0
1824 138 9 0.7 17.166312427678847 9.686274424081738 19.659629090709576 0 0 0
1931 164 14 -0.8476 11.511226178436882 9.623551341363402 22.054117550583566 0 0 0
2326 296 13 0.4238 17.467575420046295 7.4034733238863435 20.64258616295791 0 0 0
357 19 6 -0.6830000000000001 17.172051558492093 4.278684619475996 23.577077417878808 0 0 0
1826 138 11 -0.8 17.787152574584937 9.135265450489761 20.59228203645049 0 0 0
2158 240 13 0.4238 17.48616508013859 6.113493255190282 18.600127314168947 0 0 0
2041 201 13 0.4238 16.677750522381032 9.094983973470427 23.347723229597708 0 0 0
1828 138 12 0.06 15.480396022679065 8.310562039212801 19.15179614136411 0 0 0
2497 353 13 0.4238 17.661425445955267 9.95062816704639 25.353521100703542 0 0 0
2043 201 13 0.4238 16.583430750110967 8.481143892291943 21.91445388801379 0 0 0
1932 164 13 0.4238 11.806794625823814 10.08436624761648 22.890927212029634 0 0 0
2346 302 13 0.4238 11.190752273836546 9.983762421552647 20.30042777261837 0 0 0
1842 140 12 0.06 14.578674114921759 8.751395415036804 24.59262399618419 0 0 0
2560 374 13 0.4238 12.475592239686385 5.493980543034585 20.040730236393493 0 0 0
1512 93 11 -0.8 14.223909473980006 3.789241867547184 18.377885577315105 0 1 0
722 38 8 0.418 15.919236962788807 3.6681526900330685 18.828451111412107 0 0 0
718 38 6 -0.6830000000000001 16.74802940103666 3.7296957738080825 19.278235483219703 0 0 0
2042 201 14 -0.8476 16.11576432585195 8.47668266143701 22.798325959087602 0 0 0
1829 138 12 0.06 15.199605672559535 9.289162681076537 20.490821787159177 0 0 0
345 19 2 0.235 16.435996914508465 5.726074727036439 25.416808754209423 0 0 0
749 40 5 0.08 10.648804665933731 11.179986006296053 25.082119628408613 0 0 0
1827 138 11 -0.8 17.63808680496848 10.39299732191239 18.711700840158535 0 0 0
2635 399 13 0.4238 10.815371370135543 8.557671091892278 18.501261736306077 0 0 0
2637 399 13 0.4238 11.219250339499782 7.045814511038046 18.719592502769824 0 0 0
1006 53 8 0.418 31.11554956753055 15.779154778003376 18.644219410484162 0 0 0
2328 296 13 0.4238 18.429578289025038 6.3607909780843706 20.498359734978024 0 0 0
350 19 5 0.08 18.813116291114227 6.529879499323531 24.415062931048116 0 0 0
707 38 3 0.35 18.407255540418472 4.148456336245109 20.82137503660206 0 0 0
721 38 8 0.418 20.13863768822423 6.393265725878182 21.912723464392375 0 0 0
715 38 6 -0.6830000000000001 19.85856342359292 5.605651533405737 21.47202770729376 0 0 0
2333 298 14 -0.8476 19.402299157868544 10.928437738663462 21.4761700769899 0 0 0
709 38 4 0.18 20.465435847790257 4.548909767697801 22.21331309599232 0 0 0
2334 298 13 0.4238 18.737125862437104 10.314612985529255 21.051052055896196 0 0 0
2592 384 13 0.4238 21.861246926566277 8.039160879232032 22.883734933929603 0 0 0
2591 384 14 -0.8476 20.90049071623232 7.787140389545733 22.767991667931955 0 0 0
716 38 7 0.04 21.528236621039753 4.47037581722543 21.984531624020057 0 0 0
717 38 7 0.04 20.365242023950906 4.781882493515111 23.273378637798928 0 0 0
2651 404 14 -0.8476 24.711374469128735 6.2885521505445965 20.98387682104403 0 0 0
2650 404 13 0.4238 24.616942457168186 6.7455639846832 20.09946403589432 0 0 0
2652 404 13 0.4238 24.36800013148398 5.354516096722724 20.885725315933886 0 0 0
2487 349 13 0.4238 24.039644123420775 7.48888555693851 22.20058714967788 0 0 0
2701 421 13 0.4238 23.825798174298335 3.442681752977843 19.500388255080956 0 0 0
2702 421 14 -0.8476 23.75443366517295 3.7514287230484777 20.448831619262382 0 0 0
2332 298 13 0.4238 19.68729334744909 10.493464885769562 22.330300177576696 0 0 0
1392 76 11 -0.8 20.330352597793098 9.904423146138146 23.99987101871843 0 0 0
330 18 5 0.08 20.8712816290711 9.045240738876561 20.243365724900244 0 0 0
331 18 5 0.08 22.448288162769654 8.659573082415697 19.341879476976136 0 0 0
325 18 2 0.235 21.570549885906367 9.29734514517342 19.446169794329055 0 0 0
708 38 3 0.35 19.582766676724315 3.652012896436688 19.866773224813542 0 0 0
705 38 2 0.235 19.787627085444644 32.84752766395169 21.768195666836885 0 -1 0
2486 349 14 -0.8476 23.526757699453512 8.036579922568777 22.861601831291196 0 0 0
2485 349 13 0.4238 24.151621516210337 8.560317978769577 23.44057206631651 0 0 0
704 38 1 -0.48 18.989549111661557 3.346912143875576 20.625105593699068 0 0 0
2590 384 13 0.4238 20.426854590801984 8.478779670818938 23.313214008168217 0 0 0
334 18 5 0.08 23.88406025419385 10.025296663921978 20.910496653027987 0 0 0
1390 76 9 0.7 20.562125582635204 10.432893241687186 25.099738654238823 0 0 0
329 18 4 0.18 20.760201198157826 9.32462357257275 18.19564866705646 0 0 0
2202 254 13 0.4238 27.87035810186657 28.593777220087805 32.17763747815425 0 0 -1
341 18 8 0.418 19.355212794335557 10.748838090497106 18.232552148894648 0 0 0
1465 86 12 0.06 22.734328451894978 7.400640486605207 27.38367370922624 0 0 0
925 49 7 0.04 3.318526818407703 26.524464412283695 18.48218582768316 0 0 0
1591 104 12 0.06 23.37271977992736 32.67576929565541 25.61815869097079 0 -1 0
1928 163 14 -0.8476 20.717485364405274 3.8632968133035632 18.849762297723316 0 0 0
2490 350 13 0.4238 28.400986037038184 6.690992377819526 23.23609617163166 0 0 0
2563 375 13 0.4238 26.62142710524974 8.100784630437959 20.74340129253258 0 0 0
1470 87 11 -0.8 25.79339764218998 8.903017181615333 19.372293440683187 0 0 0
2565 375 13 0.4238 26.214722242340052 7.134560403407695 21.644976239415964 0 0 0
2564 375 14 -0.8476 27.075412820608623 7.620757118183292 21.494023264194922 0 0 0
2191 251 13 0.4238 25.849983788022417 9.945075148143692 24.7957678251444 0 0 0
641 34 7 0.04 32.11985858346944 9.474699618614292 25.15830446748607 0 0 0
2489 350 14 -0.8476 28.651279126313657 5.888878282265148 23.778247187093854 0 0 0
2026 196 13 0.4238 28.067301715003424 4.13672222442664 23.266997673811765 0 0 0
2488 350 13 0.4238 28.060573246136958 6.013301977431011 24.57545988541709 0 0 0
1984 182 13 0.4238 27.589544846824076 8.31573391147016 18.530574497629743 0 0 0
1985 182 14 -0.8476 28.295041610951053 7.6218785861232 18.674798257027007 0 0 0
2714 425 14 -0.8476 29.483936095322953 4.4288159862529675 18.695564863734617 0 0 0
452 24 6 -0.6830000000000001 24.659706101441756 27.658670764651006 18.16042520559682 0 0 0
1986 182 13 0.4238 28.026488713812135 7.273104900927326 19.572683398098402 0 0 0
2715 425 13 0.4238 28.951882481541677 5.143692641131038 19.149251579076925 0 0 0
2192 251 14 -0.8476 25.47899777792605 9.79428695211489 23.87947409986586 0 0 0
2193 251 13 0.4238 26.03681608729424 10.275514313403 23.203293428326408 0 0 0
2672 411 14 -0.8476 29.032196531503725 9.396582796864397 22.16269529732433 0 0 0
2673 411 13 0.4238 28.45308284518799 8.686716863961937 21.761847389562806 0 0 0
633 34 4 0.18 31.845404222904047 10.482066633836162 24.845349965684058 0 0 0
634 34 5 0.08 29.625006763844755 10.336758033878027 24.480284347309 0 0 0
2151 237 13 0.4238 29.536427752832115 32.716403039694086 20.233023956312486 0 0 0
640 34 7 0.04 32.113977935780206 10.768838275777963 23.828647341125627 0 0 0
2577 379 13 0.4238 25.835494130213554 10.754294455768365 19.624231318675214 0 0 0
1109 59 5 0.08 30.9534023412465 3.3871486997641775 23.5230897427177 0 1 0
2027 196 14 -0.8476 28.037965263086544 32.838926988525444 22.827658651173824 0 -1 0
1112 59 5 0.08 30.272916846786163 4.842566038391861 25.514761211236156 0 1 0
2201 254 14 -0.8476 27.96151571962455 29.583533424799754 32.287341055893364 0 0 -1
920 49 5 0.08 6.066655841761586 27.88770162161024 18.626603706937605 0 0 0
321 17 7 0.04 6.069477851560549 10.526811539718185 20.55266551713242 0 0 0
319 17 6 -0.6830000000000001 4.387800434694349 10.434955074320836 21.638902943325412 0 0 0
755 40 7 0.04 9.78647011322347 11.327165688114132 22.83027557178801 0 0 0
1732 124 12 0.06 8.641087627085664 12.066049475319307 18.932146179376176 0 0 0
1731 124 12 0.06 7.7601940659534465 13.360872843997663 19.816846642798712 0 0 0
320 17 7 0.04 4.615714700145642 11.27911867208656 19.81208675416413 0 0 0
313 17 4 0.18 5.183467668082789 11.135973079837584 20.73144520139659 0 0 0
315 17 5 0.08 6.64013265177948 12.5616646471484 21.543933235037247 0 0 0
308 17 3 0.35 5.2540520620326605 11.952890321228478 23.41227832198471 0 0 0
307 17 2 0.235 5.560971042806286 12.472051582633451 21.41970041865916 0 0 0
314 17 5 0.08 5.217416455464376 13.338316926955242 20.854361039969596 0 0 0
305 17 1 -0.48 5.008053113604098 12.698113300654736 22.776520221633763 0 0 0
753 40 6 -0.6830000000000001 8.275229524448559 12.257498377267058 23.94084997272975 0 0 0
759 40 8 0.418 8.781000017179148 12.886712734731175 24.43204864832862 0 0 0
309 17 3 0.35 3.9992654966697847 12.746944158899785 22.771615585897106 0 0 0
306 17 2 0.235 5.411602276975522 13.984094527566766 23.287590367967663 0 0 0
312 17 5 0.08 6.4925057966044335 14.123962440286027 23.27581878023359 0 0 0
316 17 6 -0.6830000000000001 3.418599674673 14.232003385605905 24.67076333644101 0 0 0
1727 124 10 -0.28 8.681708948823282 12.782291033689308 19.75275695439807 0 0 0
1987 183 13 0.4238 8.212610686755504 15.488137271657076 20.958968232967443 0 0 0
311 17 5 0.08 4.970075449567902 14.748701367854203 22.648462341880755 0 0 0
310 17 4 0.18 4.8316729225309185 14.411641271587467 24.65289689068803 0 0 0
317 17 7 0.04 5.051042262347865 15.433058158789873 24.963764531213506 0 0 0
1989 183 13 0.4238 6.709442312227926 16.080347739030387 21.05953612251876 0 0 0
1988 183 14 -0.8476 7.491631431570392 15.762401506646464 21.595308933585734 0 0 0
1792 133 11 -0.8 3.9811484779492323 16.487872069116328 20.80107298512487 1 0 0
1726 124 9 0.7 9.829178618842693 13.687941169585224 19.626123287999643 0 0 0
1137 60 7 0.04 10.38117135919509 14.806790071668294 21.91638122809401 0 0 0
2038 200 13 0.4238 9.779403798219258 16.4906623388239 19.67969010889038 0 0 0
2039 200 14 -0.8476 10.355625998532524 17.231936616424562 20.02384627298802 0 0 0
1729 124 11 -0.8 9.639390067237798 14.880768367806802 19.277889146906688 0 0 0
1791 133 11 -0.8 5.748139492103998 17.578663199899047 20.279263370843474 1 0 0
1730 124 12 0.06 8.665080390684093 12.12541014539548 20.622403445722544 0 0 0
2040 200 13 0.4238 10.767484096094663 17.621623075489445 19.20014772842533 0 0 0
1338 71 5 0.08 32.85133222028921 17.422238102782956 24.132551346415234 0 0 0
2014 192 13 0.4238 7.004959937232375 17.451977499620376 19.108236414862738 0 0 0
1789 133 9 0.7 4.515095462291106 17.494411396158405 20.214786708448848 1 0 0
2712 424 13 0.4238 25.380340904918114 3.942625304238736 31.870300220317542 0 0 -1
2015 192 14 -0.8476 7.360370294917154 17.61491639906642 18.187857557033272 0 0 0
855 45 8 0.418 32.72593833884566 26.407191769016464 27.94116217004882 0 0 0
500 27 4 0.18 14.09570939324867 16.450420153129237 18.368220766302493 0 0 0
2345 302 14 -0.8476 10.955429553106194 10.050689765391478 19.330836840759787 0 0 0
1138 60 7 0.04 10.766026256212946 15.158752438704019 23.51418950337091 0 0 0
2623 395 13 0.4238 17.774670954333992 15.859286010081535 18.282272818010007 0 0 0
1728 124 11 -0.8 10.916437758007621 13.08418626467193 19.60870465040877 0 0 0
2344 302 13 0.4238 10.401325249438962 10.88178325202951 19.283789818888373 0 0 0
1128 60 5 0.08 13.163033063499624 11.54599735348997 21.126958731866036 0 0 0
1123 60 2 0.235 13.72437418157224 12.478007450536044 21.19259014735536 0 0 0
1840 140 11 -0.8 12.727508963669672 10.605696905599578 24.02466047187142 0 0 0
1126 60 3 0.35 12.14427518953308 13.611306530568006 20.627754033134426 0 0 0
1134 60 7 0.04 14.125463180350936 12.727767509618705 19.106115501017534 0 0 0
266 14 8 0.418 15.750702872499563 13.07585064775412 23.846211010359024 0 0 0
1129 60 5 0.08 14.372777863681039 12.39904899092928 22.06516807624655 0 0 0
1127 60 4 0.18 14.66584584695038 12.642018595757374 20.04881786654405 0 0 0
1133 60 6 -0.6830000000000001 15.224668132466629 13.966947184254058 20.137638035662274 0 0 0
1131 60 5 0.08 11.597958950962488 12.646063553818294 22.731075295039414 0 0 0
1122 60 1 -0.48 12.858966232488298 13.620765080095191 21.34132815771954 0 0 0
1132 60 5 0.08 12.8166120403557 13.622711145132861 23.357947430535525 0 0 0
1124 60 2 0.235 12.080952162094572 13.606976854805435 22.553826103889524 0 0 0
1125 60 3 0.35 13.362791699220075 14.49046081830501 21.242082220388756 0 0 0
262 14 6 -0.6830000000000001 15.659982972665372 13.802323102535434 24.443704211687603 0 0 0
1135 60 7 0.04 15.476661415940697 11.915236318320627 19.999627550408626 0 0 0
264 14 7 0.04 17.83516587895256 14.066384507127882 24.594183897152014 0 0 0
256 14 4 0.18 16.864981253110763 14.10255487585299 25.089650896584985 0 0 0
1139 60 8 0.418 16.154365001775957 13.910299384387168 19.978122549295133 0 0 0
1136 60 6 -0.6830000000000001 11.985378139869917 16.031185554887653 22.09766818637176 0 0 0
1130 60 4 0.18 11.248235856634974 14.910932085746733 22.56861402511436 0 0 0
425 23 5 0.08 13.761331950522925 16.219966957684647 24.300350374301683 0 0 0
420 23 2 0.235 13.955714672771897 17.29140115160088 24.348289434939645 0 0 0
1408 78 12 0.06 16.60311689995465 16.048222067618305 21.265094636125898 0 0 0
1409 78 12 0.06 17.61412791793586 15.0909343735375 22.21861256651748 0 0 0
1405 78 10 -0.28 17.583398993287965 16.07028355815323 21.74113487196219 0 0 0
1140 60 8 0.418 11.555666335624801 16.358671322286316 21.32236739483856 0 0 0
1410 78 12 0.06 17.695036172964603 16.783281285918843 22.55797357038375 0 0 0
431 23 7 0.04 14.621646347717316 17.072711107643535 22.340813018716965 0 0 0
1838 140 9 0.7 13.63031777062 10.713357232103379 24.944732166807178 0 0 0
501 27 5 0.08 15.694719228280777 16.941054749403683 19.6617312383183 0 0 0
1913 158 14 -0.8476 18.04914339372364 13.23621178308379 20.16517340344546 0 0 0
426 23 5 0.08 14.466037262331904 17.423677129988864 25.302295727896738 0 0 0
2221 261 13 0.4238 17.16804647168655 12.177425340204227 21.747476744951953 0 0 0
2222 261 14 -0.8476 16.664884390586277 12.097404556661171 22.607933556664776 0 0 0
1914 158 13 0.4238 18.760891671526654 13.726618873856333 19.662303925604046 0 0 0
2223 261 13 0.4238 16.898451044243632 11.226624260262028 23.04054250381286 0 0 0
1912 158 13 0.4238 18.45970215060307 12.405027724780714 20.540054763071975 0 0 0
512 27 8 0.418 12.375827888403126 15.794639852467332 19.08047464317945 0 0 0
506 27 6 -0.6830000000000001 13.004381799776487 16.443784950698692 19.357099039321238 0 0 0
2126 229 14 -0.8476 30.336037448520514 25.243204320498787 18.486895374756024 -1 0 0
930 49 8 0.418 32.16729130137465 28.489638270154803 18.50416568928064 -1 0 0
333 18 5 0.08 22.35387520603684 10.127932081626817 21.82475778230692 0 0 0
1396 76 12 0.06 22.78420589096581 10.541612423711896 24.94955465819115 0 0 0
1407 78 11 -0.8 18.29249012096461 16.72643908005417 19.521619841419206 0 0 0
831 44 7 0.04 22.24354393786493 9.871253961641095 32.31204978579568 0 0 0
1404 78 9 0.7 18.614998910544376 16.331396185368703 20.678450996834197 0 0 0
324 18 1 -0.48 22.118980542111377 10.607297954383183 19.814498438119468 0 0 0
2343 301 13 0.4238 19.69191140432667 13.299530637986368 22.58827070525278 0 0 0
2342 301 14 -0.8476 20.425296081893165 13.97902735590383 22.60808206296206 0 0 0
2030 197 14 -0.8476 20.240848427004053 14.08280104806976 18.816902139808363 0 0 0
2029 197 13 0.4238 20.856924288763697 13.752923421501643 19.53215944647522 0 0 0
2341 301 13 0.4238 20.12939546394477 14.754251430811058 22.0500212368716 0 0 0
328 18 3 0.35 21.372689334735053 11.263500517459091 19.99479871883771 0 0 0
342 18 8 0.418 21.82111699051882 13.430330114863109 21.66563652102651 0 0 0
338 18 6 -0.6830000000000001 22.139415780342844 12.926174545022784 20.93249021230601 0 0 0
339 18 7 0.04 23.26636945505677 12.202921698944493 22.417714736253185 0 0 0
340 18 7 0.04 24.13272397471801 12.431218955386568 20.951336396313025 0 0 0
332 18 4 0.18 23.189122996650333 12.049675219772931 21.341330734293336 0 0 0
326 18 2 0.235 22.94287178905061 10.564399168306437 21.01813916357719 0 0 0
327 18 3 0.35 22.65497267050308 11.085366045515588 19.10441117461636 0 0 0
892 47 8 0.418 24.31357508836547 14.640066652491058 24.71786726268231 0 0 0
886 47 6 -0.6830000000000001 25.167633108344194 14.299668752861637 24.93628119251918 0 0 0
2451 337 13 0.4238 21.730623250391606 14.496386083166884 23.516146458476097 0 0 0
2450 337 14 -0.8476 22.585878645453842 14.854254026461252 23.890889119664866 0 0 0
1648 112 12 0.06 24.531469996405956 15.000628632781911 20.826909859286253 0 0 0
2031 197 13 0.4238 20.18078163888884 15.073913857693634 18.935430329104033 0 0 0
1406 78 11 -0.8 19.81881385926803 16.084167170803752 21.009647077074362 0 0 0
2232 264 13 0.4238 20.58042833150744 17.58234931315097 21.838543094587866 0 0 0
2050 204 13 0.4238 22.380673076731675 17.691753520974288 22.47003477348426 0 0 0
2051 204 14 -0.8476 23.22786482906629 17.18887753159236 22.641339692964216 0 0 0
2052 204 13 0.4238 23.831041861839584 17.80104817163422 22.13008053956631 0 0 0
2449 337 13 0.4238 22.903028184679822 15.672401666330442 23.41129166217671 0 0 0
1643 112 10 -0.28 24.795646717609433 15.351554735118459 19.829355043719133 0 0 0
2092 218 13 0.4238 24.918933637391625 11.904680229038648 18.44425910396951 0 0 0
1092 58 4 0.18 19.473539699988084 16.81481440826549 24.768709060006355 0 0 0
1100 58 7 0.04 19.56863726949148 15.730129682652317 24.719014430726038 0 0 0
1647 112 12 0.06 25.077916821427383 14.45667936014055 19.274759982549224 0 0 0
1720 123 10 -0.28 22.084668414790283 18.176500032820584 18.424173723968885 0 0 0
887 47 7 0.04 24.24355934375943 12.488122742882204 24.903121095973976 0 0 0
1646 112 12 0.06 23.92583039598136 15.756741903765421 19.31234735089415 0 0 0
1099 58 7 0.04 20.03002064199178 16.993372469883653 23.848654654334574 0 0 0
1098 58 6 -0.6830000000000001 18.066685448528844 17.20529906294514 24.992278850021787 0 0 0
26 2 5 0.08 11.255847447773764 28.589504628637737 32.57766248292465 0 0 0
1394 76 12 0.06 21.91631098798433 12.031938025323257 24.853123040684583 0 0 0
1391 76 10 -0.28 21.89667787095904 11.050114508692737 25.3260831788824 0 0 0
1723 123 12 0.06 21.777118626933987 17.430095773716275 19.15653144954549 0 0 0
2089 217 13 0.4238 11.330462888060667 25.826609336755908 18.202710522792756 0 0 0
2551 371 13 0.4238 32.19960413396421 9.860545345082414 20.927444640304483 0 0 0
2553 371 13 0.4238 30.53450483763065 10.090259864621324 21.123094545423516 0 0 0
322 17 8 0.418 32.746118959043564 14.365164926839368 25.5657486218641 -1 0 0
274 15 5 0.08 25.27185247277443 17.160769227897937 24.01828436379393 0 0 0
2671 411 13 0.4238 28.529834568841956 10.245141305940763 21.99673646936915 0 0 0
2107 223 13 0.4238 3.508298926609357 15.145443545332949 19.90065985181731 1 0 0
994 53 4 0.18 29.432170947864982 15.88234195532471 19.422902218674295 0 0 0
1642 112 9 0.7 25.802853751392675 16.439600427389593 19.756602996185684 0 0 0
2552 371 14 -0.8476 31.403778553158322 10.448419763292257 20.78243776025009 0 0 0
1645 112 11 -0.8 26.05125035775777 17.109681527186197 20.7925858499539 0 0 0
1864 143 12 0.06 26.89764464904093 13.423614832431424 23.36827453475456 0 0 0
2576 379 14 -0.8476 26.255598071268423 11.661305920729875 19.652589491655018 0 0 0
1865 143 12 0.06 27.78326897321427 14.77477566111753 22.495386458704495 0 0 0
1860 143 10 -0.28 27.32121627104051 13.789549974675593 22.433003125376164 0 0 0
1863 143 12 0.06 26.518638592517927 13.848653971503818 21.69786381558455 0 0 0
1862 143 11 -0.8 27.95271076140714 11.653355656022375 21.585129618911626 0 0 0
1859 143 9 0.7 28.31606778772864 12.655108575841206 22.215150603715326 0 0 0
1970 177 14 -0.8476 31.940615424613885 12.827295153179909 22.140647587869694 -1 0 0
2575 379 13 0.4238 26.96780001517653 11.538625834505332 20.343733078878863 0 0 0
1971 177 13 0.4238 32.01188247218995 11.924939939802552 21.715632985377418 -1 0 0
995 53 5 0.08 29.326284449024687 13.821538744992957 19.231247688741398 0 0 0
632 34 3 0.35 30.358496665438334 12.538850056660277 24.357048862140495 0 0 0
1969 177 13 0.4238 30.959557157830215 12.7668444573782 22.32458164008031 -1 0 0
1861 143 11 -0.8 29.434356977655348 12.625650190255199 22.831266558314063 0 0 0
2085 215 13 0.4238 31.259358846092063 11.409737388149479 19.07582130915058 -1 0 0
996 53 5 0.08 27.778032883748846 14.45911227512904 19.76698323017059 0 0 0
2109 223 13 0.4238 32.65805527824933 13.893045767006566 20.62674194396063 0 0 0
2108 223 14 -0.8476 32.641712817254785 14.282701482799807 19.705947268553484 0 0 0
272 15 4 0.18 27.36317021525527 16.93452667187175 24.41999406601932 0 0 0
1001 53 7 0.04 30.01686485370733 15.656438058447502 20.314616726004672 0 0 0
1343 71 7 0.04 30.39453955615175 15.925951558798982 23.262275686773744 0 0 0
280 15 7 0.04 27.33276309126501 16.07471768053042 25.08921597613558 0 0 0
1344 71 7 0.04 32.121377613447166 15.841041016537396 22.658992257855385 0 0 0
1336 71 4 0.18 31.29288225849854 16.4736369547756 22.97753876542272 0 0 0
1348 71 8 0.418 31.893935380238435 17.33022506586552 21.434221790313853 0 0 0
1342 71 6 -0.6830000000000001 31.043710310112115 17.281971800330847 21.8438307521461 0 0 0
1337 71 5 0.08 31.598550432457312 16.679692421014057 25.044326321365766 0 0 0
1332 71 2 0.235 31.768384675792298 17.303458668285494 24.16675800470799 0 0 0
1644 112 11 -0.8 26.27635841738999 16.70116406577517 18.642741883802238 0 0 0
990 53 2 0.235 28.606023771260546 14.625120007595825 19.077834054100975 0 0 0
1002 53 7 0.04 28.78693709586584 16.7126405892067 19.709836910606178 0 0 0
279 15 7 0.04 27.55612960628903 16.53525037163548 23.42430378347896 0 0 0
854 45 8 0.418 3.3075494493842825 30.851656587120956 29.275857478683463 1 0 0
1000 53 6 -0.6830000000000001 30.303673190417197 16.198136231410274 18.402761875161705 0 0 0
2083 215 13 0.4238 32.04953527621018 12.726665460983229 18.83283267122185 -1 0 0
268 15 2 0.235 26.122206924992387 17.809529619414825 24.228192637756855 0 0 0
273 15 5 0.08 26.128078935994974 18.32233934854927 23.266399669812905 0 0 0
629 34 2 0.235 30.325821222060384 10.782014386490179 25.18644296419433 0 0 0
628 34 1 -0.48 30.298651022603185 12.193798959103356 25.30437078892054 0 0 0
914 49 2 0.235 5.2311207672779885 27.312296986947917 19.02515688299639 0 0 0
983 52 7 0.04 7.167650625480988 17.72352944057037 23.39136057577255 0 0 0
982 52 7 0.04 6.260939096605508 18.19540169526322 24.737765687934107 0 0 0
987 52 8 0.418 5.3783418717088605 18.337810230729872 22.259264037232924 0 0 0
860 46 3 0.35 9.762562998634444 20.073717795691604 19.443619423302057 0 0 0
975 52 4 0.18 6.587489787079404 18.56663828524553 23.766373824014433 0 0 0
981 52 6 -0.6830000000000001 5.293790040716373 18.620006338336896 23.157154334791077 0 0 0
870 46 6 -0.6830000000000001 7.550913819876582 19.211687290745637 20.858492029414883 0 0 0
864 46 4 0.18 7.289500771080105 20.52977526559361 20.477649483620297 0 0 0
971 52 2 0.235 7.33488460071402 19.915418934454358 23.96291321270884 0 0 0
874 46 8 0.418 6.900704617264774 18.606177718961504 20.5366587031329 0 0 0
977 52 5 0.08 8.242419374117716 19.94394887752367 23.35990350105606 0 0 0
979 52 5 0.08 4.824102707783985 20.47422705821908 24.833640259039864 0 0 0
976 52 5 0.08 7.680603510201154 19.98440636362852 24.994307022410343 0 0 0
871 46 7 0.04 7.769879868674344 21.159401003765343 21.226556282231464 0 0 0
872 46 7 0.04 6.26877892359035 20.897976678600138 20.58064796201597 0 0 0
974 52 3 0.35 6.104974683515719 20.912760753330538 22.661715195757193 0 0 0
970 52 1 -0.48 6.459510381006609 21.06310481433907 23.595396965586808 0 0 0
973 52 3 0.35 7.072084084258597 21.86244734871847 23.67198877141669 0 0 0
2315 292 14 -0.8476 6.2324036364244595 23.92509801030421 20.501703855624406 0 0 0
984 52 6 -0.6830000000000001 4.170722741221829 22.041821339359835 22.685557759255946 0 0 0
978 52 4 0.18 4.405342662886273 22.404207772014928 24.00619058864804 0 0 0
986 52 7 0.04 4.818709509031186 23.412538938581616 24.0274071021857 0 0 0
988 52 8 0.418 3.899215770506328 22.81071464984066 22.207983154975437 0 0 0
2316 292 13 0.4238 6.688782101641827 23.592832708434877 21.327101127611428 0 0 0
972 52 2 0.235 5.37846214143331 21.378930783744778 24.584139125984585 0 0 0
1705 121 9 0.7 7.6789900175743036 23.914885867229845 23.820069226818028 0 0 0
1707 121 11 -0.8 7.742567526284095 23.21264735503606 22.768034942778254 0 0 0
2602 388 13 0.4238 9.049817303721259 23.764413601004424 20.038762751742865 0 0 0
2022 194 13 0.4238 7.36345336457874 24.60605651122081 19.470235076762563 0 0 0
2314 292 13 0.4238 5.270900610738933 24.108773961541566 20.7060030607354 0 0 0
2021 194 14 -0.8476 8.199472884788479 24.748495508104963 18.940382449775157 0 0 0
1790 133 10 -0.28 3.705764184274736 18.39635778376551 19.32394655172909 1 0 0
437 23 8 0.418 10.205044030865938 18.60146597970855 23.763287766925167 0 0 0
433 23 6 -0.6830000000000001 9.78662532652823 18.24636595817054 24.532586403063547 0 0 0
1708 121 11 -0.8 7.752283196589902 23.442788845154958 24.981868611529432 0 0 0
1784 132 11 -0.8 3.654672641344898 24.292508850892098 21.497560425447364 1 0 0
985 52 7 0.04 3.5087160801907724 22.393462015257008 24.625867378448294 0 0 0
2604 388 13 0.4238 9.09482326283433 23.290844489359547 21.607960022165177 0 0 0
2603 388 14 -0.8476 9.639898622365294 23.46174040096163 20.787198289845904 0 0 0
2157 239 13 0.4238 5.995310723281314 19.552397027269677 31.991346809523886 0 0 0
507 27 7 0.04 14.418089706850957 15.436214750334623 18.132610139504653 0 0 0
1887 149 13 0.4238 11.001095021569888 18.186528050528523 21.50737758246986 0 0 0
2670 410 13 0.4238 10.920235593826028 21.92368747296031 20.773060727885806 0 0 0
2179 247 13 0.4238 26.848865945170278 27.335935944000923 28.411426880480626 0 0 0
1781 131 12 0.06 8.027036918189335 29.895134448902652 19.531687352155455 0 0 0
2424 328 13 0.4238 10.378842153616294 24.846013313260418 20.391041015130345 0 0 0
980 52 5 0.08 5.89536383424799 21.70749534950894 25.485755448571354 0 0 0
432 23 7 0.04 15.888483102720965 17.564150218985006 23.393594285386133 0 0 0
423 23 3 0.35 12.172170227485637 17.848782025380004 23.514550333984968 0 0 0
496 27 2 0.235 15.245510662991881 17.312344566497437 18.740639747538566 0 0 0
424 23 4 0.18 14.843092935579447 17.761288367944488 23.156212806903632 0 0 0
419 23 1 -0.48 12.721049621341638 18.085945075778824 24.328519737817544 0 0 0
396 21 7 0.04 10.531076218735008 23.35773494988599 23.717261595994746 0 0 0
499 27 3 0.35 14.080936279622808 18.55543987063694 19.907742303887783 0 0 0
1886 149 14 -0.8476 11.349352548315753 18.828431558295797 22.19048699629719 0 0 0
1885 149 13 0.4238 11.25949655445589 19.65426265542114 21.63380806290043 0 0 0
505 27 5 0.08 16.49911453460969 19.558475541589463 18.86590507843932 0 0 0
2669 410 14 -0.8476 11.109278658915926 20.99763738937447 20.44647864151423 0 0 0
509 27 6 -0.6830000000000001 14.085349172060953 20.503068539078157 20.719410522540514 0 0 0
495 27 1 -0.48 14.757916838873346 18.590626554631257 19.159063590733886 0 0 0
430 23 6 -0.6830000000000001 14.654710427639479 19.104688690442963 22.841714180973312 0 0 0
503 27 4 0.18 15.338692101655765 20.78820781471927 20.16868804924755 0 0 0
497 27 2 0.235 15.860981085187271 19.42007694536646 19.738651071073694 0 0 0
504 27 5 0.08 16.37858899354031 18.934148013880364 20.565699599581258 0 0 0
436 23 8 0.418 14.958901764937062 19.664209786515514 23.539850437381823 0 0 0
2668 410 13 0.4238 11.89395326016409 21.00387860607561 19.82663261578123 0 0 0
513 27 8 0.418 14.254767615155988 20.053093281203317 21.532927689226906 0 0 0
511 27 7 0.04 15.314325517966813 21.307969846252583 19.21092618900149 0 0 0
2018 193 14 -0.8476 13.858531342259827 23.095466094748073 21.737220681298208 0 0 0
2019 193 13 0.4238 13.66395753429904 22.322161632480025 21.13381126994443 0 0 0
2017 193 13 0.4238 14.451512934053126 22.83688574823307 22.49976456987797 0 0 0
510 27 7 0.04 15.973775721910267 21.330647118852717 20.869032547199666 0 0 0
2659 407 13 0.4238 16.148500855754442 22.159810478122125 24.193324435254834 0 0 0
2718 426 13 0.4238 13.853925199952611 24.722479263316067 21.098507488356727 0 0 0
2660 407 14 -0.8476 15.263846504364233 22.228621198054544 23.732224517547742 0 0 0
422 23 3 0.35 12.945509399095505 19.06695639557549 24.243104657606374 0 0 0
395 21 6 -0.6830000000000001 11.437626311219743 21.609455849291248 24.163040824049737 0 0 0
389 21 4 0.18 11.360473003687153 23.041317453144895 24.349744799701327 0 0 0
399 21 8 0.418 12.29462543238189 21.316663937613903 24.432884920393377 0 0 0
397 21 7 0.04 12.238097132037513 23.564230299838144 23.96975517523499 0 0 0
1459 85 12 0.06 17.233837294977214 19.486196721617894 23.375343115056854 0 0 0
2717 426 14 -0.8476 13.70617085398626 25.551494985269095 20.559189277568613 0 0 0
2716 426 13 0.4238 12.70642594900546 25.572540514749456 20.564663822209628 0 0 0
1520 94 12 0.06 17.358974437264685 22.912694187947867 19.529231125550783 0 0 0
1458 85 12 0.06 18.686916964528578 19.627546123815073 22.490923829163346 0 0 0
180 10 4 0.18 27.868005359751567 20.319252450153986 32.626785366298364 0 0 0
498 27 3 0.35 14.33711088140156 19.034524589992806 18.355360820326965 0 0 0
620 33 6 -0.6830000000000001 22.37122014168353 6.480217833148471 32.62858805740332 0 0 0
2184 248 13 0.4238 18.8273311339288 18.378230429377247 19.499227735036975 0 0 0
2231 264 14 -0.8476 21.11661268920543 18.41360741020391 21.985095557827567 0 0 0
1521 94 12 0.06 17.832856732653454 22.193835128321236 18.10419909601095 0 0 0
1456 85 11 -0.8 17.587819089644114 21.82593244330982 24.739730227522507 0 0 0
1522 94 12 0.06 18.928573050399326 21.99023858346964 19.513146414153347 0 0 0
1454 85 10 -0.28 17.945477923470804 20.229577214303905 23.01616736616086 0 0 0
1457 85 12 0.06 17.407876275617504 20.9188574448907 22.36506726064947 0 0 0
1517 94 10 -0.28 18.269554919478097 22.674936593993042 18.979350577249747 0 0 0
1453 85 9 0.7 18.383322376145564 20.988432852602614 24.25153529959045 0 0 0
277 15 5 0.08 23.991435362121663 18.3661813329415 25.465730571951912 0 0 0
2183 248 14 -0.8476 18.91616439700467 19.37091437356417 19.580778853143368 0 0 0
2182 248 13 0.4238 19.870890999111264 19.64714374813165 19.691037856340092 0 0 0
2230 264 13 0.4238 21.27006757235903 18.895372346770323 21.122358336751635 0 0 0
2115 225 13 0.4238 20.96913447342782 20.129135307720787 24.442164826827092 0 0 0
1721 123 11 -0.8 21.502157506452537 20.016286835463227 19.92091233800163 0 0 0
2113 225 13 0.4238 21.669258560743863 19.241328188647802 23.363269175482362 0 0 0
2114 225 14 -0.8476 21.83879802151677 19.67528360020958 24.248086311982092 0 0 0
276 15 5 0.08 24.421765445596023 19.808251335718055 24.436746549180146 0 0 0
269 15 2 0.235 24.60370187903599 19.261991083311848 25.362248020174334 0 0 0
1719 123 9 0.7 22.33483485765608 19.511677586854905 19.123471141596493 0 0 0
2569 377 13 0.4238 24.52322121446776 19.79126557836752 20.042464559524838 0 0 0
2570 377 14 -0.8476 25.00114186072281 19.59677787666699 20.899045211987346 0 0 0
1722 123 11 -0.8 23.407912758023855 20.04756081006705 18.85841604034311 0 0 0
1516 94 9 0.7 19.090715539144767 23.794199824567855 18.461710612164914 0 0 0
1455 85 11 -0.8 19.387019183328132 20.63918318973589 24.92049746380749 0 0 0
219 12 5 0.08 18.805780380864185 23.15663455712367 22.652159315048504 0 0 0
1519 94 11 -0.8 19.895733718140367 24.238775021011705 19.34951252245202 0 0 0
212 12 2 0.235 19.51406910922175 23.96860242414382 22.816747523539036 0 0 0
214 12 3 0.35 20.316929876023085 23.969544108572283 20.933126173643267 0 0 0
217 12 5 0.08 21.545318756639112 22.283236161325586 22.99837165200405 0 0 0
220 12 5 0.08 19.96262482823734 23.93608950511835 23.80961949811589 0 0 0
210 12 1 -0.48 20.631685364977645 23.72328254335399 21.860674203659624 0 0 0
213 12 3 0.35 21.318713706020443 24.42111966166593 22.107809690329272 0 0 0
223 12 7 0.04 23.1490563773986 21.58961839763224 21.624295644410015 0 0 0
211 12 2 0.235 21.236004615028264 22.42384261044969 21.962703444600802 0 0 0
216 12 5 0.08 20.6692909972642 21.548249019509864 21.64611923739178 0 0 0
215 12 4 0.18 22.577463907388285 22.456174737557895 21.292006169178403 0 0 0
222 12 7 0.04 22.363096052950628 22.387885888789658 20.225499217498854 0 0 0
221 12 6 -0.6830000000000001 23.273712482525895 23.67245566882854 21.54075944266335 0 0 0
227 12 8 0.418 24.067325240615013 23.482889374766977 22.0174500316897 0 0 0
773 41 7 0.04 24.515999056309223 22.808684992095184 19.268399927982905 0 0 0
2290 284 13 0.4238 23.515095577022343 24.410878428387587 24.53511582577683 0 0 0
2571 377 13 0.4238 25.33177259488815 18.654353273551713 20.84922524469018 0 0 0
766 41 4 0.18 24.4317614333232 23.484322637831955 18.417240825742994 0 0 0
767 41 5 0.08 22.21847849918181 23.6432359621569 18.326244523998568 0 0 0
1819 137 11 -0.8 25.126085845705838 25.02016723992014 24.471301372672496 0 0 0
1752 127 12 0.06 6.874378476335895 9.658646905708116 18.9318717017195 0 0 0
856 46 1 -0.48 9.00781659854999 19.991321714212752 18.777564307001196 0 0 0
2697 419 13 0.4238 27.461678433956042 26.296719141622496 31.5532432142761 0 0 -1
827 44 5 0.08 19.24296798735025 13.488085022762403 32.72077439840736 0 0 0
95 5 8 0.418 27.168331940076452 18.171159799867226 18.435446969055107 0 0 0
1990 184 13 0.4238 31.47982039568017 29.365017376900436 26.97679561253525 -1 0 0
1782 132 9 0.7 32.570107178748 25.287005319728053 21.734783786782383 0 0 0
278 15 6 -0.6830000000000001 28.493954177758546 17.651261091865216 24.93757542566895 0 0 0
93 5 7 0.04 26.023498844915284 19.922882542041226 18.67290670315981 0 0 0
1072 57 5 0.08 28.956457376983725 20.749272731680676 18.48844041615535 0 0 0
1082 57 8 0.418 32.14097413023997 22.330809364557595 20.152580245037814 0 0 0
2394 318 13 0.4238 27.032626574765217 23.334962608428768 18.469090977830945 0 0 0
1340 71 5 0.08 32.48403916218002 20.126429351522763 23.805814432695502 0 0 0
2035 199 13 0.4238 29.371352806070195 18.13049807227228 21.430258623731152 0 0 0
1817 137 9 0.7 25.76106676372767 24.225027478362527 23.751566033726814 0 0 0
1820 137 11 -0.8 25.2920517572604 23.226981099704364 23.157451396479008 0 0 0
1066 57 2 0.235 29.88754089393232 20.499960131006073 18.997341914935028 0 0 0
2037 199 13 0.4238 27.781381545253318 18.314116875080884 21.470192825862046 0 0 0
271 15 3 0.35 26.60654949627399 19.369842875622552 25.298490931848452 0 0 0
2410 324 13 0.4238 26.242049978207188 21.09159505181337 21.073481266592626 0 0 0
2411 324 14 -0.8476 26.597066136429635 22.02443211568718 21.012323111705353 0 0 0
2412 324 13 0.4238 26.081840202433366 22.517003567902716 21.713663632157473 0 0 0
2036 199 14 -0.8476 28.645591400643532 18.772099254765294 21.678411731516693 0 0 0
1335 71 3 0.35 31.459372086161473 18.822070776720444 25.36589651090096 0 0 0
1331 71 1 -0.48 31.13634379235893 18.601987336693476 24.434619521471294 0 0 0
1334 71 3 0.35 30.132666329408696 18.492712855495217 24.462028531561714 0 0 0
1333 71 2 0.235 31.47609260305245 19.752114557154282 23.62696733510746 0 0 0
1341 71 5 0.08 31.69094589041123 19.433856845365312 22.606867266840425 0 0 0
2388 316 13 0.4238 27.870885881716262 21.06193004866341 24.613608197798342 0 0 0
2387 316 14 -0.8476 27.025359493042522 21.328762220208496 25.076045365787056 0 0 0
2386 316 13 0.4238 26.435318905674677 21.884652770538377 24.49055442593247 0 0 0
2393 318 14 -0.8476 27.56367099388759 23.707175478661178 19.230281533191267 0 0 0
2392 318 13 0.4238 27.38404158467851 23.090020096293852 19.996321391233202 0 0 0
1349 71 8 0.418 29.192088126528525 19.827842719853255 22.85321884323875 0 0 0
1071 57 5 0.08 29.842545398832076 19.479184844054092 19.376877505155228 0 0 0
1346 71 7 0.04 30.437333926834498 21.372657296340297 24.689334477353714 0 0 0
1339 71 4 0.18 30.42356970512638 20.880748211427203 23.716765620959606 0 0 0
1345 71 6 -0.6830000000000001 29.194142908573763 20.309187327301295 23.66641844270069 0 0 0
1070 57 4 0.18 30.336210094982317 21.570407192139097 20.07912083504386 0 0 0
1077 57 7 0.04 29.83818815049513 21.552709687595613 21.048509793347538 0 0 0
1347 71 7 0.04 30.641050727625352 21.66109799722459 22.98751239431171 0 0 0
1076 57 6 -0.6830000000000001 31.767394709873304 21.46298872970231 20.17036472870981 0 0 0
1078 57 7 0.04 30.18606965226411 22.59127792641727 19.727930074270322 0 0 0
1818 137 10 -0.28 27.284981370074785 24.341554254920876 23.781724039650793 0 0 0
1823 137 12 0.06 27.615350165625337 25.059328920170774 24.532530313172522 0 0 0
2317 293 13 0.4238 27.46136267646653 25.578154590690477 18.98643219695453 0 0 0
1822 137 12 0.06 27.558392263545127 24.842271545382058 22.852970732562838 0 0 0
1783 132 10 -0.28 31.459067234898914 25.173119290929982 22.757988716242515 0 0 0
1788 132 12 0.06 30.51234930706048 25.55451942525692 22.375479596003927 0 0 0
1787 132 12 0.06 31.707026984152492 25.747474470559983 23.65056146144166 0 0 0
1821 137 12 0.06 27.822386831181422 23.399032478258974 23.88613714059896 0 0 0
267 15 1 -0.48 25.904924493787636 18.648853489656915 25.387694064700792 0 0 0
2420 327 14 -0.8476 25.666119721490517 30.949524127765446 30.624263637824736 0 0 0
2020 194 13 0.4238 8.194791099168075 25.74711435019558 18.888420063406596 0 0 0
1706 121 10 -0.28 7.537331020909889 25.404777203933726 23.652636506817018 0 0 0
919 49 5 0.08 5.540327085279094 26.278981198232717 19.182331952245306 0 0 0
1709 121 12 0.06 8.141184943086074 25.738223027687468 22.808700276586976 0 0 0
1785 132 11 -0.8 32.74442726449401 26.3903235770395 21.212623843672965 0 0 0
1711 121 12 0.06 8.011161985257445 25.863800255704074 24.520297822411276 0 0 0
1710 121 12 0.06 6.504996271802369 25.73588986725611 23.53992721094326 0 0 0
917 49 3 0.35 4.12479307458522 27.448617914976758 20.701206427809517 0 0 0
913 49 1 -0.48 4.919196785769662 27.904619754425653 20.27571003841134 0 0 0
922 49 5 0.08 6.371696224546829 26.92256544484296 21.509266533148118 0 0 0
916 49 3 0.35 4.568231702939007 28.849531823654942 20.21226494961309 0 0 0
927 49 6 -0.6830000000000001 5.000834910280885 29.903219630905618 22.04614190492149 0 0 0
931 49 8 0.418 4.8620980451368325 30.47652936548839 22.784422672805853 0 0 0
915 49 2 0.235 6.038881666245642 27.93270654725379 21.27072179335661 0 0 0
921 49 4 0.18 5.521847309076312 28.734040712567992 22.523221616819978 0 0 0
923 49 5 0.08 6.93148705543048 28.394819277480636 20.849103930923523 0 0 0
929 49 7 0.04 6.297644400064037 29.052539144662177 23.219462710886827 0 0 0
928 49 7 0.04 4.763460201064177 28.138003387727995 23.030806657629167 0 0 0
1114 59 6 -0.6830000000000001 3.586005431307886 31.3767267249792 24.433145430350645 1 0 0
1120 59 8 0.418 3.7491073438520166 30.66843627734327 25.037060034682558 1 0 0
1713 122 10 -0.28 9.33280632627429 29.64290337324159 24.442763703618997 0 0 0
1717 122 12 0.06 9.45029491215149 30.124371509293983 23.47197078947744 0 0 0
1548 98 12 0.06 5.997420575918456 27.63156582097201 25.646105512262082 0 0 0
491 26 7 0.04 10.66342118169669 31.599892589537372 20.22287606027421 0 0 0
1718 122 12 0.06 8.927302660610465 28.63843728439133 24.321649126927774 0 0 0
1549 98 12 0.06 4.926290061717696 26.525086565039715 26.55247450054369 0 0 0
1808 135 12 0.06 14.669469834567423 24.97624857442522 32.36801452132531 0 0 0
1775 131 9 0.7 9.046292833041889 28.086183588441028 19.04909269261482 0 0 0
1779 131 12 0.06 9.564634213291361 30.18409112949317 18.812750859011388 0 0 0
1107 59 3 0.35 32.13345778978604 3.29647849316996 25.482409978942886 0 1 0
1545 98 10 -0.28 4.963840755788999 27.399533881019355 25.902870108848155 0 0 0
1777 131 11 -0.8 10.208428318372937 27.80241946687309 19.43010122935849 0 0 0
132 7 8 0.418 11.86128535404558 28.019082806530896 19.113650023870928 0 0 0
774 41 7 0.04 24.550146465735367 24.531400116919883 18.69593017715875 0 0 0
492 26 7 0.04 12.082819007347313 32.62012359122646 20.598598413529135 0 0 0
2422 328 13 0.4238 10.629241901028493 26.488639451411387 19.97280958973016 0 0 0
2423 328 14 -0.8476 11.004363827655688 25.570760737068053 20.102206929031215 0 0 0
484 26 4 0.18 11.738049664229756 31.604373193283482 20.405105595474957 0 0 0
25 2 4 0.18 9.834659014658 27.00621817690997 32.452583714147856 0 0 0
1905 155 13 0.4238 15.216248109575396 32.36575673874854 22.30516315343827 0 -1 0
1903 155 13 0.4238 15.17488054290022 32.77295708071829 20.711986382742236 0 -1 0
1904 155 14 -0.8476 14.778840355312013 32.191826386847886 21.42290179688497 0 -1 0
126 7 6 -0.6830000000000001 12.78778762224735 28.195688319067614 19.05538790704645 0 0 0
483 26 5 0.08 13.652709064562337 29.578924865863595 23.21934460201745 0 0 0
488 26 7 0.04 14.909073167934936 27.83618775507935 21.024368016190856 0 0 0
489 26 7 0.04 15.21105449549111 27.44715165395434 22.739097662629558 0 0 0
486 26 5 0.08 12.0807610095295 31.04285042055358 22.52821645521352 0 0 0
485 26 5 0.08 11.182265815477482 29.890893956652285 21.637233189295696 0 0 0
478 26 2 0.235 12.026841490582484 30.57381764689205 21.545793438569632 0 0 0
479 26 3 0.35 13.991443364683455 30.671374685134037 21.190048085479262 0 0 0
490 26 6 -0.6830000000000001 12.411638757654352 31.343736306763798 19.174713279764973 0 0 0
494 26 8 0.418 13.093355580870217 31.983406424222494 19.036601899531803 0 0 0
476 26 1 -0.48 13.299871322572818 29.935313689449455 21.18830006585301 0 0 0
480 26 3 0.35 13.126699678877406 29.53057552498154 20.279312028589565 0 0 0
2080 214 13 0.4238 16.076729979263988 31.280061844721537 24.326047916631506 0 0 0
2081 214 14 -0.8476 15.407939295736478 32.01328610762493 24.203307873178684 0 0 0
477 26 2 0.235 13.657414991550878 29.049595787890055 22.26653685246388 0 0 0
482 26 5 0.08 12.858176423530557 28.321029291048173 22.402414450270886 0 0 0
2082 214 13 0.4238 14.643400080973388 31.799163415496217 24.811250321737422 0 0 0
481 26 4 0.18 14.988987190287483 28.245756218046207 22.03130470249548 0 0 0
487 26 6 -0.6830000000000001 16.108451030129736 29.075087367642094 21.878082121582825 0 0 0
720 38 7 0.04 16.612955077891073 31.191680299223865 18.969140072731914 0 -1 0
493 26 8 0.418 16.37732717756122 29.51754519001826 22.66860565043456 0 0 0
1413 79 11 -0.8 17.02048383706796 29.91392638382022 24.16804320481194 0 0 0
2633 398 14 -0.8476 13.052644756383756 31.44151258648808 25.276299066529564 0 -1 0
2634 398 13 0.4238 12.493240843435126 30.61534825559232 25.209352696384656 0 -1 0
1715 122 11 -0.8 11.595078331786342 28.959134149806818 24.422030356986472 0 0 0
1412 79 10 -0.28 17.530465983747014 27.82947660802235 25.071680713869004 0 0 0
1411 79 9 0.7 17.340321291596045 29.303165983626407 25.225492506528635 0 0 0
1416 79 12 0.06 17.389954707991308 27.469498629238558 26.09086004035333 0 0 0
712 38 4 0.18 17.307134849523493 32.017627363405126 19.123994745821108 0 -1 0
719 38 7 0.04 17.907745311596237 31.943349133807487 18.217460767247033 0 -1 0
714 38 5 0.08 17.52369456807353 31.558354988752463 21.192517092025955 0 -1 0
2532 364 13 0.4238 17.455916552497946 28.323274032670717 20.889327474232648 0 -1 0
1610 107 11 -0.8 32.565570930412875 26.628268472886493 31.942307596979745 0 0 -1
711 38 5 0.08 19.14007630833098 32.57804814193798 22.602529481190494 0 -1 0
2703 421 13 0.4238 23.615256450941846 32.496050332506485 20.947705393897238 0 -1 0
710 38 5 0.08 20.582091436212067 32.111089964956484 21.64761406329273 0 -1 0
218 12 4 0.18 19.000330598295864 25.367456767221604 22.549163665422746 0 0 0
226 12 7 0.04 18.86321775189191 25.83020958533618 23.52646305126862 0 0 0
2530 364 13 0.4238 17.92469198624083 28.3995629726147 19.345000855511614 0 -1 0
2531 364 14 -0.8476 18.03363059820281 27.889277448026185 20.19805607893587 0 -1 0
225 12 7 0.04 18.02952658884667 25.241573859966937 22.069844257194706 0 0 0
2587 383 13 0.4238 20.139220549675326 25.799624699991938 19.21316395538161 0 -1 0
706 38 2 0.235 18.182859985383413 31.75607503275191 20.347258695422365 0 -1 0
2589 383 13 0.4238 19.434284988386523 27.04693141978945 18.714272019610615 0 -1 0
224 12 6 -0.6830000000000001 19.79723245074241 26.163431512619052 21.728601905039067 0 0 0
228 12 8 0.418 19.25661172345001 26.71550988059551 21.18460817111049 0 0 0
2588 383 14 -0.8476 20.34945798238307 26.75091504047007 18.98775697508713 0 -1 0
713 38 5 0.08 18.818315937839426 30.89082585889843 20.15859585469367 0 -1 0
2622 394 13 0.4238 18.597304999666825 29.679129640693176 23.47810908469079 0 0 0
2621 394 14 -0.8476 19.521982696633454 29.91521501696783 23.179450425011947 0 0 0
2736 432 13 0.4238 19.94463867348922 28.478324249361393 20.430113293487796 0 0 0
2734 432 13 0.4238 20.05703933079604 29.436804049438116 21.650921392831226 0 0 0
2620 394 13 0.4238 19.7342163966551 30.717525831395143 23.737319511491933 0 0 0
1586 104 9 0.7 21.670205154153933 31.853621986672575 24.604790350421 0 -1 0
446 24 4 0.18 24.30227999525276 28.226995301761306 19.35243659368483 0 0 0
2735 432 14 -0.8476 20.56454604437016 29.147913681199878 20.839168634791093 0 0 0
665 35 8 0.418 24.782661328981558 26.491946417383833 23.35965033878945 0 0 0
454 24 7 0.04 23.23185679046597 28.42984416753738 19.319262332761944 0 0 0
2032 198 13 0.4238 22.10688569037601 30.228924660483997 21.155537366768296 0 0 0
2033 198 14 -0.8476 23.021814728736867 30.526787078151887 21.42783266246153 0 0 0
661 35 6 -0.6830000000000001 24.47330988754233 27.25040810333809 22.88845179958929 0 0 0
2034 198 13 0.4238 22.883534454175795 30.425834256637835 22.41304791182379 0 0 0
655 35 4 0.18 23.07042054540874 27.454733689678672 23.072907295731827 0 0 0
650 35 3 0.35 23.341545038561346 29.99879417358871 24.090290141592394 0 0 0
647 35 1 -0.48 23.859935469289084 29.242009110069876 24.51291268593993 0 0 0
1588 104 11 -0.8 22.266098575611576 31.0257246814729 23.8927674278494 0 -1 0
1589 104 11 -0.8 20.437699516240265 31.842305510557097 24.708589982770178 0 -1 0
453 24 7 0.04 24.446230427446256 27.43437195857205 20.086657664650495 0 0 0
663 35 7 0.04 22.724795325138825 28.217452903110065 22.375156178236953 0 0 0
662 35 7 0.04 22.530379312426323 26.517030968704066 22.942051230780606 0 0 0
649 35 2 0.235 23.016065751343106 28.051146100422446 24.516795572365957 0 0 0
2439 333 13 0.4238 19.12007761725329 32.2693275127082 25.371862074426655 0 -1 0
651 35 3 0.35 24.532837913314424 28.896381782186204 23.843730652901588 0 0 0
1417 79 12 0.06 16.800936791023126 27.40154882979373 24.38413503089587 0 0 0
657 35 5 0.08 22.034524241867125 28.458178813782396 24.7596013544663 0 0 0
448 24 5 0.08 24.73379009019079 30.318332889170556 19.20699981270865 0 0 0
440 24 2 0.235 25.195522310886613 29.472281215270364 19.71597327725092 0 0 0
447 24 5 0.08 25.28522955899207 29.612251114191515 20.79319892092069 0 0 0
660 35 7 0.04 25.047921704682615 31.744623427857015 25.097693438075808 0 0 0
648 35 2 0.235 24.552704116855885 29.670133384059135 25.737795942925235 0 0 0
850 45 7 0.04 31.344343990868765 31.049177705946438 30.910804691563307 0 0 0
1115 59 7 0.04 32.224087054545095 31.107568327951878 22.71694686923138 0 0 0
1108 59 4 0.18 31.99124052587445 31.109207887874852 23.78176320312234 0 0 0
1786 132 12 0.06 31.470127857392864 24.134511975327523 23.088483195043892 0 0 0
2318 293 14 -0.8476 27.37370630125055 26.557342319953726 19.169378838731404 0 0 0
2028 196 13 0.4238 27.367415873690042 32.19486799817989 23.195779711638806 0 -1 0
2149 237 13 0.4238 29.05363294364441 32.4423174880121 21.73338090054274 0 0 0
1104 59 2 0.235 30.899279349093288 32.16250402028342 24.233753720568103 0 0 0
1116 59 7 0.04 31.815690406251665 30.05247679625357 23.983147573974826 0 0 0
2655 405 13 0.4238 31.661114792863412 27.183686629007195 20.37626845613348 0 0 0
2319 293 13 0.4238 27.257475607040586 26.620621941867597 20.1605649933918 0 0 0
2150 237 14 -0.8476 29.7069935420752 32.14626676676838 21.03664903604445 0 0 0
438 24 1 -0.48 26.588406322200512 29.21130798279459 19.147114124211498 0 0 0
445 24 5 0.08 26.91152087710011 31.273294568866213 19.39152007175362 0 0 0
652 35 4 0.18 25.590799894458236 30.8310672063425 25.34008230657726 0 0 0
1769 130 10 -0.28 29.732805370717536 27.197729828246366 24.954002443967354 0 0 0
2069 210 14 -0.8476 27.113237252786533 27.432314917777184 21.67101817163488 0 0 0
2070 210 13 0.4238 26.241061403122565 27.30732564806297 22.143932821359947 0 0 0
2068 210 13 0.4238 27.695797257556915 27.817502841634084 22.386710499028283 0 0 0
442 24 3 0.35 27.044501189899947 28.31572103452694 19.246926032649633 0 0 0
658 35 6 -0.6830000000000001 26.143788731672643 30.629617652477254 24.030140753241103 0 0 0
439 24 2 0.235 27.396295168323345 30.315976126439594 19.582803364986294 0 0 0
2654 405 14 -0.8476 30.93514945360323 27.6950575053634 19.916444013880433 0 0 0
444 24 5 0.08 27.578672078204484 30.32852452987424 20.657342905726708 0 0 0
2653 405 13 0.4238 30.5935745861032 28.291148269225207 20.64305611822323 0 0 0
664 35 8 0.418 26.81149439029803 29.964429075166414 24.098579473856493 0 0 0
1110 59 5 0.08 29.894329445470905 31.74098136213407 24.212578325014224 0 0 0
1768 130 9 0.7 28.75150725625374 28.340809189963863 24.783876629992854 0 0 0
1770 130 11 -0.8 28.243130984861793 28.51236538910407 23.662633424751395 0 0 0
2188 250 13 0.4238 29.155722850244544 29.32809271637767 22.533536920812377 0 -1 0
2190 250 13 0.4238 29.943946117176505 30.427180262159943 21.714179508152444 0 -1 0
2189 250 14 -0.8476 29.798422345553305 29.43975474421996 21.775623787196558 0 -1 0
450 24 7 0.04 29.598859439578085 30.47510349957348 19.121802992346673 0 0 0
2125 229 13 0.4238 29.339730843770884 25.171205450213535 18.533270897801525 -1 0 0
1773 130 12 0.06 29.418183702234685 26.547863819309324 24.13746009362847 0 0 0
2127 229 13 0.4238 30.498509429212373 26.012105245702053 19.105244975693818 -1 0 0
659 35 7 0.04 26.5598105540606 30.844614654960694 25.838969951955328 0 0 0
1771 130 11 -0.8 28.680358472221783 29.16738790830471 25.719953064642056 0 0 0
1778 131 11 -0.8 8.18081924778362 27.228933371196224 18.85219133623169 0 0 0
1772 130 12 0.06 29.485871124215283 26.727382893206297 25.905764639492183 0 0 0
1550 98 12 0.06 4.503321846376894 27.163323396591164 24.943609469272538 0 0 0
443 24 4 0.18 28.643697849741244 30.3575720006017 18.610034684810735 0 0 0
1106 59 3 0.35 31.266862352572648 31.69994342911032 26.076521080029938 0 0 0
1774 130 12 0.06 30.799723630065387 27.411646364813993 24.890921805248144 0 0 0
1103 59 1 -0.48 31.182163678945685 32.56803166956148 25.567296600435004 0 0 0
866 46 5 0.08 6.9905665184413746 20.71907664215425 18.42162906382796 0 0 0
2046 202 13 0.4238 23.642485979471363 25.607753228573262 32.72633092726332 0 0 0
1855 142 11 -0.8 6.68001798151721 9.583978658683703 25.813830974027688 0 0 0
746 40 3 0.35 8.253024474697998 10.000691180987436 25.831270883869202 0 0 0
1117 59 6 -0.6830000000000001 31.96273426909895 4.424236265465555 27.67994359466111 0 1 0
1896 152 13 0.4238 7.025812558379879 9.242210903268635 30.05064715770414 0 0 0
751 40 5 0.08 10.024658466252092 8.88732570173665 26.809587658920414 0 0 0
757 40 7 0.04 9.367565532193092 9.391408480923964 29.250761192236716 0 0 0
760 40 8 0.418 7.415731533178662 9.241408988506514 27.290900462695586 0 0 0
756 40 6 -0.6830000000000001 7.77485752358029 8.998876468408724 28.130660537703186 0 0 0
744 40 2 0.235 9.765275754142039 9.885395586745174 27.16261907014558 0 0 0
750 40 4 0.18 8.884623008885733 9.844263721407462 28.38488437359566 0 0 0
1895 152 14 -0.8476 7.157032680130987 9.709780523325172 30.92478771089795 0 0 0
1894 152 13 0.4238 6.394351992190209 9.420666558761681 31.503314408487714 0 0 0
1661 114 12 0.06 25.996529259215215 4.266194522582658 18.95419414380578 0 0 0
2478 346 13 0.4238 4.200533608845799 8.228471500138486 32.54601951294718 1 0 -1
1996 186 13 0.4238 8.158185276764499 9.296880848539882 32.41572941946322 0 1 0
752 40 5 0.08 10.725450024301377 10.39426477204444 27.24730397994929 0 0 0
742 40 1 -0.48 9.075181046816018 10.543807033896638 26.052957376902253 0 0 0
758 40 7 0.04 8.557388436543574 10.857879668050941 28.616302320736903 0 0 0
1884 148 13 0.4238 10.051613563618272 3.3180803930648337 26.6653215469943 0 1 0
842 45 4 0.18 31.785629662492436 30.058839961298048 30.798768246260398 0 0 0
1843 140 12 0.06 15.348892213568975 9.839560959425128 25.61503242048575 0 0 0
1839 140 10 -0.28 14.354130415722205 9.450249526741693 25.39837659215032 0 0 0
352 19 5 0.08 15.695580347806928 5.222825620510867 26.038562547628622 0 0 0
838 45 2 0.235 30.803560220997095 29.009096359697203 30.22092242762092 0 0 0
848 45 6 -0.6830000000000001 3.337437247794857 30.166216523175432 29.92567995442924 1 0 0
158 9 4 0.18 12.78513235526029 3.8082481172795983 31.323783647840465 0 0 0
1844 140 12 0.06 13.873554729507479 9.025940602391909 26.27988834993723 0 0 0
1363 72 7 0.04 14.575381590880124 8.275832891956874 31.158266894602853 0 0 0
1361 72 6 -0.6830000000000001 15.809041255060826 9.038545340142736 29.598349843955894 0 0 0
1535 96 12 0.06 14.35416149491067 7.027462763490458 27.641605952661845 0 0 0
1534 96 12 0.06 13.227438664482438 6.347289015973679 28.900076405183107 0 0 0
1536 96 12 0.06 13.817418645209363 5.317968827446192 27.584139927939127 0 0 0
1531 96 10 -0.28 14.067975548356388 6.157476487942229 28.232601300567417 0 0 0
1367 72 8 0.418 16.69817434891545 9.352718289994957 29.537291253541973 0 0 0
353 19 5 0.08 16.28833026069921 6.796827836202556 25.557294956639304 0 0 0
1530 96 9 0.7 15.344961716886303 5.765381343924399 29.03491311598074 0 0 0
1532 96 11 -0.8 15.259697736387963 5.536568153004287 30.241808577106738 0 0 0
1533 96 11 -0.8 16.402632088885042 5.530626150522265 28.43536941121291 0 0 0
343 19 1 -0.48 17.75204347800185 5.551669948245378 25.917319373768287 0 0 0
1353 72 3 0.35 16.597955005434475 6.616894062998873 30.786912956930276 0 0 0
1350 72 1 -0.48 17.280247238367952 7.278670614466657 31.128365656425622 0 0 0
2246 269 14 -0.8476 16.90455767008124 8.734036764680006 27.19210714921064 0 0 0
170 9 8 0.418 13.92645012141727 4.236081679217738 29.914497327812377 0 0 0
164 9 6 -0.6830000000000001 13.322105253143473 3.5250653937747973 30.063539624277166 0 0 0
2245 269 13 0.4238 16.195808915565514 8.709615228030657 27.897118042184573 0 0 0
2247 269 13 0.4238 17.68355152421075 8.444229816961329 27.748113630298587 0 0 0
1355 72 4 0.18 15.443969417043716 8.91856668342951 31.015079931783404 0 0 0
1362 72 7 0.04 15.167470084771125 9.89164355458404 31.420941610538055 0 0 0
1351 72 2 0.235 16.60308502900066 8.410655571454376 31.831473299600002 0 0 0
1368 72 8 0.418 17.598210688025972 5.0168044942437 29.730554625378556 0 0 0
347 19 3 0.35 17.630513516514654 5.547672552456056 26.91995347126361 0 0 0
1354 72 3 0.35 17.70957449254724 7.538617546344588 30.251914251612224 0 0 0
346 19 3 0.35 18.09716977880701 4.647082187521978 25.62979627479953 0 0 0
1364 72 6 -0.6830000000000001 18.09099418973085 4.593996741419838 30.417131977006004 0 0 0
1352 72 2 0.235 18.15433158840628 6.564222805023126 32.06704563479113 0 0 0
418 22 8 0.418 16.502076442712006 3.4593925625012107 28.869588550753594 0 1 0
2178 246 13 0.4238 31.087670852968635 8.444473191096359 32.662352879593975 0 0 0
1794 133 12 0.06 32.419812120222 18.86862083720318 19.74828717786204 0 0 0
165 9 7 0.04 12.342500176455571 4.804276762414564 31.331381420741533 0 0 0
865 46 5 0.08 8.117463555731494 21.89432410699861 19.064764602631698 0 0 0
686 37 2 0.235 14.558552611437598 21.847889208915273 31.936072654713996 0 0 0
1464 86 12 0.06 23.814348463473102 6.727135982208919 26.09336648755626 0 0 0
456 24 8 0.418 25.538620991520975 27.322646678321412 18.247528099971646 0 0 0
1366 72 7 0.04 19.65278537036334 4.978464132735015 31.87758655785714 0 0 0
356 19 7 0.04 20.734123104137243 5.699554621541246 25.773748039574336 0 0 0
349 19 5 0.08 18.444273113956868 7.605056056334078 25.753291242769386 0 0 0
1466 86 12 0.06 23.29679009475897 8.333880836169469 26.01745361986254 0 0 0
344 19 2 0.235 18.703612612886317 6.577501236678572 25.498481249312785 0 0 0
355 19 7 0.04 20.496411237158014 7.385912755785292 26.11872256216483 0 0 0
348 19 4 0.18 20.021903039157536 6.407774633045175 26.19709307044393 0 0 0
1476 88 11 -0.8 18.72781588224452 8.24343930481009 29.034176254826484 0 0 0
1358 72 4 0.18 18.88986315667161 5.432575447797396 31.245299671805626 0 0 0
1365 72 7 0.04 19.545215812661343 5.994890826030048 30.580191893449758 0 0 0
354 19 6 -0.6830000000000001 19.880528454262983 6.086203128721845 27.595232155611342 0 0 0
360 19 8 0.418 19.53488071894206 6.763035430722024 28.15685140027906 0 0 0
2139 233 13 0.4238 21.20583191435086 5.080213815597628 28.334416587757165 0 0 0
2138 233 14 -0.8476 22.02645273597866 4.917736942238989 28.88227138944108 0 0 0
1479 88 12 0.06 21.463450816958975 9.210459643844153 29.955492227380148 0 0 0
2076 212 13 0.4238 22.98219906766255 5.9096562037937215 29.667765764856373 0 0 0
2075 212 14 -0.8476 23.685389482107436 6.406831518863468 30.175999297047078 0 0 0
2074 212 13 0.4238 24.33138617791693 6.666918140996042 29.45836109698086 0 0 0
626 33 8 0.418 22.926992310733297 6.426862794938682 31.86618321811411 0 0 0
2137 233 13 0.4238 21.87088272180373 3.9305518865282387 28.847252555593563 0 0 0
470 25 7 0.04 24.315940762944823 8.717626812813922 30.737878571469818 0 0 0
1474 88 9 0.7 19.374833913798184 9.245970711867512 29.49069768295064 0 0 0
1475 88 10 -0.28 20.866582357039103 9.285407415418018 29.04654495306087 0 0 0
1478 88 12 0.06 21.09974826574043 10.22064900889428 28.53761388569746 0 0 0
1480 88 12 0.06 21.164205418599067 8.391753654704118 28.498040112979062 0 0 0
474 25 8 0.418 24.863311179961425 9.9996843802077 28.994042269068572 0 0 0
1477 88 11 -0.8 18.810369927537977 10.242446740766653 29.98181035437596 0 0 0
1461 86 10 -0.28 23.597181082471405 7.576316799579719 26.74127415689841 0 0 0
1460 86 9 0.7 24.76740152435284 7.9670635438270505 27.51066510999202 0 0 0
1462 86 11 -0.8 25.324594758401506 7.115696439320912 28.18767330137895 0 0 0
462 25 4 0.18 24.9841267560079 9.568918564349943 30.8678171153184 0 0 0
468 25 6 -0.6830000000000001 24.742477687391947 10.471580024280435 29.803797916104557 0 0 0
469 25 7 0.04 24.73253445864789 10.103111990826044 31.784000924565248 0 0 0
2710 424 13 0.4238 24.930572801165088 5.176729405125224 30.855597294947522 0 0 -1
2053 205 13 0.4238 25.318719541015454 5.540705031450943 27.903298073897872 0 1 0
2055 205 13 0.4238 24.11964994504438 4.6375537058371625 27.801076160667446 0 1 0
2054 205 14 -0.8476 25.117115996272208 4.566682946627717 27.800335593721098 0 1 0
1393 76 11 -0.8 19.704423294185588 10.512482170797218 25.996013112532047 0 0 0
1463 86 11 -0.8 25.19810024790383 9.131081603884784 27.606618728713077 0 0 0
166 9 7 0.04 12.07148349218221 32.614479440660034 31.544350365062435 0 -1 0
1793 133 12 0.06 3.3121066656533458 17.752826091947156 18.53720977461809 1 0 0
2606 389 14 -0.8476 27.49435552102903 5.881381164131302 26.14177177847529 0 0 0
2605 389 13 0.4238 26.519258755883882 5.686838582752282 26.248077157516473 0 0 0
2664 408 13 0.4238 29.647164308444896 10.454917015863327 32.31978101694181 -1 0 -1
464 25 5 0.08 26.460661866178256 8.1315726563859 31.56282981736777 0 0 0
1105 59 2 0.235 30.21910110277677 3.9128445506543836 26.08113214638968 0 1 0
1111 59 4 0.18 30.557165864089463 4.125579687528279 27.561916209756617 0 1 0
2607 389 13 0.4238 27.70953786975703 6.783007308582858 26.51691207288449 0 0 0
1118 59 7 0.04 29.89340030831287 4.897032384689098 27.952211077676782 0 1 0
458 25 2 0.235 26.46053124126207 9.027685034448215 30.942316602092646 0 0 0
2711 424 14 -0.8476 25.66246763040481 4.553164316936433 31.130294037299397 0 0 -1
2578 380 13 0.4238 26.463754165078626 10.080823373284176 27.24892997031418 0 0 0
460 25 3 0.35 26.416999419600327 8.417856158685971 29.077106706165203 0 0 0
457 25 1 -0.48 27.129107172129864 8.895389825585738 29.610890417610587 0 0 0
467 25 5 0.08 27.962109914639868 6.977354082360845 29.488701529253383 0 0 0
463 25 5 0.08 26.97682293300082 9.858961805451882 31.422395608869916 0 0 0
2385 315 13 0.4238 26.654349581891392 3.8393952096033632 27.84670839058152 0 0 -1
472 25 7 0.04 29.652045277425753 9.157990683811168 28.639778850630346 0 0 0
465 25 4 0.18 29.198979781126877 8.197322890822132 28.39502777865088 0 0 0
473 25 7 0.04 30.011409479046588 7.482453710345772 28.264742856731253 0 0 0
459 25 2 0.235 28.30560383469931 7.999635821764845 29.646834384335715 0 0 0
466 25 5 0.08 28.820166671209194 8.214249339055433 30.583434741620536 0 0 0
471 25 6 -0.6830000000000001 28.407302850935096 8.158211892125578 27.220465760965002 0 0 0
461 25 3 0.35 27.353571288603273 9.848473358997172 29.36328374904281 0 0 0
475 25 8 0.418 27.997211575230807 9.003057042848015 27.115335741795377 0 0 0
2519 360 14 -0.8476 28.270986399327068 4.291501082521198 30.368547654614066 0 1 -1
2520 360 13 0.4238 27.336845307802978 4.4465475527687 30.68995883386978 0 1 -1
2579 380 14 -0.8476 27.327822590792824 10.515467484879283 26.99509034805848 0 0 0
2723 428 14 -0.8476 30.0467891639131 11.393772259832016 30.89739182218575 0 0 0
2132 231 14 -0.8476 30.437366169543722 6.151313679207863 30.463404976896612 0 1 0
2131 231 13 0.4238 29.572431535367915 5.650843820867184 30.50055035208927 0 1 0
2383 315 13 0.4238 27.742355991732865 3.4678575643867617 28.856697885308936 0 0 -1
2176 246 13 0.4238 31.8604983859352 7.350982021217421 31.724532356321962 0 0 0
2177 246 14 -0.8476 31.96396945019914 7.9989592379967736 32.47910548840997 0 0 0
1804 135 10 -0.28 14.225691467387806 25.850541482466948 31.89185624978023 0 0 0
635 34 5 0.08 30.007823561198094 10.464921759806845 26.17961152603919 0 0 0
2133 231 13 0.4238 31.137283387475946 5.521170768276281 30.127254362622303 0 1 0
837 45 1 -0.48 31.507410886083612 27.825569064518202 29.67747118587934 0 0 0
318 17 7 0.04 5.344347231662448 13.785758440912774 25.383300759751943 0 0 0
154 9 2 0.235 13.891886746649323 3.8783567623956032 32.361004927359446 0 0 0
1434 82 11 -0.8 9.95487487114657 13.690255565836999 25.502986964519238 0 0 0
1433 82 10 -0.28 8.75236872812027 15.446144290839245 26.647390931578162 0 0 0
1438 82 12 0.06 8.802442129411762 16.007316950776286 25.714314317912663 0 0 0
1432 82 9 0.7 9.116355975671345 13.986102831720942 26.366949886918842 0 0 0
1437 82 12 0.06 9.49818228555434 15.949694795569732 27.262413898941773 0 0 0
1921 161 13 0.4238 6.110159876091865 11.267352010966452 26.341096748727594 0 0 0
2690 417 14 -0.8476 5.12989150841327 15.255599624481537 32.263520592025706 0 0 0
1436 82 12 0.06 7.776288079069831 15.50920117726387 27.12837375162016 0 0 0
745 40 3 0.35 8.822131509011093 11.50158210929656 26.249664330124464 0 0 0
1435 82 11 -0.8 8.414001069497301 13.106874951559943 26.91495104657765 0 0 0
1922 161 14 -0.8476 6.1670957934809385 11.835741122757891 27.161860995707904 0 0 0
1923 161 13 0.4238 6.925262718322893 12.468295017772256 27.00367578474912 0 0 0
2123 228 14 -0.8476 9.95144517087103 13.23476111491168 31.703947420014966 0 0 0
581 31 5 0.08 7.255468195440738 13.388132812029813 31.301684056997814 0 0 0
579 31 4 0.18 5.461490009422862 12.82922265619659 30.230491872310406 0 0 0
587 31 7 0.04 4.806058066752125 13.226461843125737 31.005517038875045 0 0 0
586 31 7 0.04 5.4890960527888915 11.777696242572278 30.516121237512408 0 0 0
573 31 2 0.235 6.831418186077752 13.506422801056884 30.304566658909366 0 0 0
585 31 6 -0.6830000000000001 4.901082125238211 13.150159388995322 28.932318087461674 0 0 0
580 31 5 0.08 7.454824805619626 13.111560606481914 29.502380854110122 0 0 0
589 31 8 0.418 5.298902309836496 12.576391001550778 28.29551397482765 0 0 0
574 31 3 0.35 6.062937736590974 15.330977768656304 30.77171616421531 0 0 0
571 31 1 -0.48 6.660079681995716 14.967680538952548 30.04267763073536 0 0 0
577 31 5 0.08 8.651338125785841 15.311336424914785 29.52629490911317 0 0 0
575 31 3 0.35 6.148567888458997 15.134651461313394 29.187963017905297 0 0 0
578 31 5 0.08 8.131437467315628 15.660083167063732 31.202016861143257 0 0 0
572 31 2 0.235 7.862668245678283 15.734577647760911 30.14832442634516 0 0 0
582 31 6 -0.6830000000000001 6.580884837567998 17.762516322248857 30.463466223741207 0 0 0
576 31 4 0.18 7.7125526562176185 17.207175748299782 29.733789466147613 0 0 0
2396 319 14 -0.8476 5.030775392596361 16.182092839977567 28.25636569302063 0 0 0
2397 319 13 0.4238 4.350982955305088 15.470876153511622 28.077440123517103 0 0 0
2395 319 13 0.4238 4.450219487228058 16.987492224820635 28.37573099452187 0 0 0
583 31 7 0.04 7.5742914575579325 17.29495998379905 28.656184772801264 0 0 0
584 31 7 0.04 8.689791686207093 17.66146690270258 29.89712193545836 0 0 0
2124 228 13 0.4238 10.576595982722068 13.13711716763348 30.9295999835837 0 0 0
2122 228 13 0.4238 10.115969287619505 14.17425996647421 32.004339841544734 0 0 0
2685 415 13 0.4238 10.636632673608183 16.243991259722602 30.95388559114534 0 0 0
2684 415 14 -0.8476 10.22892984007338 16.074694715200796 31.851148530974072 0 0 0
588 31 8 0.418 5.993533517333438 18.1478913855771 29.831410113710497 0 0 0
2691 417 13 0.4238 4.816845678901143 16.201377481861652 32.349940876328816 0 0 0
1975 179 13 0.4238 9.864013572107513 12.846895103864732 28.274925255375027 0 0 0
1444 83 12 0.06 22.207155493196844 15.959083421373828 32.73562906594183 0 0 0
263 14 7 0.04 16.786732085077475 15.153855862483464 25.366593871315867 0 0 0
428 23 5 0.08 11.690290545223768 16.786978683826923 25.566440155461397 0 0 0
1633 110 12 0.06 13.655537359783402 12.266780215654117 32.51515320131453 0 0 -1
1976 179 14 -0.8476 10.572032398209181 12.90578366006325 28.97863184535676 0 0 0
2421 327 13 0.4238 25.708874846780976 31.430551712818573 31.499903874770606 0 0 0
858 46 2 0.235 7.830555191644594 20.843553088447035 19.104987464916274 0 0 0
1962 174 13 0.4238 11.584362675188887 14.10052858612119 26.00722862676739 0 0 0
1910 157 14 -0.8476 10.95645378382288 16.463638452522495 29.445695370177116 0 0 0
1977 179 13 0.4238 11.429235161190627 12.812536692134177 28.4722030985848 0 0 0
1795 133 12 0.06 4.364871724990939 19.15048967396966 18.893927524996318 1 0 0
1909 157 13 0.4238 11.752963806696531 15.962125279026035 29.1080295281612 0 0 0
258 14 5 0.08 17.288995122855614 12.238415145112647 26.011543915340106 0 0 0
250 14 2 0.235 16.985939255766937 13.242889986999097 26.306910558047182 0 0 0
257 14 5 0.08 17.641681078975118 13.637356103804695 27.083089167106635 0 0 0
1841 140 11 -0.8 13.731138360044268 11.782947963516497 25.58374652944981 0 0 0
259 14 6 -0.6830000000000001 13.197400626432838 12.16282885221184 28.146018471939374 0 0 0
265 14 8 0.418 13.431602194925723 11.88284253997047 27.274383372150265 0 0 0
253 14 4 0.18 14.25068894976826 12.694543370616845 28.851811762622997 0 0 0
1944 168 13 0.4238 14.318736166655489 15.665020496866283 27.701269165567016 0 0 -1
1960 174 13 0.4238 13.001910294509958 13.30793142577787 25.79520097446899 0 0 0
261 14 7 0.04 14.133614956949431 12.308710655024282 29.86447218972541 0 0 0
1961 174 14 -0.8476 12.572518479551125 14.205451719547888 25.895417122326496 0 0 0
1943 168 14 -0.8476 13.359473686042282 15.84360524235979 27.920097971551854 0 0 -1
1942 168 13 0.4238 13.03285733876107 15.138613792871151 27.290597320766377 0 0 -1
251 14 3 0.35 14.971628030541828 12.756506812134344 26.38151416695068 0 0 0
260 14 7 0.04 14.168214200946037 13.777427929230692 28.944618364795794 0 0 0
255 14 5 0.08 16.112718364714674 11.647712551874648 28.213167854967374 0 0 0
248 14 1 -0.48 15.691075957066625 13.160185846287211 26.964179258722126 0 0 0
249 14 2 0.235 15.665153167377415 12.636538214116449 28.312983915757506 0 0 0
254 14 5 0.08 16.391502733169524 13.245866797808313 28.850746992844915 0 0 0
832 44 6 -0.6830000000000001 17.00484658640132 11.940044126823471 30.86414115016696 0 0 0
252 14 3 0.35 15.538578221935035 14.155141709518427 27.04705208145115 0 0 0
2514 358 13 0.4238 14.488050767824824 17.227778191435295 28.998242643613057 0 0 0
1431 81 12 0.06 17.4531733757223 17.062234095134325 30.306633943494656 0 0 0
1428 81 11 -0.8 15.9925551030204 15.606629834114766 27.808007714103706 0 0 0
1425 81 9 0.7 17.018977755014774 16.12824097772603 28.34690229063802 0 0 0
1426 81 10 -0.28 17.09376219119647 16.127978231328456 29.875306147136154 0 0 0
1430 81 12 0.06 17.82888551406283 15.377060749802114 30.164737963401937 0 0 0
1429 81 12 0.06 16.139377262612058 15.85412167904941 30.324979436515026 0 0 0
2067 209 13 0.4238 14.664860336700213 17.401113324432895 31.38967977227026 0 0 -1
1427 81 11 -0.8 18.04829383952299 16.48411595964299 27.69034484491878 0 0 0
834 44 7 0.04 17.197291895852167 13.777459785732548 31.549798332323505 0 0 0
826 44 4 0.18 17.502116682384518 12.777003982220826 31.856758020472725 0 0 0
836 44 8 0.418 17.549464141036893 11.180185531075082 30.726311249527196 0 0 0
688 37 3 0.35 16.19260981311308 22.68158163695103 32.862029744506884 0 0 0
2066 209 14 -0.8476 14.725543841810431 17.580536221040433 32.37155885567316 0 0 -1
1093 58 5 0.08 21.309707345237655 17.587792310551677 25.39636522623327 0 0 0
1776 131 10 -0.28 8.68759914411129 29.540961005123965 18.740313372257976 0 0 0
1395 76 12 0.06 22.075042007537963 11.255632334207359 26.38154643522301 0 0 0
1102 58 8 0.418 17.916115966892285 16.91466688495105 25.878761995303954 0 0 0
1445 83 12 0.06 20.53746776507096 15.812127035858285 32.448902328796024 0 0 0
1467 87 9 0.7 25.281444694749883 8.343374350668519 18.389302910869503 0 0 0
821 44 3 0.35 19.227800879041745 10.89416911534692 31.439256242810256 0 0 0
825 44 5 0.08 21.376555707852702 11.544687785440027 31.266082066472322 0 0 0
880 47 4 0.18 24.900579178924417 13.06857033288761 25.550778071766292 0 0 0
888 47 7 0.04 25.8784652076705 12.590453352851638 25.607320917824616 0 0 0
1440 83 10 -0.28 21.47326774435187 16.02582269825271 31.93250460203035 0 0 0
1945 169 13 0.4238 18.873953801955388 11.325520838422058 28.669340288630778 0 0 0
1946 169 14 -0.8476 19.0666950804449 12.112709464212266 28.08355345395169 0 0 0
1947 169 13 0.4238 19.38331129550365 11.505995982204784 27.35443454100415 0 0 0
2442 334 13 0.4238 20.63690626560008 12.67449614459821 28.635440386550993 0 0 0
820 44 2 0.235 18.939843277328485 12.782407800121927 31.9473475550915 0 0 0
828 44 5 0.08 19.217059502673024 13.219650089000668 30.988168528626556 0 0 0
818 44 1 -0.48 19.484388534138684 11.506774359568626 32.200136331659095 0 0 0
2440 334 13 0.4238 20.891509179094324 14.055064123112047 29.079383195881476 0 0 0
2441 334 14 -0.8476 21.37598225196101 13.180280523324969 29.080311359465565 0 0 0
879 47 3 0.35 25.043067333377177 15.21176677637358 26.99290297662099 0 0 0
881 47 5 0.08 23.144262669850143 13.55673972388451 26.63389200517347 0 0 0
876 47 2 0.235 24.177657650667943 13.297083065000026 26.863516329173525 0 0 0
875 47 1 -0.48 24.845224967353804 14.419613424943936 27.58738765695103 0 0 0
882 47 5 0.08 24.093230060559762 12.362274320882426 27.41764514404286 0 0 0
877 47 2 0.235 24.10321927373412 14.842741281554732 28.724987851726514 0 0 0
884 47 5 0.08 23.68071218837122 13.998952908176413 29.27048129368844 0 0 0
2209 257 13 0.4238 19.41109770480042 15.796412423939199 28.422747690019783 0 0 0
1094 58 5 0.08 20.490858815978772 16.491909298181856 26.524337923657882 0 0 0
2210 257 14 -0.8476 20.219523308480102 15.434130205324818 28.886602180483493 0 0 0
183 10 6 -0.6830000000000001 24.49068577028095 16.996356249186494 31.747118932988172 0 0 0
2211 257 13 0.4238 20.366099113439827 16.194625280954376 29.519155832642905 0 0 0
883 47 4 0.18 23.213780349521958 16.010623953075587 28.244305765504418 0 0 0
890 47 7 0.04 22.28688817609511 15.589504715976606 27.854968516139138 0 0 0
889 47 6 -0.6830000000000001 23.911055154919364 16.677152458847708 27.189123279064656 0 0 0
891 47 7 0.04 23.08877761492322 16.67108219404193 29.102340301753735 0 0 0
189 10 8 0.418 23.771693636537922 17.47928710730156 32.1250324215716 0 0 0
1086 58 2 0.235 20.359461395432746 17.360968861863814 25.87972617469285 0 0 0
1439 83 9 0.7 21.380643474962277 17.428009757358986 31.32468268859982 0 0 0
1441 83 11 -0.8 20.738257823746626 17.539368448607007 30.225749187355664 0 0 0
893 47 8 0.418 24.76454468792992 16.89403799987703 27.531915951800382 0 0 0
885 47 5 0.08 24.87324954677622 15.271416375835656 29.366349743369042 0 0 0
1443 83 12 0.06 21.744678742687825 15.242900121139279 31.224392803525525 0 0 0
1087 58 3 0.35 19.001444378806987 17.971260678983562 27.231771914127492 0 0 0
1442 83 11 -0.8 22.094140105107954 18.279617806882246 31.86816171550046 0 0 0
639 34 6 -0.6830000000000001 32.730760880732674 11.321350224985606 25.613056336111317 0 0 0
1119 59 7 0.04 30.243645502959232 32.85189367030803 28.13321869960347 0 0 0
2594 385 14 -0.8476 29.325239643577472 14.405970150546352 32.775944738271605 0 0 -1
1993 185 13 0.4238 14.021111363354613 29.285924443584552 31.979265111988997 0 0 0
2724 428 13 0.4238 29.222420282577424 11.521703972071263 30.346020055616894 0 0 0
172 10 1 -0.48 26.51203274527408 18.286498454975145 32.70946968260594 0 0 0
2079 213 13 0.4238 3.31092651550442 17.723748679566096 32.3527636006051 1 0 -1
2024 195 14 -0.8476 32.15928863462078 17.850419482659973 30.85833579092159 0 0 0
878 47 3 0.35 25.74226653393126 14.044500978828323 27.860642661701025 0 0 0
2706 422 13 0.4238 31.400711183769097 11.777614961216214 32.11277248016651 -1 0 -1
643 34 7 0.04 29.244807866379194 14.827635049194981 25.26472907008823 0 0 0
637 34 5 0.08 28.152020736479 12.588559528038699 25.655666023060135 0 0 0
2595 385 13 0.4238 30.056017228100664 13.864021622343737 32.36095412303668 0 0 -1
631 34 3 0.35 31.15297850339472 12.515403792273736 25.736522902298567 0 0 0
2416 326 13 0.4238 32.66584045113353 12.47606526904641 29.23010082730693 0 0 0
2580 380 13 0.4238 27.309326783068656 11.377352259374973 27.501820773063795 0 0 0
1403 77 12 0.06 25.51079352041073 12.991807945100225 30.820022556035575 0 0 0
1399 77 11 -0.8 26.919411815939895 13.016069006957112 28.280448210694317 0 0 0
1401 77 12 0.06 27.13112734949165 13.01937470594771 31.454142271097904 0 0 0
1398 77 10 -0.28 26.53809139624363 13.257973081423977 30.571287138090373 0 0 0
1402 77 12 0.06 26.611050675900675 14.343151520280484 30.49974162439115 0 0 0
1397 77 9 0.7 27.101819502073667 12.536818046114538 29.3964407313199 0 0 0
2722 428 13 0.4238 30.759669365886644 11.890176409048452 30.402067547981822 0 0 0
2418 326 13 0.4238 31.79778079190056 13.688952328041152 29.71900573184127 0 0 0
2417 326 14 -0.8476 31.718182863420726 12.742666586169186 29.40568631542458 0 0 0
1400 77 11 -0.8 27.803657829525157 11.511908087568463 29.544992738400115 0 0 0
638 34 5 0.08 29.168978470808067 12.466933684152757 27.046936477802685 0 0 0
630 34 2 0.235 29.165509749853136 12.786132241925214 26.004749211578627 0 0 0
636 34 4 0.18 29.459136901360356 14.29955898700098 26.19384305127204 0 0 0
644 34 7 0.04 28.87244642445798 14.80223371128859 26.962716555670568 0 0 0
642 34 6 -0.6830000000000001 30.780070692152375 14.541838607017624 26.481769042338595 0 0 0
2329 297 13 0.4238 32.05904716340913 15.597705353284404 31.548356509350324 0 0 0
2330 297 14 -0.8476 32.379391169183094 14.664136013423303 31.38776530912216 0 0 0
646 34 8 0.418 30.863600031743772 15.470643886128286 26.63452412743402 0 0 0
2501 354 14 -0.8476 30.698790108252577 16.964886917173366 27.3398467174134 0 0 0
2331 297 13 0.4238 3.7183190652317677 14.728050500010033 31.725765343672112 1 0 0
1626 109 12 0.06 27.22526692621412 16.403031968811394 29.80399568261361 0 0 0
1621 109 9 0.7 27.402980637456107 17.78065366864182 28.050826032111324 0 0 0
1622 109 10 -0.28 27.680232057388235 17.363348366043056 29.561398986001734 0 0 0
1627 109 12 0.06 28.720256008211226 17.360487809736572 29.88758311695411 0 0 0
2502 354 13 0.4238 31.395721647133293 17.679240177442097 27.402680976024943 0 0 0
1625 109 12 0.06 27.24272949345841 18.160294359379876 30.16266648274502 0 0 0
2500 354 13 0.4238 29.903606608382567 17.484758092744737 27.65190268412036 0 0 0
179 10 5 0.08 27.264388978229306 16.414912187286426 32.2468269422388 0 0 0
182 10 5 0.08 28.538518738231712 18.26677234911047 32.0720552069415 0 0 0
2025 195 13 0.4238 32.420822006479874 17.780410019144504 29.895703118954103 0 0 0
1623 109 11 -0.8 26.29840413686887 17.454798800557384 27.634821388180843 0 0 0
175 10 3 0.35 26.13070408075576 18.414126445497644 31.782992436732577 0 0 0
1113 59 5 0.08 29.182518823047296 3.605101733240349 25.943852602009922 0 1 0
427 23 4 0.18 10.616192524505365 18.570893834752027 25.608868286107448 0 0 0
1524 95 10 -0.28 22.40639509894466 32.5762520313847 32.57526119713276 0 0 -1
118 7 3 0.35 14.116642009064009 26.342153838152626 18.936498124302233 0 0 0
434 23 7 0.04 10.082843008631693 18.21227513085402 26.489200581313717 0 0 0
2509 357 13 0.4238 9.16170826343873 22.966242634296425 32.162684813278915 0 -1 0
2510 357 14 -0.8476 10.021184124101957 23.04041879086759 31.656956515961298 0 -1 0
1196 63 8 0.418 4.778443298261888 24.01866258211005 32.134321872207934 0 0 0
1190 63 6 -0.6830000000000001 5.6298895022792514 23.870451534311297 31.75213955441709 0 0 0
1699 120 10 -0.28 5.130076231238922 19.55515916031072 27.61985492549014 0 0 -1
1702 120 12 0.06 5.575244849649745 19.928899223656767 26.697793486298316 0 0 -1
394 21 7 0.04 9.14583138705476 20.425824934814635 28.202919794971677 0 0 0
1703 120 12 0.06 5.031280086811991 20.40014024574064 28.301250779366125 0 0 -1
1704 120 12 0.06 5.8377358257181475 18.894405321673197 28.12053081799023 0 0 -1
393 21 7 0.04 8.196328498530214 21.60480571913465 29.028146634309124 0 0 0
386 21 4 0.18 8.705755066559668 21.415808468238914 28.08325578421312 0 0 0
392 21 6 -0.6830000000000001 7.932154001266314 21.215980516596048 26.9761700261154 0 0 0
2469 343 13 0.4238 7.1522724756204505 23.882848097199133 26.351688378661635 0 0 0
2468 343 14 -0.8476 6.846788153380308 24.028354722387636 27.292681735253865 0 0 0
2467 343 13 0.4238 5.848936006112927 23.964859573857613 27.30754037541675 0 0 0
1192 63 7 0.04 4.61558383748893 24.19859310375497 30.116966685070434 0 0 0
1191 63 7 0.04 6.3178383834354195 23.53195834896714 29.860114802005143 0 0 0
398 21 8 0.418 7.297812219184521 21.914208350095365 26.920682283820536 0 0 0
2511 357 13 0.4238 9.938869956928627 23.874217196582894 31.11109338927125 0 -1 0
2249 270 14 -0.8476 4.2266958509887305 23.588585396639626 27.504641422591895 0 0 0
387 21 5 0.08 9.32610470862873 23.424920171174076 27.88678502302274 0 0 0
382 21 2 0.235 9.796271241984604 22.468520969676103 27.658096413559875 0 0 0
385 21 3 0.35 9.249097864929215 22.377533099806897 25.714509547117444 0 0 0
381 21 1 -0.48 10.095257595614651 22.41053144121599 26.264950637138398 0 0 0
2250 270 13 0.4238 3.822969306435028 24.3875281895442 27.950352496001052 0 0 0
2248 270 13 0.4238 3.4189817467277543 23.05426862743912 27.255511018563297 0 0 0
1698 120 9 0.7 3.827394202553319 18.8606764495619 27.416961965605164 0 0 -1
1184 63 4 0.18 5.67160218271888 24.23597049795108 30.384328258017565 0 0 0
1490 90 11 -0.8 9.90029491710758 25.036160869758447 29.625323554261634 0 0 0
435 23 7 0.04 10.71539641958352 19.65633069678362 25.61514810774538 0 0 0
1701 120 11 -0.8 3.3768953356060356 18.09517725496029 28.265076377310045 0 0 -1
1700 120 11 -0.8 32.708044496534455 19.28367087096058 26.49455818783786 -1 0 -1
1766 129 12 0.06 3.4035649045776806 21.02112193016435 30.449311672363564 1 0 0
1767 129 12 0.06 32.07834131886224 20.845783854907914 28.982380983639512 0 0 0
421 23 2 0.235 11.928189728076237 17.85058541412803 25.552342949721105 0 0 0
2661 407 13 0.4238 14.72404646520356 21.545831436857092 24.224540846961332 0 0 0
1449 84 11 -0.8 13.660366002905048 20.512450699930294 24.958320950436477 0 0 0
429 23 5 0.08 12.432209099272495 18.088460260023947 26.489057454388526 0 0 0
1911 157 13 0.4238 10.9933582175207 17.45015746748916 29.286382979090302 0 0 0
2181 247 13 0.4238 27.541207577080744 28.747443382337295 28.642028116692376 0 0 0
2308 290 13 0.4238 14.893574627121888 24.227284202369468 24.938880686934564 0 0 0
2513 358 14 -0.8476 14.369439232035933 18.03106735114579 29.58186864380206 0 0 0
2512 358 13 0.4238 13.45225732201734 18.413855135359945 29.471358903907092 0 0 0
384 21 3 0.35 10.561249608802758 21.547303170537017 26.024640376199823 0 0 0
388 21 5 0.08 10.69211913516773 22.341530828735483 28.265866294964884 0 0 0
1893 151 13 0.4238 12.282254154475966 22.021734309526718 29.9701236711294 0 0 0
1891 151 13 0.4238 10.997623812408866 21.786403232552836 30.88523601489184 0 0 0
1892 151 14 -0.8476 11.700674689333555 21.307530516377142 30.359533588938604 0 0 0
390 21 5 0.08 10.725172043731549 24.415615600954975 25.79944221852249 0 0 0
383 21 2 0.235 11.063711431557415 23.37961159935945 25.787570506274875 0 0 0
2583 381 13 0.4238 11.3224774487423 19.70030355718809 29.565560873266378 0 0 0
2582 381 14 -0.8476 11.639247563715262 19.121953343428736 28.813809791545406 0 0 0
2581 381 13 0.4238 12.05403374065413 19.834010332226413 28.247337357901877 0 0 0
1446 84 9 0.7 13.893739739479429 20.449129840419502 26.195752839083745 0 0 0
2555 372 14 -0.8476 16.820160921483946 19.551342457379626 30.797431529897665 0 0 -1
2556 372 13 0.4238 16.059405406744172 18.905367269524383 30.734753613980835 0 0 -1
1450 84 12 0.06 15.518626035119697 19.52092256005726 27.32012437836598 0 0 0
1452 84 12 0.06 15.713359377705018 21.17577906879648 27.200263180709157 0 0 0
1447 84 10 -0.28 15.370073231120376 20.32981989232424 26.604812331515273 0 0 0
1451 84 12 0.06 16.015741435998383 20.24089735803916 25.731165015893083 0 0 0
1492 90 12 0.06 12.776775610665052 26.104929165139904 29.665439462694216 0 0 0
391 21 5 0.08 12.010100774302506 23.311060861914253 26.323949168489314 0 0 0
1448 84 11 -0.8 13.00916346300986 20.498477616852426 27.056909319437978 0 0 0
2460 340 13 0.4238 13.6251133050963 21.473529431326494 28.23181758350713 0 0 0
685 37 1 -0.48 15.962041343336058 22.18817594005091 32.01146998446515 0 0 0
689 37 3 0.35 16.46444285768262 21.32226580466507 31.877853810053864 0 0 0
2297 286 14 -0.8476 16.228539137243978 23.776235422697905 27.819933754637926 0 0 0
2298 286 13 0.4238 17.07808249828786 23.784143391742973 27.29251033192151 0 0 0
2296 286 13 0.4238 15.612412750594167 24.223814427711062 27.171841432597358 0 0 0
694 37 5 0.08 16.204028658619443 22.21671651141973 29.929334406029596 0 0 0
687 37 2 0.235 16.31682898946501 22.908979185253795 30.763661992822186 0 0 0
695 37 5 0.08 15.673797673883232 23.75424620977909 30.518532601433666 0 0 0
691 37 5 0.08 14.264792521512634 21.35962821178534 31.00690077325606 0 0 0
2459 340 14 -0.8476 13.6568197733472 22.29244224012308 28.804826856924123 0 0 0
2458 340 13 0.4238 14.264492523771489 22.805272164942373 28.198443588315182 0 0 0
2554 372 13 0.4238 17.473092498923442 19.319960801154007 30.07624836638324 0 0 -1
693 37 4 0.18 17.778935277942182 23.40536493697471 30.734796132663046 0 0 0
701 37 7 0.04 17.863244622719968 24.217189247444452 31.457213819578 0 0 0
700 37 7 0.04 18.061107657729334 23.8009838481753 29.759133043161118 0 0 0
1069 57 3 0.35 31.758668143346128 20.234999518814913 18.261207247736884 0 0 0
1915 159 13 0.4238 18.042019015217832 23.04043864236902 25.57034515848987 0 0 0
1916 159 14 -0.8476 18.352678916369065 23.92832811338832 25.90961540327688 0 0 0
282 15 7 0.04 24.99973243453172 21.053971478118047 26.50718907198362 0 0 0
2364 308 13 0.4238 20.35711952570601 21.97285125512984 25.566983773800775 0 0 0
2291 284 14 -0.8476 22.54123769045223 24.31073079888815 24.73891620758776 0 0 0
1084 58 1 -0.48 19.706419157492135 18.401254635580166 26.650242373094574 0 0 0
275 15 4 0.18 24.276352268112564 20.238640091313975 26.50404332389413 0 0 0
2362 308 13 0.4238 21.48728038544034 23.194448255582042 25.499637719211442 0 0 0
283 15 7 0.04 23.24719041104441 20.596859083801455 26.527687723237452 0 0 0
1917 159 13 0.4238 19.261076401676142 23.74649483375758 26.28606202470377 0 0 0
1088 58 3 0.35 19.358366910262188 19.009692889563205 25.923108831237343 0 0 0
1095 58 6 -0.6830000000000001 18.97995950318291 19.22717244266301 29.078280425804927 0 0 0
1089 58 4 0.18 19.689379077016028 20.187650972082963 28.26257359043551 0 0 0
1101 58 8 0.418 19.69439753044943 18.76548923947068 29.489883835412428 0 0 0
1085 58 2 0.235 20.59532688285796 19.333078612957564 27.31594503573797 0 0 0
1204 64 5 0.08 19.042276996726244 20.088510937351522 32.096858992574866 0 0 -1
1090 58 5 0.08 21.144528477585183 19.847650122774013 26.52749858598329 0 0 0
1091 58 5 0.08 21.282535500214586 18.83079624493635 27.99676134037427 0 0 0
2472 344 13 0.4238 23.071009318116143 19.326762887116583 30.88360207955943 0 0 0
2471 344 14 -0.8476 23.894766346435127 19.773284494120993 30.53430954975245 0 0 0
281 15 6 -0.6830000000000001 24.443494621597093 19.56361211056764 27.764425397532392 0 0 0
2470 344 13 0.4238 24.024990874882956 19.521044855116433 29.57546736046387 0 0 0
699 37 6 -0.6830000000000001 18.744690167919185 22.504668834112803 31.237829759901327 0 0 0
1096 58 7 0.04 19.0837198970249 20.910934196456065 27.71659523159247 0 0 0
1097 58 7 0.04 20.24014995293018 20.727809034577245 29.032596150562135 0 0 0
703 37 8 0.418 19.538655506355024 22.99662499525403 31.381317572541953 0 0 0
2258 273 14 -0.8476 20.98148464367747 24.103588590484293 31.389200020070273 0 0 0
2257 273 13 0.4238 21.394338283940307 24.544680940322426 30.592360386963733 0 0 0
2259 273 13 0.4238 21.584870041294845 24.49975838087788 32.08125284012346 0 0 0
2363 308 14 -0.8476 20.798645549502087 22.72664078132477 26.053623831525382 0 0 0
2292 284 13 0.4238 22.54618991834438 24.742179876924133 25.641018710418447 0 0 0
1175 62 7 0.04 23.854631686577925 22.535740874364077 29.292691147910467 0 0 0
1176 62 7 0.04 23.517918553754185 22.981821555856886 30.923840337262593 0 0 0
1168 62 4 0.18 24.26391006664709 23.090944569996626 30.136666317505966 0 0 0
1174 62 6 -0.6830000000000001 24.429968313177827 24.460255974099912 29.79621554819402 0 0 0
1178 62 8 0.418 23.720492124503938 24.678545513689798 29.211421812414095 0 0 0
1207 64 5 0.08 21.175223028653257 21.41154448110196 32.08584535114355 0 0 -1
285 15 8 0.418 25.302796578379084 19.17367779616796 27.714007305351274 0 0 0
1830 138 12 0.06 15.176284772106639 10.030590942632461 18.87287939134623 0 0 0
692 37 5 0.08 13.886468739039927 22.696037679907093 32.06646234536703 0 0 0
1743 126 11 -0.8 21.73613890166445 25.594091276340716 29.36424572590214 0 0 0
2430 330 13 0.4238 25.428552546994055 25.775582425868073 25.805725041978867 0 0 0
1360 72 5 0.08 17.606960462381174 6.031327048489219 32.84451658679873 0 0 0
1469 87 11 -0.8 24.578141427048216 7.300511793912965 18.45614524052936 0 0 0
2599 387 13 0.4238 32.19358376569978 22.66603773265262 32.70221425112386 0 0 0
2719 427 13 0.4238 7.179129755844322 23.847117346043465 32.872660985314354 0 0 0
131 7 7 0.04 15.079136407792328 23.78441822325901 18.750192013667636 0 0 0
2023 195 13 0.4238 31.400086147068073 18.501242484011552 30.856089986857153 0 0 0
284 15 8 0.418 28.424268689598826 17.87056073498863 25.854113532981568 0 0 0
270 15 3 0.35 26.100684059425685 18.219965420743975 26.280887760695045 0 0 0
845 45 4 0.18 31.281028902814825 25.511788627697054 28.797539283381344 0 0 0
1169 62 5 0.08 25.712677732839133 21.494342974605438 30.146454297244702 0 0 0
1624 109 11 -0.8 28.34564174843868 18.29163025137297 27.402183833240155 0 0 0
1162 62 2 0.235 25.6993966980756 22.53943909034956 30.455730514126607 0 0 0
188 10 7 0.04 27.851497571838294 20.56061346139481 31.563993575119795 0 0 0
1172 62 7 0.04 28.083109072515516 23.528431786219368 26.705814849232212 0 0 0
1166 62 5 0.08 26.027189861196316 22.949127465755232 27.834536075710556 0 0 0
1170 62 5 0.08 25.85329449641563 22.50017131365612 31.534075351366056 0 0 0
2505 355 13 0.4238 29.347954714913573 19.70187252454985 27.90999369796353 0 0 0
1765 129 12 0.06 32.14154694747472 22.384455805194786 29.731914671734142 0 0 0
1762 129 10 -0.28 32.07538816352323 21.321341719127126 29.96314092211497 0 0 0
2504 355 14 -0.8476 29.676647236207536 20.607350090145193 28.178384512921728 0 0 0
1167 62 5 0.08 27.325892912599887 21.834983653135822 28.27302408208325 0 0 0
2503 355 13 0.4238 30.19858813692722 20.37606200981557 28.99938734068333 0 0 0
1761 129 9 0.7 31.00163450561628 20.949005230632626 30.917639922997033 0 0 0
1764 129 11 -0.8 30.43196595229654 19.823415556806346 30.76357280925209 0 0 0
1160 62 1 -0.48 26.686886223280396 23.35891162927846 29.782900327936947 0 0 0
1164 62 3 0.35 26.24301778599259 24.264897170021317 29.830147042089134 0 0 0
1161 62 2 0.235 26.95818220817122 22.853987223295803 28.39333443401244 0 0 0
1177 62 8 0.418 27.01264831267583 25.356775311680824 27.400943478808458 0 0 0
1171 62 6 -0.6830000000000001 27.76756048030389 25.170447755964826 27.937953813288264 0 0 0
2608 390 13 0.4238 32.228278707263335 20.895380775699042 26.45795438161452 0 0 0
2610 390 13 0.4238 31.24984578167885 21.570817755797442 27.47121843045151 0 0 0
2729 430 14 -0.8476 29.072989138615917 23.56758986706449 31.213078718553106 0 0 0
2730 430 13 0.4238 29.653727169210086 24.35542880449633 31.41805361466225 0 0 0
2609 390 14 -0.8476 31.89448351035642 21.79473283564646 26.74028350362455 0 0 0
1763 129 11 -0.8 30.693477018963776 21.641676282896153 31.906803367225795 0 0 0
1165 62 4 0.18 28.023320284989236 23.726128117920226 27.776046364849748 0 0 0
1173 62 7 0.04 29.028358176299655 23.57174811990701 28.168627177039465 0 0 0
1163 62 3 0.35 27.54666222778476 23.44119989973934 30.306421733758622 0 0 0
852 45 7 0.04 31.21288709208403 24.9261731239556 29.714308183813277 0 0 0
2728 430 13 0.4238 29.52703288314132 22.79077734020182 31.649393721421028 0 0 0
853 45 7 0.04 30.754939443813733 24.97396649250186 28.008849694774003 0 0 0
1609 107 11 -0.8 30.688411724575023 25.71747218097035 32.57006153403158 0 0 -1
2705 422 14 -0.8476 32.04536377189916 12.170474744568635 32.76855154362809 -1 0 -1
1629 110 10 -0.28 13.219341655638697 13.207123662619638 32.852112519653375 0 0 -1
125 7 5 0.08 16.344745111782302 25.827307633571465 18.899752366706885 0 0 0
1716 122 12 0.06 8.662016325738104 30.267195024483733 25.032979656301197 0 0 0
21 2 2 0.235 10.783354763875902 28.02578436445863 31.773284269654276 0 0 0
174 10 2 0.235 27.894771102809155 18.78082085806 32.78577594570477 0 0 0
1180 63 2 0.235 6.028914872182346 25.724320485154927 30.14162249970299 0 0 0
1185 63 5 0.08 7.111882896200294 25.84210687629572 30.178510557417123 0 0 0
1121 59 8 0.418 32.438099879415525 3.6075452398397463 27.685755804288647 0 1 0
1195 63 7 0.04 4.396588597115172 28.75533685581381 32.541068992910766 0 0 0
1187 63 4 0.18 5.375478655605605 28.83540549701136 32.06839860334111 0 0 0
1194 63 7 0.04 5.325136503641653 29.85586581630985 31.688687640826668 0 0 0
31 2 6 -0.6830000000000001 8.779362158393257 26.8194207363453 31.568884063557757 0 0 0
37 2 8 0.418 9.225687733444534 26.305136121948138 30.91367778617328 0 0 0
1186 63 5 0.08 5.670408887033545 26.05294523012278 29.166156838274244 0 0 0
1182 63 3 0.35 4.620733188160174 26.34563408623915 31.425191514040577 0 0 0
1179 63 1 -0.48 5.588917827633858 26.54918146732443 31.222096408158965 0 0 0
1183 63 3 0.35 6.121724057374485 26.29456194898477 32.041454071113066 0 0 0
1899 153 13 0.4238 8.928111293617391 26.45341422843845 28.13595776951836 0 0 0
23 2 3 0.35 9.731457978078993 28.33046435025768 30.13509165712415 0 0 0
1544 98 9 0.7 4.148196865630251 28.491327100983643 26.55965284963565 0 0 0
2203 255 13 0.4238 4.137960591262263 30.998160162511866 27.119021571709162 1 0 0
1898 153 14 -0.8476 8.03789486154363 26.473494569580428 27.680904325095696 0 0 0
1897 153 13 0.4238 7.73465466316991 25.52448287776963 27.594974964226093 0 0 0
2205 255 13 0.4238 4.863669095550916 31.93506531656252 28.16602550933476 1 0 0
2204 255 14 -0.8476 4.002051950657387 31.820427575467598 27.67162140441663 1 0 0
1181 63 2 0.235 5.551298536195642 27.956289676162065 30.8522862210709 0 0 0
1188 63 5 0.08 6.476911293657897 28.31986052562856 30.406067265184202 0 0 0
2687 416 14 -0.8476 6.634053935589409 30.66581268419875 28.283531544261816 0 0 0
2686 416 13 0.4238 7.6112865291641425 30.51503462997591 28.13438588078862 0 0 0
2688 416 13 0.4238 6.030970528069005 30.136119546244768 27.68714485643348 0 0 0
1189 63 5 0.08 4.8103779659694546 28.158886362026244 30.078952323908965 0 0 0
24 2 3 0.35 9.288182521710908 29.32278440784602 31.407448467481803 0 0 0
1547 98 11 -0.8 4.343746556826189 29.703376442818815 26.32936119889646 0 0 0
34 2 6 -0.6830000000000001 9.434970206139543 30.28358094968381 28.303580807992706 0 0 0
35 2 7 0.04 9.415796850673194 31.48937404622044 30.017780751493195 0 0 0
20 2 1 -0.48 10.053241070062079 28.957438939486064 30.85856876611348 0 0 0
38 2 8 0.418 10.054842765732875 30.048964610928557 27.630005551792237 0 0 0
1491 90 11 -0.8 10.509596311686845 26.99076577873612 28.953766984730574 0 0 0
28 2 4 0.18 10.135626254147898 30.95179575598079 29.400602276055686 0 0 0
1488 90 9 0.7 10.766546867763054 25.791691690704607 29.201184857969483 0 0 0
159 9 5 0.08 14.216599570887016 4.917907866757659 32.40515410672762 0 0 0
2375 312 14 -0.8476 8.306359275788601 30.30481687453021 32.716987290453666 0 0 -1
27 2 5 0.08 11.554739860216896 27.505585206098516 31.205470990712016 0 0 0
1935 165 13 0.4238 12.813031744874683 27.798559046796182 24.642940399745275 0 0 0
157 9 3 0.35 15.255458032261016 3.333966159998646 31.061983447794717 0 0 0
2309 290 14 -0.8476 14.773112479871708 24.813264258282192 25.740178190803576 0 0 0
1493 90 12 0.06 12.347182323077677 24.358628313636263 29.47967644631891 0 0 0
1489 90 10 -0.28 12.224506307987403 25.36677853913273 29.083901585353058 0 0 0
1953 171 13 0.4238 28.19737655977166 29.726615236717898 27.116501412242343 0 0 0
1712 122 9 0.7 10.68900510518198 29.44685297887491 25.080208604859404 0 0 0
1714 122 11 -0.8 10.898962541130713 29.873260803758953 26.202753467621505 0 0 0
1934 165 14 -0.8476 13.289771309725394 27.09044204060357 25.163761037130037 0 0 0
153 9 1 -0.48 14.983127424919388 32.63526215660751 31.987541150345802 0 -1 0
2310 290 13 0.4238 14.180855759928352 25.571418960010888 25.467422060865445 0 0 0
1494 90 12 0.06 12.534532072208954 25.463594434348853 28.043437874710822 0 0 0
1415 79 12 0.06 18.582117748069216 27.58699908353745 24.919078993456704 0 0 0
2632 398 13 0.4238 12.342977506745347 32.107144212478865 25.507100549699157 0 -1 0
1883 148 14 -0.8476 10.75615188842722 32.52158265277656 26.07680128375973 0 0 0
22 2 2 0.235 10.918358740267273 29.951498450947547 30.263768818049275 0 0 0
36 2 7 0.04 10.887508513665574 31.607033014482052 28.96083954295255 0 0 0
29 2 5 0.08 11.417770637315783 30.520700748970096 31.047765368381008 0 0 0
2180 247 14 -0.8476 27.235024817440635 27.924939109481915 29.12129864818789 0 0 0
30 2 5 0.08 11.733890835919787 29.472511571985947 29.721981939059283 0 0 0
2427 329 13 0.4238 11.757722268591161 27.7715372159195 28.180987259780874 0 0 0
2426 329 14 -0.8476 12.44726826817303 28.352416341433614 27.748472082266733 0 0 0
1882 148 13 0.4238 10.661562985169713 31.526866193432426 26.116236584599015 0 0 0
1933 165 13 0.4238 12.988051968803813 27.191408846278243 26.111776098125976 0 0 0
2425 329 13 0.4238 11.891878245771734 28.84099802818518 27.075572540093084 0 0 0
413 22 7 0.04 16.407741896429645 26.257283620814942 29.27433775274877 0 0 0
156 9 3 0.35 14.495212562791446 31.753114347160047 31.92577425209495 0 -1 0
410 22 5 0.08 13.841696653026395 30.556110562623683 28.627413178454972 0 0 0
171 9 8 0.418 15.932852254988155 30.099437575569056 32.354552588280185 0 -1 0
168 9 7 0.04 17.7876930094545 32.14025592974302 31.705937459466664 0 -1 0
416 22 7 0.04 14.44682877426519 32.60932146919308 27.782709944212694 0 0 0
407 22 5 0.08 14.45839159963981 28.066345456253462 29.106205655076042 0 0 0
167 9 6 -0.6830000000000001 16.440990476331407 30.58316664065479 31.72147105610675 0 -1 0
409 22 5 0.08 14.51081357599646 30.254631978289858 27.01793909560147 0 0 0
402 22 2 0.235 14.764486750556427 30.493660979458177 28.05068741599489 0 0 0
415 22 7 0.04 15.811113975471319 31.93907986563157 26.922345107184025 0 0 0
161 9 4 0.18 17.128562216155835 31.664310091271997 32.43193760352642 0 -1 0
405 22 4 0.18 16.63116373873272 27.300746848149995 29.052253947203837 0 0 0
414 22 6 -0.6830000000000001 16.098076728731904 32.21128795471657 28.97181077098457 0 0 0
406 22 5 0.08 15.108668853821337 27.856455730557876 27.55385964009809 0 0 0
401 22 2 0.235 15.38817759432635 28.193921707002257 28.55188052306371 0 0 0
417 22 8 0.418 16.162423346354366 27.889661505227807 30.85880321883233 0 0 0
403 22 3 0.35 16.065675020762477 29.947850600449893 29.54716892714683 0 0 0
400 22 1 -0.48 15.75863542899713 29.627171303452403 28.640001833439655 0 0 0
404 22 3 0.35 16.50211206591461 29.774725830102728 27.97252092633579 0 0 0
411 22 6 -0.6830000000000001 16.947298845711856 27.686722664905783 30.373234711353486 0 0 0
408 22 4 0.18 15.267442193152423 31.896795976699497 27.866107302907213 0 0 0
412 22 7 0.04 17.499081618573726 27.360089778614938 28.39555687501193 0 0 0
1414 79 11 -0.8 17.52078716457138 29.83218920154454 26.33733533008195 0 0 0
2437 333 13 0.4238 17.95605276614683 31.490572258259423 25.97897922238313 0 -1 0
2065 209 13 0.4238 13.961059371692604 17.07407051526055 32.77032969392117 0 0 -1
1807 135 12 0.06 14.570613954489414 25.79606465665026 30.859327856252772 0 0 0
1590 104 12 0.06 21.9023559431433 3.9430007970571195 25.978148931672617 0 0 0
1546 98 11 -0.8 3.320878291893955 28.016810738416396 27.363937514763233 0 0 0
1745 126 12 0.06 20.325287934036403 25.64264190894216 26.57844343966656 0 0 0
844 45 5 0.08 30.271018851347172 29.50292060650631 29.408154727843073 0 0 0
2429 330 14 -0.8476 25.39083310184965 26.16518662170235 26.725913707659444 0 0 0
1587 104 10 -0.28 22.440090401886792 3.4311775191228717 25.18006834366599 0 0 0
859 46 3 0.35 8.46077966357969 19.146037127576214 18.856968950320123 0 0 0
1744 126 12 0.06 21.065205860812625 27.290639038345418 26.924503893395332 0 0 0
1742 126 11 -0.8 22.937811831482765 25.422737785527566 27.54255281719799 0 0 0
2428 330 13 0.4238 24.500952955827614 25.823891623298575 27.0285560939855 0 0 0
2438 333 14 -0.8476 18.24480666554435 32.435647849202326 25.825957361382063 0 -1 0
1740 126 9 0.7 21.871965642360653 25.622441985417705 28.11894037356934 0 0 0
1592 104 12 0.06 22.595413116295173 4.214125970798791 24.43782807879351 0 0 0
656 35 5 0.08 23.36024424086121 27.29590123478062 25.223336710032743 0 0 0
1746 126 12 0.06 19.911316586418046 26.490688359302567 28.041880803076065 0 0 0
1741 126 10 -0.28 20.71520411150411 26.337912555728924 27.32182633922931 0 0 0
2187 249 13 0.4238 24.723477137208832 31.23894648276776 29.254165700604037 0 0 0
67 4 5 0.08 22.6482437641142 29.362451685775948 29.621616792488275 0 0 0
2116 226 13 0.4238 22.470317335313 31.662322528415245 28.726788413493576 0 0 0
73 4 7 0.04 23.804530424278873 27.29470237265257 29.35686587281661 0 0 0
62 4 3 0.35 21.75410334458503 26.987414576208987 30.177262952037026 0 0 0
72 4 6 -0.6830000000000001 24.158328403542857 26.92432337509766 31.385018980816017 0 0 0
61 4 3 0.35 21.526108139017524 27.541625038503046 31.64091780276889 0 0 0
66 4 4 0.18 23.935936004506797 27.79822737254042 30.314597148287593 0 0 0
68 4 5 0.08 22.780564117885028 29.34894540825624 31.396161336552737 0 0 0
64 4 5 0.08 19.627394661007123 27.63628788148296 30.23985926993799 0 0 0
70 4 7 0.04 18.73811004348648 29.500868635270145 31.434902582289823 0 0 0
63 4 4 0.18 19.81511427453338 29.558846500227563 31.277566598212246 0 0 0
65 4 5 0.08 20.332812425500705 28.920510325357522 29.254934178638344 0 0 0
2277 279 13 0.4238 19.305456274534897 29.667713481534577 26.717401471815986 0 0 0
59 4 2 0.235 20.343079605482288 28.458385419397025 30.24204573048881 0 0 0
71 4 7 0.04 19.880893207068414 30.486066111132292 30.708364498053804 0 0 0
2117 226 14 -0.8476 21.48554404221165 31.836057891308766 28.727378368943434 0 0 0
2275 279 13 0.4238 20.31996951804839 30.706193170155416 26.021435164417863 0 0 0
69 4 6 -0.6830000000000001 20.540571167147245 29.706999369298707 32.49750637129563 0 0 0
2118 226 13 0.4238 21.04968132390701 31.002516719676052 28.387975518531512 0 0 0
58 4 1 -0.48 21.607007583007377 27.849527061869527 30.682422867870677 0 0 0
2276 279 14 -0.8476 20.233825411943577 30.036937070292883 26.759430929668092 0 0 0
60 4 2 0.235 22.739742569222134 28.72665754481266 30.50221193594166 0 0 0
2186 249 14 -0.8476 24.13620797792228 31.701931038385002 28.590295810590725 0 0 0
654 35 5 0.08 23.861541146554142 30.053794041393846 26.48823067102204 0 0 0
76 4 8 0.418 25.057042763790914 26.66205023552417 31.25650541918097 0 0 0
74 4 7 0.04 24.866328204818803 28.36333207432127 30.37010454061816 0 0 0
2185 249 13 0.4238 24.73907112912415 32.48347502225746 28.42995928994537 0 0 0
1803 135 9 0.7 14.557974712235609 27.088198664551435 32.53729236795071 0 0 0
653 35 5 0.08 25.19595589433754 28.86782272993454 26.099152809971294 0 0 0
841 45 3 0.35 32.00005671995977 27.37987617734983 30.438206881199655 0 0 0
843 45 5 0.08 29.975446424388107 28.830794921966213 30.90684527713771 0 0 0
839 45 2 0.235 30.5797363345152 26.838827304081068 29.149141946842096 0 0 0
2142 234 13 0.4238 28.714909320751904 31.199038034099242 32.47138610856353 0 0 -1
1951 171 13 0.4238 27.691356653530264 31.028613713249374 28.05877824916086 0 0 0
2696 419 14 -0.8476 26.782853141841795 25.986669384499233 30.887639608358405 0 0 -1
2518 360 13 0.4238 28.715816921957106 3.781564412276232 31.10479000622028 0 1 -1
2384 315 14 -0.8476 27.27197621422049 32.68316722040008 28.062532609670573 0 -1 -1
1958 173 14 -0.8476 28.490427203692356 26.992125803947676 32.585931104922295 0 0 -1
1991 184 14 -0.8476 30.771390433005415 30.069822588647458 26.9402180148945 -1 0 0
1952 171 14 -0.8476 27.765373573068924 30.035923531572315 27.963651438337063 0 0 0
2141 234 14 -0.8476 29.077581194660088 32.12641611703893 32.37972949850146 0 0 -1
840 45 3 0.35 32.12582272989716 28.193855235291107 28.96895646307866 0 0 0
1607 107 9 0.7 31.706121057423072 26.44342483336283 32.826033161453026 0 0 -1
2419 327 13 0.4238 26.56907487050473 30.555918761503563 30.45190276577174 0 0 0
847 45 5 0.08 30.14113793950742 27.286238362760045 28.257228872364657 0 0 0
846 45 5 0.08 29.70413935316031 26.61857412876431 29.759774800837416 0 0 0
849 45 7 0.04 32.05274117464794 29.833523021271212 31.831210958061995 0 0 0
1992 184 13 0.4238 30.015654404777933 29.734138199446857 26.377954305403872 -1 0 0
2695 419 13 0.4238 27.01655814353647 26.663175333240368 30.189295148513374 0 0 -1
851 45 6 -0.6830000000000001 32.662380784020215 25.63742800243132 28.485601899525413 0 0 0
1929 163 13 0.4238 21.412273462453538 4.566998755610694 18.701320748261153 0 0 0
2704 422 13 0.4238 32.14266598886668 13.109424870487098 32.438602328566304 -1 0 -1
1527 95 12 0.06 22.8098185163544 31.95569794118509 31.775126097163493 0 0 -1
819 44 2 0.235 20.9310161345369 11.513633338827011 32.260357785517925 0 0 0
1632 110 12 0.06 13.469471796945776 13.959175484204394 32.10384316725363 0 0 -1
1806 135 11 -0.8 14.938807081081643 28.05807149117365 31.827591295708054 0 0 0
177 10 4 0.18 25.137685965782193 16.277800280566666 32.70647412350707 0 0 0
2084 215 14 -0.8476 31.412231901372238 12.106679210885947 18.375204370833558 -1 0 0
1359 72 5 0.08 18.944636877228675 7.176291834537642 32.501606442793104 0 0 0
1994 185 14 -0.8476 13.66634227033621 30.199515600991795 32.17788934198143 0 0 0
1356 72 5 0.08 17.30212267542204 9.219686074738997 32.04329917965377 0 0 0
1529 95 12 0.06 22.189421555588442 3.990549631393691 32.24041133276234 0 1 -1
2156 239 14 -0.8476 5.191769326771674 19.86245420310966 32.499428581132406 0 0 0
1286 68 7 0.04 24.821371917534407 29.26893896856132 32.762366550522046 0 0 -1
1809 135 12 0.06 13.153607794450016 25.68758227352497 32.002015574044364 0 0 0
205 11 6 -0.6830000000000001 5.923897682655937 13.858042772797143 18.24587949827903 0 0 0
33 2 7 0.04 10.43927855390982 26.10897731920353 32.58467519158809 0 0 0
2477 346 14 -0.8476 5.111111737186914 8.600455633011453 32.726123981497864 1 0 -1
2463 341 13 0.4238 23.40543232876939 6.293539713547402 18.244151887300223 0 0 0
1959 173 13 0.4238 29.38772912051559 26.551704034424617 32.61490216158129 0 0 -1
441 24 3 0.35 26.591394682389915 29.292576246663753 18.14041300269314 0 0 0
1927 163 13 0.4238 20.907192403810654 32.76928330187624 18.15529699014533 0 -1 0
833 44 7 0.04 17.126314304483387 12.751058344378253 32.87957449153353 0 0 0
336 18 7 0.04 19.90158537769418 8.653201468452835 18.190604169098048 0 0 0
185 10 7 0.04 25.23258353441314 15.226809163404633 32.43358921908043 0 0 0
2683 415 13 0.4238 10.902913652452405 16.414985986013384 32.50682389898101 0 0 0
2120 227 14 -0.8476 12.590144255964754 21.88673184594774 18.36596481465945 0 0 0
697 37 7 0.04 13.253764607862811 20.371337731042694 32.79855373184743 0 0 0
702 37 8 0.418 15.090404721091987 19.27585581752414 32.85503119077261 0 0 0
2155 239 13 0.4238 4.6760071415024 19.020646935749145 32.658524269790654 0 0 0
1528 95 12 0.06 21.483903282480657 32.06909756593069 32.85785139107064 0 0 -1

Velocities

2047 -0.02127741486061247 -0.013136795112184156 0.0009885800897462018
2048 0.001985218361142226 0.0004711549731303704 0.0010795659590137087
2198 0.004853643856806985 -0.0036819184317834577 -0.0021724179642542874
2049 0.01953577585001583 0.007801857810800788 -0.002666544511131391
1692 -0.004546843333689057 0.0036224061031880266 0.006021182989038561
2199 0.02476937543950941 0.011734207179220774 0.009535121671594773
1695 0.00794210597158458 -0.019493923230976047 -0.0034449859723180605
1697 0.010898029959446243 -0.0029450148352585426 0.010396699617367644
113 -0.003907507973273559 -0.002157146604560527 -0.005714293184007003
2147 -0.00045870178538100117 0.0008799244705618753 -0.004462156789322404
2626 -0.030138971045135222 0.0024424569500958787 0.02068020927970001
1998 0.0031817578374074753 -0.0012640453510608467 0.005921194801718027
107 -0.008193882793840646 -0.0018428235330060145 -0.0005385271544296406
2146 -0.017534655303045932 -0.005478628319779696 -0.012964169058781042
2197 -0.00849519858577013 -0.008372837883475493 -0.020708816818312187
2644 0.006665708930271309 -0.02519817484948901 0.011195697683377038
2645 -0.002864310007388282 0.0007439974318725077 0.0024301913197260737
2646 0.019530899800175323 0.0154003145557156 0.01068821232322528
2628 -0.01450596880775888 0.020584269998635947 -0.0063279168823308545
2627 0.0007719139811066036 0.0027685366400794294 0.00043730949836581594
2227 0.002946419861659284 -0.008882673308423107 -0.011388456026027508
2228 -0.0010246445171228644 -0.0037260920123640775 -0.006894898922382029
2163 0.0023128913153105776 0.001784853283455876 0.013850528031244138
2161 -0.008519946132904226 -0.00432477504968179 -0.004610410666566524
2675 -0.007580859815734501 -0.0008635091772420993 -0.011734046035421823
2676 -0.005333599405158568 0.008521719149557802 -0.012659810794386446
1691 -0.00978106888000649 -0.00540968050323467 -0.00362566918630668
992 0.0010399773716588793 0.0015323594266596307 0.010588374991495576
1199 0.003721973614981592 -0.0024919076837871773 -0.0017252124953808425
1696 0.003042029809551817 -0.004142795186514451 0.00029578591783354106
2337 0.01837326253219905 -0.02966048215379239 -0.009283910131874504
2336 -0.004243947380781252 0.00852477160110072 0.000689432591061481
2335 0.0077108514681197 0.011050142601324782 -0.01867501035276116
2162 0.0006158145121812752 -0.0014554408227770814 0.0031325865739702525
1955 0.0031894201530513738 -0.004552234109057844 0.004295273949952037
1956 -0.03277533930184643 0.027554771277021124 -0.009894173274711048
108 0.012347257249271212 -0.005580226704133978 0.014119405746604117
1954 -0.030359029438071998 0.007824485478768064 -0.027421447326797754
2096 -0.0012773785111229966 -0.0017928250424802154 0.000694553974193365
2095 0.006314095723754854 -0.0075418470792539515 0.018761852246190706
101 -0.004011528349323237 -0.006757217189396459 0.0002155420472339063
102 0.0025536364681355327 0.007172811256488827 -0.00015364318909626273
109 -0.0019694194915087873 0.006686478455730507 0.0012783248032054596
2097 -0.020590403603243934 -0.01367868627715248 0.0004382644545972319
110 0.0023862347035242875 0.0014168406721389447 -0.0008096329848324455
114 0.007920318702691245 0.013606357369836891 -0.000770185600064445
605 0.006305951726763399 -0.003651720599439882 0.008251294805871893
111 0.022294087267085136 0.0012395795271894503 0.01237948193150647
100 -0.02034719074169412 0.005029920958656013 -0.00424399049167653
97 -0.005537242269954587 -0.0025053264058610353 0.002670822785038843
104 0.0019617751744893967 0.004014503390024519 7.897324069654538e-05
96 -0.000462481867930989 0.005344051986312306 0.00045839616224115467
2480 0.005018301501743026 0.0010205309866319508 -0.002311597157705561
600 -0.0067915377621419115 0.007012627610263127 -0.004114322028966399
112 0.013070470662657764 -0.009662877319937556 -0.002135371505058509
2243 -0.0003313784244765011 -0.0007253378039900972 0.000238222415707399
2479 -0.02723295966729532 0.023852466149566664 -0.007693580428227408
1381 -0.00024585906480433574 -0.0053947593379704804 -0.00474034568836913
2481 -0.0023665973616308813 -0.009877182900252898 -0.009714520192973877
160 0.04241960093600468 0.03666595350301854 0.016313981149525904
606 -0.00553896518205 -0.0038842328770505394 0.003971813265349363
592 0.002546489142666272 -0.0019209982865251868 -0.00456635579757071
598 -0.0021832679236414355 -0.005146721365693855 -0.0031656202022434404
596 0.02234009939746205 -0.016005061004033865 -0.007628421076032831
2638 -0.004040423183415587 -0.0037920589590857345 0.0036704558025304713
2169 0.00953171405753481 0.006066472060465772 -0.006856312707133648
2168 0.003379726039522507 -0.0030307588770267413 0.0025677299512052924
2244 -0.005920273878086258 -0.01128267247162673 0.0057849708194039305
829 0.007014876697119472 -0.0022309589354354994 -0.007780964418306394
627 -0.005168829632320717 0.0028585701358205635 -0.02748058092043193
621 -0.005658098345873271 -0.0075620151619360185 -0.0019654744534113935
902 -0.002447507706390071 0.005421288132774454 -0.004478218457751696
910 -0.0007940652859082359 0.012406798556754214 -0.0048626076536767105
624 0.01603774101042128 0.0075111045694423164 0.01006685387462018
617 0.004999200408938945 -0.0007116828733695524 0.004195961931122603
625 -0.018484415760000122 -0.013006310933876728 -0.039482434603087105
623 0.0034137320226429366 0.0010304229663709386 -0.0025584593903788064
611 -0.008690240239873541 -0.002601874786002724 -0.001465682907719334
618 -0.024528267541315648 0.0011465898348685915 0.003251300807665265
908 -0.0051663702287687826 0.0016584419922883362 0.00410399551909455
613 0.02446908463281528 0.004005363043988778 0.0022848406961665235
912 -0.015202841155449065 0.01022139073175026 -0.009984243967656733
609 -0.006080516713273112 -0.0097833103003255 -0.005943146068766486
1846 0.006310988283120691 0.00022280126183785347 -0.0033121681245700295
615 -0.005130381682271605 -0.006012300583925773 -0.00016390662197376255
610 -0.003645597263969823 -0.0016457325817291978 2.4336762353987323e-05
616 0.011141344769053502 0.0029038355307269455 -0.022961903371248534
612 -0.0016292520685429418 0.017086687598260333 -0.004915679436266581
619 -0.012356656237922196 -0.002830117453890989 0.0026309554777317157
2584 -0.006553797972650262 0.019443909177163973 0.0076416167629525765
2585 0.00016704092147828606 0.001422134815155674 0.007046603977058446
2269 0.005744287402984472 0.008557328920972248 -0.011697493917832733
835 -0.005626359766511667 0.002563834649037696 -0.022690118787965136
904 0.014809152779477893 0.009493644460847672 -0.006745701120240042
614 0.0033279292482697267 0.0019091540811797454 0.0036491370520472352
1889 0.0010226847596649558 -0.0029087285909633804 -0.003543265044204128
896 0.002130848575782625 0.002093576826811856 0.008180016319317142
2639 0.00063755522643668 -0.0045583837288136 0.0018990663001419912
2455 0.0023621767033840946 -0.01938497076290567 -0.012736953845352115
2262 0.004410518113142905 0.007298749376354307 -0.0013088418204646683
2456 -0.0030402903487124155 -0.0019183872853026096 0.0001559971773293684
622 0.020783476112684676 -0.012373077131410963 -0.007321595249003897
1849 -0.026414359636436135 -0.0013026261527030718 0.0032412429575487036
2260 -0.011938222689227661 -0.0067746854510263195 0.010991474137526443
1890 -0.0011199876294063357 0.011186074409226143 0.005296419674271253
1851 0.011370993441455283 -0.0072016854025979725 -0.01902274680015914
1850 -0.007816450463227183 -0.0012176753726533085 0.007185412447623758
2586 -0.0029888732859533716 0.006891207034021502 -0.014830784405683906
1603 -0.002933351446235525 0.000954672672109718 0.004221398345573491
2270 -0.003964089462338179 -0.0011446612589440222 0.0002795180969497588
2271 0.012052856549476477 0.03225070455426201 0.005200410164613587
1848 -0.0025577766910393172 -0.0010004630560388904 -0.000423054523638554
1602 -0.006421976458088825 -0.0011699471405913853 -0.0014226668222956016
830 -0.0014091793620476171 -0.015273501465906088 0.0006276063785808399
1233 0.007515707999781633 0.007340567323932095 -0.013707066761906488
2241 -0.022116403239517773 -0.00807903234855088 0.003157329343632374
2636 -0.002462786085026019 0.003544394910283353 0.0010756438362273545
2643 -0.0017370698381235026 -0.00040320577810324884 0.0030913458968600737
1924 -0.01368038257298913 0.0003014438468848378 -0.0040018960914393765
897 0.0033860986298751908 -0.0006228083247421859 0.0028313305003495586
1925 -0.003537359101234863 0.001575778166819256 -0.004187785998867794
1926 -0.017575805682237988 0.004691658086155043 -0.0062832669269580034
894 0.003328615279706959 -0.0018618003764294744 0.0006024059993565753
1845 -0.0014758774452157707 -0.004301608402410688 0.00389614023730822
901 0.0034518787013471065 -0.01085454847649629 0.006858722219075748
1875 -0.0073335139760379526 0.006560062997830983 0.0014886527574731712
1847 0.0021519644472833806 -0.0020865212769314886 0.008143634446707768
2235 -0.0030261673714974567 0.0008529333021412636 0.005632686123983543
2234 -0.0019916672980610475 -0.004733915006075292 0.005938307678808984
2233 -0.019615356777143367 -0.004983578367575624 0.005200959739489938
2431 0.00216721961963393 0.0006507777702407418 -0.0060317461718146954
2433 -0.0024630824330897517 0.0033625649292088745 0.0026022095503198442
2432 0.0030655984514631296 0.003971421072971026 -0.0006615020609741652
2492 0.0008742999628068614 -0.00166542851530072 0.0015979518050602455
2491 -0.004164821990118693 0.0026025923344583633 0.021234670728351262
790 0.00407845052800864 0.008258401152648571 0.00952446935323402
2493 -0.03112364989471942 -0.02173599496139682 -0.011220287213322938
2731 0.008370823675638656 -0.02859096403793924 0.013298712175834913
789 0.006452492935462828 0.010690470943327717 -0.009149058968055693
907 -0.010672070780847497 -0.0033157874861801944 0.014439695662271363
787 0.01782636626387923 0.017260639738901146 -0.005597548719975856
782 0.004602482229903751 0.0033794570062204853 0.0014350657047932389
786 0.020319038863379105 -0.0041375933612513354 -0.012273948719624927
2306 -0.0019130127407876367 -0.004392201662104961 0.0013208714029603718
2559 -0.030664235681553426 0.015589688366726586 0.016922576015397928
795 -0.005278181703173581 0.004089932355983545 -0.006182701805459088
2523 0.01419901052133384 -0.010485017959822438 -0.006088893206143193
2522 0.006068947438495364 0.002539195653950219 -0.0028496410682421467
2521 -0.0028510904824624143 0.0007049549449552822 -0.01223571702985634
2307 0.0006913304470688216 0.03435315832179818 0.007189204369048523
1874 0.0005304339094732943 -0.005823599703113987 0.0005347691399432733
1693 -0.00012287339030490657 0.0017702434439737951 -0.0057209121584502485
2153 0.0007147456213524876 0.006289936944223471 0.0013229939575158938
2305 0.016310835855271013 -0.001905972527293894 0.003909723304652128
2220 -0.010111465571326507 0.01832890730205555 0.012375868288282453
2662 -0.0059845025787324205 -0.003842193546802297 0.002949993459626645
2148 -0.0040150814883551855 -0.009231217791304517 -0.015002211252241557
1541 -0.008364426105879839 -0.016467238130864273 0.010186301697907851
2674 -0.0034986129304566335 -0.0011674378671552776 -0.005644832580238915
244 -0.029860572553224527 0.01533931128505654 0.00212989828244441
243 -0.003315410238577926 0.003607747897290264 -0.004012827976351543
2072 -0.003974455099322279 -0.0036386652545157636 0.0010894730889245835
247 -0.0044108297616651864 -0.009993960237992311 -0.023747293300864076
2073 -0.008158754779305907 -0.0037627856017038983 -0.0034676064526432144
237 0.0018197167840991934 0.0009737031453185063 0.0026727764838528024
939 -0.005804563057334332 0.0032186750978693162 0.0010470180641058398
1540 -0.0015325096413472772 0.004053678991710143 -0.0034280737598645513
938 -0.005377199806628113 0.010083414487194053 -0.013375062280109467
933 0.00014816146369246431 0.005323115847426951 -0.0025512347351403547
942 -0.016747198451993774 -0.01942396534191143 0.00024615480431436506
941 -0.015994492857521997 -0.0024024862874692833 -0.005139359537019991
935 -0.00044554656146128123 0.010362293028696686 -0.03538819893292536
932 -0.0005368035814262122 0.003139032031960365 0.0024615996063402043
934 0.0016591735746605014 -0.006842226076978869 -0.005805479961727404
936 -0.0187400297985756 -0.016470995365425 -0.009327692329185903
233 0.030686145519968833 -0.02004269679181812 0.0005808614406132477
229 -0.0003508588942655405 -0.0017434611081979408 0.0049669937803808045
232 0.0021530196918472253 -0.008897350998256639 0.012123518658823313
1537 0.0065854387924971025 -0.0020457144885064186 0.0036586932840400456
230 0.003547520533483376 0.0026331106281389585 0.007264746315135141
1539 0.001403489366924729 0.005047836287023343 0.006747272353006206
246 -0.0021893691098345725 -0.0036046047960061607 -0.003275709783292483
1310 -0.0021777573135742558 -0.0004361253219308379 0.004883128206567549
1304 0.002867716255291592 0.002792753332805347 0.0011794189990266646
1298 -0.005344061832186214 -0.0006366352843338672 0.0014653603592553683
1305 0.021561043858788636 0.023792820563922557 0.0005317681105837204
1538 -0.0052334694462642765 0.001612462836656076 0.0020225031954066402
940 0.0027218149925843736 -0.00788319305589512 -0.004962815793969314
948 -0.017426071191608584 -0.002410309762878363 -0.003494374282795471
947 0.004558970747706974 0.01679150231442466 -0.020480434251486133
2272 0.001090283343543601 0.005405295183236652 0.009622542604973432
2273 -0.003839312390549072 0.0031672864149574326 -0.0009355343989616743
1543 0.010958885667609015 0.007696579082683561 -0.01378567864793767
240 -0.0004390874614531509 -0.0008787452257586106 -0.0021568232628016142
2071 -0.009977794067561243 -0.024356654580232024 0.013131253629297943
1297 -0.014796327373576201 0.0013243962061607326 0.0002222342087745627
1694 -0.0027252076296655093 0.0011802877448972586 0.0023956470495734438
1293 -0.002590276389389067 -0.009078438953393227 -0.0017232784349388722
245 -0.020803014139173577 0.01903232132020177 0.0012885136797373522
231 0.00044513890687229246 0.0017947393629190547 -0.004115193929097716
2665 -0.0073913097715988625 0.015222986480979727 -0.0015230962595901376
1542 0.005782746696113504 0.011463291823342143 -0.00029759182401738665
1997 0.007131226347022955 0.006645098913228573 0.0006836669199016179
150 -0.0171279727176686 0.0036275338099766375 0.00784966965335741
149 0.00427903618173724 0.0029515548684253203 -0.014848179563315815
99 -0.008068245284572726 -0.006594626865815909 0.009286913895056374
98 -0.00019427878057551762 0.0019004883791690671 0.00935807242413691
1294 0.0001888148463497297 0.0021186167167863016 -0.0070004392152764735
103 -0.0005003576076583981 -0.012014647684108745 -0.019284181793727564
946 0.003795025860242981 -0.004233804729357286 0.0024296322873153375
950 -0.005532798416899643 0.01150096495437608 -0.010142599188018572
1630 0.006263393492349449 0.0028601394248371163 5.994505454717651e-05
106 -0.0009100201266304385 -0.006621760382574235 0.011660844062563545
1686 0.0041121000020609855 -0.0016179048662531659 0.010477136449752941
1628 -0.001206218381129671 0.00427418549658277 0.005565519401582123
105 0.0006245858151937348 -0.008318275055171865 -0.0074420018321865785
146 0.009736689314047763 -0.017727422987364714 0.008921785986658657
1631 -0.0005714021482462286 -0.0034590320674113377 -0.0016764083408402697
151 0.019278915997938136 -0.0013550308892191687 0.011001371448321539
145 0.00300258589804674 -0.0007415907470412695 0.0016560787616526156
2167 0.0057914658458431125 0.0012304061003626649 -0.010071303473458125
139 -0.0009831861239275447 0.006029193227469311 0.0006219837429924539
147 -0.004863233871087278 -0.0029046875231031038 0.0009181463444359731
138 -0.007948425902206973 0.0074498612269851775 -0.007728741083814539
1299 0.012753851905493432 0.01049413798242923 0.008275892615491552
2282 0.0016620467401009399 -0.0009881522935200763 0.0036212945848379634
2283 -0.0090728204201077 -0.003572380998831342 -0.0012061647898926587
2281 0.01185287043019503 0.0016948393096155516 0.0009557349810670686
140 0.004747976423666246 -0.01000663100117049 0.011786372901514028
143 -0.0006211284226838506 -0.009519160306734383 -0.018057146657192602
134 -0.0005943500320460347 -9.651904899714316e-05 0.0006118151338746114
135 0.0039484317324602605 -0.005528134758982498 -0.005012897978649122
142 -0.004141451560495326 0.0038050364694039236 0.007447349351869287
136 -0.0005646364170438006 -0.0023306542566892455 -0.0068538216834117495
141 -0.015920522826177164 0.0170499495342771 -0.036260327062142876
144 -0.00922255177300316 -0.004788875625161447 0.009047599177237504
2012 -0.002491792166075756 0.005851855596558504 -0.0028152236434607174
2208 -0.0031398136259368223 0.007925869357847675 -0.015340644067355228
2207 0.005638221289575763 -0.0016229683104012056 0.0004209941095103396
1948 -0.006847275141504801 -0.0006024983218403095 -0.0010150136126457897
1949 -0.0020424946601088198 0.0009489864323049252 7.828639880976833e-05
1950 -0.0006145075832245017 0.006301781566901253 -0.004577558746834628
137 -0.004554669279125019 -0.00021098934937864998 -0.025898725997291244
1606 -0.0069691433096462346 -0.031939680375514555 -0.010684154512953053
1684 0.0024364016247427115 0.0011545599549601094 0.0016558655347671356
1604 -0.027199385967944488 0.02345129983882632 0.019301289418572665
2367 0.005186802604773505 0.005696414309363025 0.016872972670910383
148 -0.0006518546072955594 0.0013089652281260554 -0.004582223320985661
1601 0.0020676473776940416 0.003236909424700368 0.005479394664833542
92 0.009108737561913886 0.006389503999409751 0.012717161779098733
2140 0.0002489272306980783 -0.007124860735110968 0.004262243600370773
1688 -0.02627888525762 0.00075593997844407 -0.004466397203198239
128 -0.005737672075917114 -0.004155498973737765 0.02299998150261062
2600 0.00276011365052139 -0.0028339721130163794 -0.000517392429888824
91 -0.0018395162719344617 -0.0015959704394840743 0.000583260918251414
2152 -0.0036226370095459133 0.02025810011282633 0.0013833889333832582
1605 -0.021314956674052015 -0.003763542977185893 -0.004082255990584642
152 0.0014837669729461304 0.004004647619078459 -0.021539383551454277
1600 0.0011119859178774308 -0.011269713291028516 -0.003519616872360832
1224 -0.010785052849459738 -0.007576373161861728 0.015760645840148458
1815 -0.012407616701911326 0.009162242549349116 0.007592672158619642
1814 -1.4603500261448769e-05 0.0003898563798247702 0.003898487370197617
1227 0.022364780114733532 -0.01624360814193678 -0.009139055846688317
1219 -0.002766786115057494 0.0031508916835963825 0.003129181311765271
1217 0.00223494493003572 0.01138328330149203 -0.0014303839657921057
1231 -0.012229128745162323 -0.003310355132793311 0.0013900183397043307
1235 -0.028366448251889952 0.016401086397905273 0.011770537693322407
1888 -0.0008228626990754237 0.0022372009767308207 0.020815995526963213
2103 0.0005339969611283543 -0.007030973271255783 0.014189775465900455
1813 0.0005579256666502891 2.5977470396542086e-06 -0.003377125696136047
1220 -0.00610376893360947 0.004229706979849117 -0.006462191834001455
1810 0.00033542447737793223 0.0011831577441476734 -0.003653746261491145
1811 0.0018937458957522203 -0.0004972333918256941 -0.006823780813518751
1812 0.0004722467395509373 0.0029742081506941675 -0.002828444373571431
2102 -0.003874123433724324 0.0010909461418575149 0.0013305337297422968
1225 0.001531290209296239 -0.0012278477493543763 0.002571693561216242
2212 -0.0010809790263211767 0.00468269214722322 0.01430747030345262
2213 -0.0015182824647526844 0.0025984837473333917 0.004824209270922605
2214 0.025023404211654856 -0.011140844260721282 0.004090416308277629
1230 -0.019697934812820467 0.013529975852112089 0.002690831200586518
1222 0.0033745154738090474 -0.005792585692453643 -0.0008474731938123073
1816 0.011405865135126885 0.003151404699039359 -0.004066378255623295
1036 -0.005786775090673422 -0.0061981722202476405 0.007902929067410351
2708 0.0010085513628622772 -0.0066358294198502555 0.003982226099787717
2707 0.010536204733372677 -0.008835650062248571 0.009688443258157894
1218 -0.0024511745701252556 0.0012383858808774602 -0.002010128127950999
2709 -0.002542027288486125 -0.010580780068705576 -0.008324462992239406
1209 -0.0054127708840087455 -0.0007113701204325565 0.004969077052468721
1681 -0.001808991482117309 0.03343642715097154 -0.004743025901914889
1683 -0.005479216738072806 -0.021336243318619823 0.0031660744875884363
2101 -0.008797049608798947 0.003948358225682058 0.018685550907780447
184 0.008971826837152471 -0.01548670516160437 0.005692532802476807
2266 0.02260061408703667 -0.007986396949443718 0.024369805267712385
1033 -0.002848342792696117 0.003636196190866237 0.0035172460312395577
798 -0.004284842787451515 0.016404763209384342 0.0008741785056599085
1678 0.005159966975614276 0.004439946271876858 -0.004181257425495538
1034 -0.00035027890657851786 0.028047545839416363 0.00036614867291039326
291 0.0010010784245053242 -0.003558744422184665 -0.0016989728285666597
2461 -0.008675039179689615 0.002705303683850793 0.012018697926613822
236 -0.019596584642923055 -0.0006363712004374001 0.0039139967813643884
239 -0.01652912279294309 -0.006559692560885826 -0.006047605788334735
796 0.028624037671016428 -0.015961737578477023 -0.006546476334530054
1682 0.02568725334858179 -0.001922430682358622 0.017186398968330473
235 -9.454808811625637e-05 0.035379351969210555 0.009524231413292152
788 0.006013619482158673 -0.0021411882046134885 -0.0034162497412568212
781 0.0013213752466703572 -0.002187529266804412 7.788680003966545e-05
1873 -0.012761191877569151 0.00697170664730137 -0.014248735500092896
238 -0.01371746464296866 0.008042471744876642 -0.027872098803211787
568 0.0021081398236304804 0.0008701265993640434 0.002714799016539154
566 -0.008949355632920595 -0.008215474247286624 0.0015736899359194002
1680 -0.0022502463447066677 -0.0019731737169413175 -0.0031944895963120718
784 0.0015612928972390406 -0.01273369188261703 -0.017008587697786317
780 -0.002961821444522614 -0.007657755507507974 0.0027426817127227557
783 0.006476465602774459 -0.012233272364170369 0.00012699543998733492
794 0.00033103228548732403 0.002027031417875204 -0.003657283590929216
570 -0.002172823866753714 0.012901735451542922 -0.002491014708790491
785 5.949534287095029e-05 0.004947237969630849 0.0006413403624045674
560 -0.0007244807962141716 0.0008978117066936138 0.000882735750609666
1677 -0.0014865402371219956 0.0016430342718024766 0.00029482167135730413
178 0.030582414701547295 0.0004149308391988391 -0.011642007875687938
793 0.003937688136906246 -0.0009091278663025459 0.02069792747406829
1679 -0.012108209014155137 9.675255356849852e-06 -0.005292349443747725
2648 0.005406089688008322 0.0003549470744461407 -0.005997428115995926
2649 -0.008435855634724753 0.0005274439033347064 -0.020039420204265218
2647 0.005980232033282597 0.0013569861513571912 -0.006331005139052012
567 0.017510664871865277 -0.005265065921584689 0.030087207422448418
1980 0.016279338432222637 0.018801894936803194 -0.037807725622572785
1979 -0.007540646373418697 0.0017767560269115446 -0.0020111332022581304
2173 -0.0003555176079387637 -0.012228625650933161 0.022272809093408404
791 0.005998826138973147 -0.00015715288077717293 0.007805551779822556
797 0.007046240002293341 0.008672874137639586 -0.014482597869603835
1978 -0.01049831981646488 -0.002966905056228257 -0.003733019628417474
792 -0.010001777423986054 -0.019930735567453624 0.006619131325807911
1037 0.006309702835696871 -0.0007212448694719032 0.010394397470119604
2175 -0.024578133428112395 0.006315008802637541 0.0010079852017502709
2611 0.004372668324284186 -0.010967838554562227 -0.007109618105268031
2612 0.0034315002678340094 0.0029902926322602614 0.0023701945235405242
2476 -0.016957269846155424 0.013846988484383224 -0.03173496362636253
2174 -0.0010143170369244518 0.004327734381485281 -0.0007883916113439277
2106 -0.023690956349802512 -0.00858555009771473 0.006351967062938224
176 0.003690296388479047 0.009969418734305483 -0.008082631996240937
181 -0.012545150481612168 0.0010062044514745506 0.00715908682246362
2613 0.029942879550628538 0.001724736233617403 -0.0002252159073186239
2593 0.011521029233149837 -0.0031900746871419815 0.0020318058780075185
555 -0.02023298795360364 -0.025426789428380007 -0.0016176202081713991
2720 0.009158269439739587 0.0023597578587074967 -0.004266416143595922
234 0.00988507741214813 8.014147918895087e-05 0.006317430559493365
1306 -0.03543100294596181 -0.012180301010287534 -0.006328557698032384
241 0.019823646141503986 -0.00034608682313866363 0.014102858021390665
242 -0.009045294660495444 -0.004477653934262873 -0.005866676395622025
1580 -0.00366979964406134 0.00031296751401789345 -0.002046152509253596
1583 -0.006139290741723951 -0.007090685637956778 -0.004226173729422687
1585 0.01048690660028624 -0.009498824433810492 -0.009154329571996437
1584 0.022075430637839302 -0.021420025907492975 0.0038586447715761463
1582 -0.002974976431842843 -0.005842092598601148 -0.00023718871633883644
1579 0.0073018591034955 0.00404143939908063 -0.004093695970651414
678 -0.013497142046634599 -0.022760094778958465 0.004406939155148354
1156 -0.01761504266830091 0.01054214931048414 0.007797461432210651
1159 0.007446166748008102 0.0011309735920452804 0.004903565356496982
1155 0.003866018304982073 0.004412381637740104 0.004707777101746558
1157 0.0035524905781716214 0.007066267999579408 0.0037309835415585027
2404 0.013861455512855095 -0.0030861351627844732 0.008745869132520885
2406 0.006534895713285503 0.0019870216618851425 -0.004845348812997805
671 0.005519764704780876 -0.010890593322536633 -6.448563264581166e-05
679 0.016402877858777892 0.003661740772959199 -0.008277101629449548
1963 -0.020197123240939644 0.02170663584830808 -0.00812304554840366
1964 -0.0033744621898676797 -0.0018767975023116553 -0.0019309779027258441
1965 0.0005876453351879743 -0.0025993127736532893 0.012769353228838522
2287 0.012786240672560973 -0.01288518681828206 0.01606737108661515
1581 -0.0005054205568784675 -0.004124485532186987 0.000507345240745556
2496 -0.01171933849852359 -0.0001806379363492641 -0.002476037573432313
1597 -0.007073481243133597 0.007677492583030492 -0.012743045049292788
2495 -0.0007152244786838711 0.0011101949615552724 -0.0031936730938209195
2494 0.027132149366704432 -0.016596001901555846 0.00989663624003179
2378 0.007371053158727835 -0.009541134846095171 0.0006475299764766611
2377 0.0025611639455436893 -0.01769358851905857 -0.024062092569238913
2379 -0.0005227055420728178 0.01695069872186623 -0.00474962268990592
2288 -5.611019958502232e-05 -0.0038882151396290804 -0.0038930834423799264
2572 0.012408427086623104 -0.004498399964910138 0.016240164886373816
2289 -0.026334563687020508 -0.0037240831617461195 0.0001628128797759604
1149 -0.0014268812768790933 -0.003119399434751306 0.001753194340378096
2405 0.004992712400288266 0.0010655445145401697 0.0008534465325681307
2617 0.01812848673592494 -0.03318014430185052 -0.015005828794329667
2721 0.0009474052453097106 0.00941248167631768 0.002009160745526768
672 0.01703446401247936 0.020081208678234746 0.01827916366829582
2667 -0.0056997470953220695 0.00223380598880841 0.022640935758086157
1525 -0.0013661492781008647 0.004177098884894304 -2.310020661915715e-05
1594 -0.0082120781697983 0.0033159559538767738 -0.014564944733225558
1598 0.017942937626326802 -0.005606012617777344 -0.014927264491447028
667 -0.0031960953190271727 0.003460130601422576 0.00310866017216357
1599 -0.013686183760855621 -0.0004121447255819327 -0.006824763731730036
1596 -0.0071817721782504096 0.0035445057262717323 0.00459672157980702
1593 0.005357875118051623 0.003127572414896774 0.004950170920457775
1300 -0.000946349346487594 0.0014463730922432377 0.024694574532935318
2366 -0.0006580483124731233 -0.0010197798732683207 0.0011257670056517225
690 0.006490716467561244 0.0030881273008738805 0.004398626497944285
2200 0.009892872687283958 0.003242596248430305 0.0034232341252209714
1595 0.0004962613558069647 -0.0028433107521318116 0.004003695037825955
2365 -0.019451020005082063 -0.008258500978946953 -0.009108386772661665
669 0.0007398290528629216 0.005244173014657357 0.0008104540390813418
681 0.017978438716497163 0.004077981742619099 0.0022748823717239006
674 -0.005636792998064255 -0.003356011393315647 -0.0006251501217712318
698 0.002526886590860846 -0.003192714208927055 0.006840145781489385
670 0.031498966822766074 -0.02788404199553368 -0.002724633304775566
532 0.0009917803431783755 -0.0022855358397630464 -0.014028356369609429
2353 0.00946914212800118 0.01710949538436679 -0.024379445251584708
2354 -0.001978639967395488 -0.004657359833074236 0.004619152906969943
2355 0.006237108071586903 -0.0021927438096357235 0.015327371089247836
528 -0.0006439470000182605 0.003512736956717232 -0.0037850534715107376
666 0.00560819158957426 0.0034366681790608516 -0.0020371137793319906
668 -0.0009758459432428745 -0.010255033668836826 -0.009675661314136415
1248 -0.03877537528876662 -0.01760638420971871 -0.001666097253537874
1253 0.02566922522349945 -0.015901019152206243 0.001800891236640426
1247 -0.0037991018052652235 -0.0007830440491195283 -0.010052415212770408
1241 0.001474104706226068 -0.0008476644992965454 -0.0015218577939125175
1242 0.005387796948777673 -0.03885392511372124 -0.015793289115472703
675 -0.0038635251447735196 -0.018233425899920698 -0.016159040871033398
1249 -0.006836005192343091 0.031152078893375016 0.002113887381501308
2402 0.002720039990037902 -0.0032394142160971705 0.0012643910612981622
2403 0.010053004705369052 0.020358956813767978 0.01811792250240149
2251 0.006042664586471315 -1.3315982095776152e-05 -0.0039651986357933525
2678 -0.0013721073273058931 0.0013280282296433406 -0.0016495963718662363
2252 0.002548744348043681 -0.0029387919819111757 -0.0013503697209512468
2253 -0.024958987652816 -0.008170440162271891 -0.00895608244095846
1560 0.00031981291987497507 -0.006404710757210011 0.006606429529774589
1558 -0.000869891281030412 -0.0011781754694305275 -0.0016594789909412692
1561 -0.0003161423692944401 -0.0009579375315150815 -0.0005356508722236435
2679 0.0041803245047487584 0.023838175286768747 -0.015398275546165165
1237 -0.003722474921289634 0.006453302998273392 0.002954407242868293
680 -0.005031747724388475 -0.00240847726121101 -0.0010720234243864165
1243 0.0005314675386259342 -0.014164584581193882 0.004915293554723045
696 -0.002710048153744394 0.00588127697614105 -0.0014265802544085212
1193 0.0040427395347140925 -0.005912842172278559 -0.004821065329280277
1211 -0.003136454310805073 0.011686679496607452 0.002468755243613034
335 -0.0012596182826449184 -0.00022405175650219586 -0.0012588589770972777
155 -0.006820773139418078 0.0002199106405312641 0.001961147895603489
162 0.0221618461580223 -0.009836947274207159 -0.0003461882942326146
2320 0.010776767410778236 -0.003510977050212735 -0.004306225344095785
1202 -0.00018525409762719158 -0.011904801714068946 0.020269868314461124
2005 0.006950535142093765 0.006210598034200081 0.005887752809813642
1215 0.0008473354142533342 0.01878723723424281 -0.00535751754285028
1206 0.0009725743679822406 0.006341137600781543 -0.0011576217482211666
2267 0.0028342286361071646 0.0041382172886789085 0.00699974463322533
2268 -0.02008243147843408 -0.011869426325279129 0.014052274853487248
2401 0.005191412405401653 0.0016103993671702068 -0.005096485105936601
1553 0.0058645032543927856 0.004490118284599054 -0.000275630228108301
1203 -0.010024185666746056 -0.008133872286196353 0.001237547583344099
1551 0.005827783887975378 -0.006807990647506936 0.002849338066677713
1552 0.003803093797127706 -0.004305927633494601 -4.7133269914671015e-05
1554 0.0017756405515886207 0.0021147033693745495 0.0028030604489996482
1201 0.0176743903045422 0.010477041350829224 -0.001140266668852719
1556 0.0019576107566490085 -0.006271222488849997 -0.01598217010954024
1198 0.00048604898155169284 -0.0015810706392816254 -0.0006899246097811889
1557 0.002795181998002152 -0.005728713643535473 -0.0038961192904378257
1555 0.012650547982831618 0.012597885016864433 -0.024033925585207234
2061 -0.018280324847212 -0.0020248196547729435 -0.007525722976312026
2060 0.004695122384840679 -0.0026988631233947685 -0.0009182543728819852
1562 0.019896366372880475 0.0035962331409792785 -0.01385464236530016
1559 0.000569850884170603 0.00246320574105914 0.00562946334235931
541 -0.0049393746818276185 -0.003416173424134663 0.006336701688849168
549 -0.01662544710746896 -0.0005454646367889692 0.039101391811454174
548 -0.020636661395495578 -0.00295323942050805 0.017472505028939954
547 -0.0015546522121447654 -0.0017909389776443034 -0.005049893348810581
542 -0.018468346754443137 -0.005486286465413753 0.0024684347607253367
535 0.0007842370605292183 0.00435593174641319 0.0026828669195744443
543 0.011842904462133536 0.009334269911243238 0.0010738867157619918
533 0.005332840182882083 -0.0035509150194188164 0.006000210021167873
539 -0.02547893056815363 0.0021666129457866413 -0.009398079357699578
534 0.0014967114405801886 -0.004049436726322929 0.00269291360027516
540 -0.02042579488940758 -0.03828468368582846 -0.027063991660709934
536 -0.010137188352485222 -0.02188462845210169 0.008784590568955364
537 0.012366863352724498 -0.0010404504208962242 0.005337850205896864
1563 -0.008290076878999023 -0.017502617088294353 -0.0211300320241873
2352 -0.004810841223647482 -0.0075777997646279596 -0.0004100394430494479
1214 0.012572886892797765 0.018113392080375882 -0.005458435569484407
2351 -0.002544751791798821 0.0009196469707168038 0.0001234783160405265
1564 0.014770079508310649 0.012540212843426332 0.010897663679374245
1212 -0.0007969820432607848 0.0007780993218026768 -0.004959804939479323
2007 -0.0010010797960283253 -0.03000500671667588 0.01612162693134008
2044 -0.006923452981065142 -0.004634000471052503 0.024453756743516922
2002 0.0016514519845008944 0.00779963676952346 0.009393913165170352
1506 0.012084616009878727 0.0286624615187599 0.007759418138823325
2474 -0.0003366617833810164 -0.0023534728231286717 -0.006444747755335439
2059 0.017748962383847936 -0.00584158800857567 0.014351240807157578
538 -0.003363915980139212 -0.004451726185888927 -0.005243319957127078
546 -0.006023962589585493 -0.00865313897357347 0.016350392810816905
1753 0.018092554569004014 0.0038548133796563557 -0.015021674857494238
2475 -0.0020659677691336493 -0.009209603349493296 -0.008757991067161039
54 -0.0037186972831568894 0.012253860320261661 -0.00016324597606984508
55 -0.016072747844848027 0.012043711397699207 -0.01780321337335673
47 -0.008413252669529522 0.012635554938083384 0.004020310729213427
190 -0.016936652938606595 -0.003625951107554243 0.0019189848116016445
1502 0.001370220005932651 -0.0023804976452904488 0.003886911572308499
1505 0.00025742076878071597 -0.004390837206243935 -0.0019513010369965993
1508 -0.013644236665520604 -0.016956996029426838 0.017206489088439428
1503 -0.0029495032074094477 0.004831867992261736 0.004234182477152186
1507 0.000692452987914771 0.008114645689451624 -0.002978454701084828
2264 -0.0006568801586675928 0.0023740177566569857 0.0023454368063509606
2263 -0.0018201016556910294 -0.006440635951470386 -0.0115185417483137
2265 -0.00830347132178949 -0.010620893392802323 0.01370722601640276
2240 0.00021158240530308762 -0.000840248981036033 0.0037665433347015016
2239 -0.0011032588124075822 -0.02772766250081478 0.018075909253281452
2473 -0.0021416338861634148 -0.009044160467253816 -0.002708867995620432
1504 0.001940777431769262 0.0034879765736182183 -0.004011828360453011
49 0.0023516799180175597 -0.006559899419835865 0.004897396081039172
2299 -0.02765441533275176 0.01994166671454639 -0.021324853843791385
41 -0.003319095137554272 -0.0015408125324605075 -0.0029198867199743744
48 -0.007544502127980906 -0.003645064285287473 -0.013071763459032704
42 0.014387946982291207 -0.016328006417348443 -0.016287936867273884
2301 0.00029699407853555097 0.0011860374355102642 0.005242797718548274
2300 -0.000153258646025236 -0.003704987532793007 0.0014075309035023694
805 0.008010278599617792 0.025201803967546635 0.008966778106295962
43 0.01356403431611914 0.005344869001455475 0.005021990687992775
39 -0.008144462956070079 -0.0019895276557369444 0.0031435613642435654
50 -0.002538746141416815 0.003917527573700967 0.002367318478732777
52 -0.009850984569536023 0.003353134360246289 -0.009868765702107308
46 -0.005632780631430019 -0.007044376385612424 -0.0025589933097375657
40 -0.0021041292101999162 -0.0020646685528321693 -0.005110877724656158
45 -0.0019845515213866675 0.0005879223486325818 0.0057728393739079975
44 0.0011422036862669563 0.005171536305835014 -0.00269922955691487
51 -0.011010794179471657 0.02825850428794382 0.006431754892003485
808 -0.03202653970923801 0.007950579917817134 0.007022491829969706
56 0.007896491772737109 0.009242584804488157 0.005940896716335955
186 -0.0068381164185817465 0.0018633566239411826 0.0007179222245498255
53 -0.002685188497042119 -0.003493737820836081 -0.0013720045730595868
806 -0.0076321817000846275 -0.01069593239133136 -0.033981221399577564
811 -0.012603844052964776 0.002765371143566647 -0.005853571239970426
800 -0.00016601704018349658 0.0001212245220429136 0.0045403362228035975
801 -0.0014446900627069054 -0.005511624991230396 0.003135354610898676
809 0.005052480458462368 0.009273715781210471 0.019498609561684428
209 0.00646749490831408 -0.003166934989355504 0.004936868032231076
2619 -0.014826360485304821 -0.020310635571467953 -0.006234587223471368
2573 -0.0039793206273189136 -0.0048762910497015316 0.0003728458650205451
2618 -0.006581638960071927 0.0001278621087951588 -0.002508682896922507
1907 -0.0047976319704497745 -0.0010208754108364617 -0.0007024043423520231
2535 0.0037793192858647955 0.027175576182993908 0.0037812891998862852
2434 -0.020826239909238556 0.03409249657443415 -0.00040857041618981685
1143 0.00317027501389572 0.0020087123230085567 0.006722761641636975
2574 -0.029289270011107742 -0.007221822955252122 0.005978582964582823
1150 -0.01808020373258395 -0.0018863039114028707 0.00010341690095415327
1145 0.006551677096137172 -0.010503052292221472 0.0068044038278970076
1151 0.018580702950110585 0.011464407475298338 -0.032004020915019
1144 -0.026267767215373213 -0.003056468210446888 0.002208969995903478
1141 -0.0061828847717357895 0.0009284923658815568 0.0043170712435333485
1147 0.020780954718537924 -0.026692953814546054 0.004842623039295146
1142 -0.0031665530496985017 -0.0018550536611960458 -0.0013583537014975238
1148 0.0007379342039706289 -0.01580156660112843 0.014961606071518259
2435 -0.005103698466074939 -0.002863008086940421 0.0072815918568185384
1906 -0.019462907994949936 0.01216015227504191 0.0034521881063491805
2398 -0.011686742010171728 -0.001660988124163165 0.014455389424147027
2436 0.0069009780414621 0.006855268187900532 0.01705768636483346
32 0.017787133432410288 -0.013732327452174306 0.012472816441613386
1575 0.002947187709663948 -0.0026885440084605935 0.0023825458209737345
2358 0.005179387187946739 0.0046094887980649155 -0.021851535618246366
2357 0.00304291001203559 0.006953608890199422 0.0018302851863912254
2356 -0.028490299731861346 0.009169219308453614 0.018801145214775158
2374 0.009346926278003471 -0.004065305709716535 -0.004194387300977545
2399 -0.007680500557796202 0.0009476278748278166 -3.805603338270654e-05
1908 -0.005193258774041385 0.008716324026979855 0.021896691398073084
2400 0.017601467917733458 -0.0020011342068092285 -0.0126773557805219
1611 -0.00502286261745149 0.006726032078070746 0.021586698950366575
2003 -0.002132397013702224 -0.002782150745563944 -0.0028972861214157436
1572 -0.0026937170908000567 0.000353088453199136 -0.007085895634411105
1577 -0.006684770176030936 0.01381228105786792 0.020966297403899076
1676 -0.022573652191783047 -0.006322824258872884 -0.002879034405669334
599 0.008057336853101603 0.008103224970705557 -0.0038219615505492486
85 0.003812160323619296 0.007018856601024117 0.002149858624010744
2527 -0.0008864700441297254 0.00142356357578403 -0.000406518145724512
1518 -0.0009461705479723218 0.0009807751673969905 0.005632541163351665
290 0.01438660523292603 -0.016360510261809093 0.008802972015754069
924 -9.837258527603598e-05 -0.0023961967059280332 -0.0011216788777691877
1251 0.02173067202023355 -0.039758089746305555 -0.006676336907976161
1240 -0.001745175825004092 -0.0007577504442044236 0.012017339382066209
2242 -0.013915142528372748 0.0047442270588976794 0.03562374537384318
1380 -0.01489928459099488 0.00693997939593367 0.009281425264296208
1382 0.023020788089999356 0.020581491394690635 0.022667457460928495
1876 0.004126782745821526 0.007210012499508514 0.00806320180976343
1236 0.0003978550864522371 -0.0017747811699384871 0.007624274462176966
1239 -0.022542171971168756 0.022755819525544785 0.00020325681747677897
2256 -0.017343012842828614 -0.002855287849105159 0.015885954213091615
1877 0.0011085930075184838 0.0009454472099413902 0.003975769715594498
2255 -0.0030936284334067863 0.0012624562761214203 -0.0036311185383600085
2254 -0.004407658804194584 -0.01497376769157156 -0.0023286144024216443
1245 -0.012098999142866902 0.011431124636796186 -0.001957615364141355
1254 -0.01266244155902831 0.008917558534422837 -0.007447779663647772
1246 -0.00944203711435963 0.0034944615323195755 -0.02419353802175098
1238 -0.005793489715850489 -0.002945416202474752 -0.005316456325025685
1250 -0.00614502647144112 -0.00012419021565934497 0.0004081520313318087
1377 -0.0017034335864122357 0.004402970302991708 -0.005162709601143289
1244 -0.000533400369816429 0.003589708716525284 0.004384289156866371
1252 0.00617414956636481 0.005079991390184657 0.002829393146926153
1995 -0.011346998339478172 -0.009194851377836176 -0.0008976101749875361
1376 -0.005231569748920777 -0.0003743171402432522 -0.0011390100146935268
1379 0.004631611409598313 -0.0030305938603193538 -7.233160785352486e-05
2086 -0.015696054639253644 -0.004606906104647564 -0.0059188937872095854
1378 -0.007264274608518848 0.00015016302833583154 -0.0048770571599929344
2087 0.0007107463324721152 0.006637311799830377 0.005556119766425876
1805 0.004694082323961486 -0.000421574024427033 -0.00036281411988210277
1878 -0.017843264741980468 -0.00501000865525899 0.002350161957820916
2110 0.009467029824943539 -0.0002932694307591073 -0.007443865516819218
2454 0.00052621119273895 -0.010039326701816391 -0.007946196378293077
2452 0.00503616713381818 0.0004772808328898911 -0.014473029641407915
2111 -0.000605656950459274 -0.001052855645286562 -0.002491427385090978
2453 0.004036831827031247 0.0032915001338116446 0.0003826708269528315
163 0.020948020355427727 0.023146932792394635 0.02044339351362909
2340 0.017729959228114624 -0.0049884900802995265 0.020744730897916758
2692 -0.013066946931691808 -0.0028063717849989476 -0.02737766269613284
2339 0.0037100640806721676 -0.0017417478318025722 0.004070013829544386
2338 0.012843324382167735 -4.894321650304816e-05 0.0038519504526731483
1208 0.01215790190200311 -0.0037062576145100315 0.020134379407803393
292 0.014221865967794508 -0.006536406013121231 0.03231919393210847
2534 -0.004239867683795407 0.008704566535540192 -0.0016009587504491449
909 -0.037955125613253975 0.006917013198486078 -0.0023201155539393286
544 -0.0012912437294823925 0.0011752716808720455 0.0075754314525428796
903 -0.01412047095802979 -0.006808547150120388 0.0018990768378786922
2006 0.004525290154995407 0.005354269367127335 0.0035052213965651746
1567 0.006880536861313278 0.0015879152401490348 -0.005581460100891659
2324 -0.0028225945719909883 0.0012627743372517662 0.0034226581550021546
1523 0.004080983887830413 0.0028707373879154415 0.0052396436502983885
1972 0.004247207042681578 -0.007462664131201126 0.014342460518178115
1526 -0.000957457125868886 0.0021685328182347373 -0.006156962712340041
898 -0.004508589251455927 -0.00033617076169710416 0.0010739239079185813
1973 -0.0006734109770193091 -0.0023436427427459897 0.0021254348850185682
1565 -0.004089436072472755 -0.0022419986772562943 -0.0018923837230062663
1566 -0.0030482208170605003 0.005436914569784947 0.006488059621878759
2350 -0.001700526500177098 0.001704262339736995 -0.0032296158635303006
2507 -0.0006287483110681671 -0.0003154254703745291 -0.0016198589537917522
2508 -0.003102383326996269 0.018686499126824668 0.0041322273483318395
2506 -0.013679879301306645 0.025610409022932223 -0.005608993175802335
1568 0.004136120464340168 0.0018468487950636962 0.000637753916166859
1974 -0.0006376687360676638 -0.022374559986245938 0.00713601908310077
2215 -0.008959876356799451 0.026100955939041482 0.005248310531321598
1920 0.024794417405541114 -0.0029913722172677007 -0.01919882985303792
2217 0.024713460990380656 -0.00666188118893461 -0.00037413782411177077
2216 -0.0026799451884114036 0.0022629958258614507 0.0012301351296488052
1280 -0.003373772375495476 -0.010736842657932184 -0.00013106499168978285
1283 0.019677388296825152 -0.005498155374982911 0.007494303877271832
1277 -0.023318401164321635 0.012460044934670535 0.024678657938868476
1274 -0.0001925966522568189 -0.0031325330489281526 0.001212379086649863
1278 0.0060978857911145965 0.012851100230960075 0.008868119808776692
1288 0.002979684094200863 -0.0029114248003692007 -0.0025754847592924907
1292 -0.009437536324609036 -0.00011641710329944321 -0.016565537651888083
1275 0.007765902781939872 0.002586395601585932 0.0030674449267768587
1281 0.009520450027846846 0.0017976477857664674 -3.984512617812669e-05
1571 0.014576531580156205 0.019139662268298014 0.04519415598411227
1570 -0.006671564831908291 -0.0068757933854869885 0.006670997050420587
1919 -0.005164256494917761 0.004723866814122524 0.006633147505096313
1569 0.011257406740687075 0.008413855208729915 0.005082853298544321
1279 0.019754580069442192 0.006111455893756712 -0.004643618950382147
2325 -0.0195033932772669 -0.0008122350576379844 -0.027261926699557945
2323 -0.005451711383368165 -0.011363782956933521 -0.013343226959595418
1423 0.030365894757102503 -0.007832356480671697 -0.00758788289311827
2004 -0.010571340915853841 -0.00671867894132138 -0.020891874330634625
206 -0.02224204996651508 -0.002742976672358939 0.016689279552549032
1422 0.017186368357777208 -0.02095969474262736 0.014332769387357676
1419 0.002076869616200056 -0.0011182966626357743 0.007619371486241289
895 -0.003863451026201903 -0.0035570894227811493 -8.696811291650629e-05
57 -0.017730739662935847 0.005332938301679549 0.00938557504423964
1146 0.0021138772031615363 -0.002447508483428883 0.0013291531465759337
545 -0.010202122441396058 0.01351716812597737 0.011404123842614137
1276 0.0009974878810657837 -0.0005774113883130082 -0.007089958726742386
1282 -0.0013553837974353933 -0.001623684573063834 -0.00021843750898611696
1287 0.024719255477284506 0.009808490593536202 -0.011452770018829626
899 -0.001153377484915657 -0.010335900807515983 0.003299579358376219
1612 -0.008380472723225936 -0.007251517737121711 0.009957204878670347
1158 -0.02323485783746535 -0.026703622063900465 0.012793473090247628
900 0.0108633741680725 -0.002641651947827107 0.0023746414769454886
906 0.003919942893170702 0.0038762673837013342 0.0055210734992262225
1154 0.00500059601184909 0.012282877767718562 -0.025311097284273148
1152 -0.0057278954718503515 -0.0013709711754129243 0.0028096306219380055
1289 -0.004670711255833182 0.0007029782527130889 0.004240798703555545
1284 0.011392550592318992 0.013488990156364828 0.007075220779650172
1153 -2.7312080248859284e-05 -0.002325273800637594 0.002657446386310145
1291 0.007492336063726014 -0.00014476953219596215 -0.00522651843107103
1290 0.0016761386328321363 -0.00487671344466443 0.006652037654809871
905 0.001370134372993539 0.001653683503417148 0.008670580402753035
911 -0.005918433010240852 -0.00527773794234117 0.004522225073113859
1608 -0.003869778003587688 0.0027345148882223017 0.004698872808168528
1285 0.0029193266161067688 -0.0013542749664758557 0.007214314192493448
2540 -0.005326184225202982 -0.0003807589369742686 -0.004026031907487186
1497 -0.0021823184470560956 0.002344546785597783 0.001998972312993301
1902 -0.006331614532196134 0.02339051402912398 -0.003145821045290209
1901 -0.0027892120811709997 0.004499965912153025 0.0009819868283381143
1498 0.00042613695474629675 -0.0026368413160981256 -0.0002659226401909341
1495 -0.00021947348637394094 -0.0028387754185514556 -0.003112658605612924
2541 0.0171851223966913 -0.02247092335947912 -0.0012296194995365735
1900 0.002805436096318956 0.0007055823749509647 0.009048595187875387
1500 -0.013993530029433326 -0.00912769900355475 0.03137857988122222
1499 -0.00772831911235047 0.002979808909442647 -0.002124570228124765
1496 -0.0052560637822556275 -0.001618499553256937 0.0032502997898627814
1501 0.009364686529852116 0.01356021197075652 0.0066922883362059305
1613 -0.0063888801021275456 -0.017970822866919294 -0.015499118615798545
2218 -0.0072974585353361085 -0.008527776752103882 0.014342527079757623
2196 0.031026705075220117 0.005072074785656941 0.010236201905088053
2219 0.0021165234413269437 -0.01081701482888889 -0.0028826702928792516
2154 -0.028790594304039067 0.001962209117654334 0.014741780115943837
1957 -0.007946934810544013 -0.01293823786509713 -0.0006300149735591968
2130 -0.02868954108147696 -0.013112329138676519 -0.0318307674784317
2229 0.0007010381637303374 9.843892910166099e-05 -0.012317709392665875
2699 -0.00544445319447892 -0.0023443598215068663 -0.0030905781500163948
1327 -0.0052522172840299445 0.016425360044466354 0.013849448542535099
2698 0.007352170731974732 -0.020384034682773958 0.0023586958939518497
2700 -0.0049866176094448275 -0.004063073072008142 -0.0033381882743943915
1328 0.015464596437627208 0.026841388931726665 0.002620626621930258
1321 0.004841997233245748 -0.025139164870975714 0.00317395815665878
2063 0.001759850901740334 -0.002573028335003867 6.034492252086849e-05
1320 -0.003005934002991579 0.00483629374390177 -0.002597322205631896
1748 0.005054114219446784 0.002694880632628248 -0.0011457697985344875
2537 0.005921714002978026 -0.0026791461719034818 0.00046632568129136546
2062 0.005840223921417643 -0.011838235001826049 -0.015396974292663427
1314 -0.0005656244517447653 -0.004833084866846831 -0.0025418725929123526
293 -0.01293276980812986 0.027806984738461406 -0.0005783476558722082
1515 -0.009324812265918555 0.010844774162029922 -0.012385406978429384
602 0.0013385504809719148 0.001716837587602378 0.0036245501981621753
1389 -0.005966947581420519 0.018163700774401964 -0.03581330144511432
1514 0.007214983266877406 -0.014385019531347354 -0.005701190215534891
603 -0.0054832479819384725 0.0047000179134089335 4.184399031135801e-05
2160 -0.0027691890123604183 0.006853425455404122 -0.0033838191917706308
1509 -0.0006238804336275694 -2.726577734839587e-05 0.002508377449588773
1388 -0.02500459039851992 -0.007977763524257761 0.00112228993917577
597 0.0202814935404928 0.007641498627505379 -0.001420824919479066
591 0.0016188040793249587 0.008519670222996495 -0.005775175145572043
1387 -0.0016067696609708753 0.013750088403034077 0.004758994725122758
604 -0.0029885358016405526 -0.0005526572726460702 0.002472464323509922
608 -0.006335148008214337 -0.007614151256191401 0.008245079037301244
590 -0.004187535306925275 -0.003284010023850925 3.5733774600732757e-05
1268 0.0030787538707838413 -0.013366632918298737 0.010631577881819985
1330 0.010607998781343267 0.013173584667168102 0.0041132188069281945
1326 -0.002321859715718972 0.006148044287172661 0.001048556951389673
595 0.0021674745516943998 0.003913462683106422 0.00019648361303443637
1261 0.01529233746252724 -0.016866068497564116 0.020311113652468515
1267 0.011181314312214577 -0.014114966069769915 -0.0010977355989165033
1384 -0.006297539659036675 0.007007973014695115 -0.002085598919438585
1260 -0.001652697538612072 0.003251365212317192 -0.0044658253168273964
1256 0.0004923865979490076 0.005134681461876918 0.0014835517316943911
1262 -0.01955663106657669 -0.012275605513745767 0.006294845878573123
593 0.013659314499745662 -0.01704422124452386 -0.0009026900940369152
1266 -0.00032155308241715543 -0.0017113575318140075 -0.0020081589594180115
1259 0.019062228566414815 0.0008280696472307574 0.015758929380491334
1255 0.008602500195287174 0.0004521263217730822 0.0048057007079807
1258 0.007777405277400438 0.002048809818352199 0.004744958337826423
1272 0.014266370862500181 -0.01428079459321215 0.035752966813796076
1383 -0.002092108375763997 -0.0035399276099625353 0.001877519248067582
1264 0.005083757043495516 -0.007343802599336987 -0.003608009210744821
1257 0.0007571575675826961 0.009694234944686079 -0.003172432904178552
1316 0.002358375583120648 -0.006027624018350168 -0.011709278983276441
1386 0.0009786004008030696 -0.007334473915075034 -0.00690294125767795
1967 -0.001930871166109825 0.003499564607609444 0.006845824357966256
1966 -0.0033702614209986494 -0.022979055327509004 -0.002692512478240305
1265 0.0013111791121067932 0.013432152519150059 -0.009487038823396833
1263 0.004246906316354533 0.0002584499488503893 0.010088154857717082
1315 0.017829967677462068 -0.02939552243876839 0.010119736728473688
1312 -0.010220824375768031 -0.008047614195209616 -0.004859028028889569
2545 0.011339360794922074 -0.01010761306056373 -0.004391600693120011
1270 0.009681047593779201 0.002338658693612319 0.009660323249855714
1511 0.0015075737442324809 0.00219455376230487 0.003993261021473082
2546 -0.006571429325122716 -0.002957718422208719 0.0011904416920162932
1968 -0.015405328959021646 -0.007464953205861684 0.0037783340393442795
1385 0.0005986983267650632 0.007922384789920994 -0.00042891921403464574
1510 -0.00860357877418938 0.0010188936781289446 0.002871972628468195
1197 -0.004507687556282618 -0.011183510687665356 -0.017717162350062193
607 -0.0015956630846634496 -0.0020727654846891194 0.01297229379204193
1271 0.009078428802079989 0.0034966521798837557 -0.002339112246483953
1269 0.0019723613071060686 0.003196568907499788 0.001398582067172972
451 -0.00767101636980571 0.0013775427355062044 0.00301609057525556
502 0.014358507557114158 -0.014274733607800263 0.011388265099882423
2261 0.0019609867623293017 0.004702562543241729 2.8819795551404616e-05
2045 -3.78335541393431e-05 0.0028573186447599236 -0.004647679248545726
1513 0.005006469449782945 0.00357103072823087 -0.0010872033347846372
1939 0.001349975426741012 0.0016142345248705324 0.0020560770156715286
2134 -0.019311415687590063 0.02519399072525278 -0.019068755527269526
2547 0.005793119200527362 0.013445445034105686 -0.013937158343480086
2640 0.0159886080730016 -0.010118091163955187 0.005398388649109658
2135 -0.0016112663058729664 -0.004062339015950258 -0.0011346387505110776
2457 -0.006885417273433573 -0.012271824155607748 -0.002882983032257514
2382 -0.010877087746591917 -0.011457979996937382 0.009339400735037499
1941 -0.020988290434961313 -0.002399426048005367 0.0208119222710511
1940 0.009594572602772928 0.0010101263480593865 -0.0011500281288195455
2381 -0.0006776203791892255 -0.0021415689477228364 -0.0013180051849032935
1273 -0.0008438055158011931 -0.012792211961950215 -0.01314728710828207
2136 -0.011114259289921586 0.005763517984891571 0.025319452383089244
738 -0.002217260097560469 -0.003784160043539048 0.0014826067650516909
739 -0.023582206965462878 -0.01987192589316034 -0.003543962048851732
741 0.009902371568585209 0.019805741755684832 0.003685255554756857
731 -0.007390311514448353 0.002760260743216682 -0.002412930091044556
732 -0.009826074963372785 -0.008488848185822849 -0.007601101146139559
737 0.00017900776923367534 -0.0006777210691795507 0.003913384438044084
725 -0.005943748827680887 -0.00602178749591032 0.00022404535141141166
733 0.008251693164087196 0.0010050898777630402 -0.011737056564825031
726 -0.00199331036948548 -0.0052723093745266295 -0.018116242937005082
727 0.02632826647028431 -0.0016654069791423765 -0.006848345307517876
723 0.0039885578904864565 0.002535919015013011 -0.0011961924289498806
724 -0.0010387268126137096 0.007490277377893322 0.0009750112406596268
729 -0.008978760796907981 0.002716956631840299 -0.026549336859011473
730 0.0031760797131074165 0.017106963425691384 -0.004447610074415274
1483 0.0009525615110912494 0.0012915270894563065 -0.005875186774102565
1481 0.00679040015689669 -0.005237845077782265 -0.003159034301224203
2295 0.0062250748583453025 -0.02501403196146558 0.01593637924963694
1484 0.005756382204755501 -0.003344407037210951 0.0028885283447834306
2294 -0.0008023952114394238 -0.0067295471869304015 0.0061223147381801735
2380 0.004684578660889165 4.534461371480364e-05 0.007807057884253178
1656 0.004877185999575387 -0.002444255169394688 0.0006352910416898952
1800 -0.012766985647176437 0.010868450231790745 -0.0031398194320379426
2349 -0.016070141632856333 0.021114572449992333 0.011677129055960243
2121 0.028358919840056774 0.0036304892404695915 0.007381784500996612
1659 0.0018587053652855757 0.002802706640251537 0.0034250587670408114
1485 -0.020249511461209697 0.021504642913031252 -0.0010994684258826138
1482 0.0060197656515616335 0.00947873547545084 -0.0013236093192190229
2533 0.003694176060254731 0.02295218598329665 -0.004960701724522697
770 0.009384784411186335 0.005571143778562422 0.0033567274485573387
337 -0.003842902707504186 -0.011910117204637173 0.0012668846077946749
1473 0.018999397020909494 0.008930242432667584 -0.013694751608280785
740 0.03170013481124058 -0.01956453957231058 0.023408359410067584
1471 -0.007518721272215445 0.013993981222053508 0.027149617669048925
2195 -0.002330391278210009 -0.010338377356948708 0.000793650205249104
734 -0.003039913758506831 0.003870079832545206 -0.0007397289958908459
569 -6.048530428283383e-05 0.0002817117104244723 -0.0047921574446145735
563 -0.00036403887243284674 0.0016012863315121063 -0.0007198671406423334
565 -0.013725695575801397 -0.003454693973270822 -0.00935087139361823
728 0.0012223835954881471 -0.002198504012054061 -0.009145321624024516
557 0.0021408115226602296 0.0049450117406609154 0.0011835620799733838
2558 -0.004942720781889985 0.002958076432330451 -0.0021824453323760124
735 -0.00974616373991111 -0.0022201640792640187 0.006371108711970082
2557 -0.00626715187032213 0.010817845245625228 0.004001003544974161
564 0.013028376913946132 -0.007412516371307964 -0.003904396581320367
736 -0.006090822408933166 0.0007968000555646673 0.001932635286718034
1657 -0.004456477617741019 -0.0018790282134999224 -0.0011485272626376472
1662 -0.0004737853436177983 0.014682470704309527 -0.0043291084574446
1468 0.010250881141976783 0.0021299329307501178 -0.004118347880343983
2194 -0.02280247342803339 -0.01599849219947886 -0.005512826710085989
553 0.004459487661103465 -0.00500801001875745 -1.4856269562116214e-05
559 0.00042424299985458603 0.004501198066106294 0.010246675973683712
1472 0.010989242794848676 -0.00717206233506499 0.012906294185586222
937 0.003692476464282191 -0.008643505515878959 0.002390342872200452
949 -0.0011625731449470406 0.009307833522651387 0.012408642717170001
173 -0.009674843177879337 -0.0028627825715030783 0.0021053391319554903
2064 -0.002449440626640758 -0.0027269407951332173 0.0004906290708984194
1322 0.015355597972643768 -0.01388657230549744 -0.025048435988825994
1747 -0.0037968450846655537 0.0014787600520790216 0.007891535909004078
1881 0.0015307189071889797 0.0036605045799615976 -0.003068450224479947
943 -0.00427837618385002 0.006606860903397323 -0.0004768390274791229
945 0.0036296012130491175 0.00279209214983139 -0.00870489519337298
2536 -0.014909329894875591 -0.0021647102481661988 -0.010839823488937491
1750 -0.0007730837649983342 -0.00130789752536385 -0.0004968234661255319
2515 0.003676154997251545 0.00642930141428826 0.007391468293031447
2516 0.00040803260423835706 0.0011344117340961483 0.0022911475067323396
2538 -0.021636446251962555 -0.010743837537030511 -0.023529100052213293
2526 -0.0011992613717696156 0.0009764339170365036 -0.0018532026698408728
944 -0.011244129420907434 -0.005239143290733816 0.017361797883344944
2448 0.010133837313040647 0.011035143530731933 -0.011174741456062438
194 -0.0103134971641366 -0.0072647682322155415 -0.01550774510583547
198 0.010166942049165998 -0.0023863262386913343 -0.0009928655542112976
201 -0.006763267774900835 -0.0035791848477678707 0.024122707640932106
193 0.0017907067593122114 0.001928116196586747 0.0028816147082202067
1749 -0.005753498593121746 -0.000617439413133306 -0.004367217498051031
191 0.009467609326406284 0.0027355329501699273 0.0013816754361962384
192 0.006312621589289317 -0.0030073918431090746 0.004514925535427976
208 -0.0006062920588703919 -0.015479659737355647 -0.017520821857770836
2447 -0.00043237771459929983 -0.008381080682556784 -0.0031602274651360116
197 -0.012761908720926373 -0.014683840739692304 -0.0019017459380388654
207 -0.0014700104121112027 0.0033401340375286974 0.007535471600790065
196 0.0014704695385562823 0.009953279468678232 0.0014828968571198753
203 -0.010969031359142107 0.018777616465120085 0.02300466848014357
204 -0.006915433952348832 0.02042834373412406 -0.008400437907823124
202 -0.002417645614158836 -0.00017222999079622407 0.007187092474382343
199 -0.0012711880150565995 -0.0020712529116490943 0.0029091500636858115
2446 0.016969349266134536 0.005502385591547046 0.013351886594974844
195 0.008058411567727141 0.007095298217934032 -0.0016356898696733807
200 0.0227561782691874 0.008740287467669736 0.010114092721366314
2104 -0.03033189322104042 -0.006943362980847662 -0.02082168781871544
2105 0.0054510370766944465 0.003735093684373324 -0.0017513333227281173
2517 -0.00012462124883961403 0.0041324088122432915 -0.0017951341229687364
1308 0.013143506055687393 0.003569562468537308 0.022718370132935477
1301 -0.006796755534132741 0.00441795628941388 -0.0015303902876403484
2615 -0.0030699375646649047 -0.0001687035317800663 0.00013055519226612996
2616 0.0009898753529446699 -0.013675968071927268 -0.002945913652988251
2614 -0.007864775539377884 0.015164709820131787 0.01615463155088467
2525 0.0005341996884698886 -0.004711424464575501 -0.0072078648478076
2236 0.002249144507263485 -0.002117513306100302 -0.013117571615830619
2237 0.003339116547719254 -0.00033113857698793635 0.002290075312037007
2238 0.02977263989077559 0.005656825479718892 0.005610852763585744
2013 -0.010366524195997921 0.01010618431500646 -0.007469860255265703
1687 -0.0008077673390855446 0.001116774733077987 0.0017116939810474555
2206 -0.005127554916270773 0.0009673251263668073 0.007536821480529206
2011 -0.003923360453550232 0.011577716693536532 0.0027645690035957107
529 0.003341225705683744 0.00910110697056945 0.011624775127012243
2224 -0.018877397407054804 -0.020363161185846756 0.0074590224305723304
2322 -0.0029956465028804467 -0.01303707672266231 0.0008095367502714887
1295 0.001805883430041622 -0.001431594255131204 -0.0028547832699950624
1780 0.0008223055269056435 0.010182700335585654 0.0019843416625241086
1690 0.0020827618110794374 -0.021964563130888178 -0.024571087109464578
2689 0.011253202089339262 0.011934788693993743 -0.005995770085672183
1309 -0.013191474735316374 -0.01951316476986331 0.01210986572883367
1689 0.011987537535588552 0.03263143957839536 -0.012516859891786003
1685 0.006049414992794736 -0.002726385531156807 0.004763898926630087
2321 0.005416458231337544 0.0023758857024752484 -0.001033861833866858
2226 -0.003651986157079622 -0.013691609402912237 -0.006790175799867113
1324 0.007184415763741495 -0.0030452663206319373 0.014388561308741388
1318 -0.0019056730208311223 0.019963490192044457 -0.0025999368766688132
1319 0.018426917985811295 0.01641520476830608 0.017781276180393088
1313 0.0011947184905288974 -0.0017159959953277296 -0.004094962449311967
1317 0.009327358582076378 0.006673990434917502 0.003701680775675687
1325 -0.0015362032496101527 0.02055673066846888 0.003981158081796602
2164 -0.016586049157285707 0.015717642019438607 0.012157542971217239
2165 -0.004300430258565684 0.00839579297809353 0.00043889474585539205
2166 -0.013894087217329562 0.020852237072029378 -0.0013079882029180985
1323 -0.0058964102918187605 0.001688499883226175 0.002502690632439892
2225 -0.0005196687546368854 -0.004465637170063868 0.0057171879534227196
1329 -0.001836437079747541 0.0003101978096040483 -0.019398802227054767
2544 -0.002067172687556256 0.00042663008590887707 0.010487299164099803
2641 -0.02040089071111178 0.015961457908979813 -0.012646821809993299
2642 0.006631798896546172 0.006305481408901344 0.004912412315535293
1636 0.0007708967783334276 -0.001965009922594633 0.009908616653884468
1639 0.013168739130745103 0.0008947054077027744 0.005449138906656709
1640 0.0019515082958479796 0.011433397377419096 0.005769856470029121
1635 0.0019200770188082452 -0.005814697871414734 0.0005025098450674865
1641 0.007648613028016076 -0.02305403338333048 -0.004745259179413365
1302 -0.015138133783324185 -0.006423547621404825 0.003869619576666983
2542 0.009844298985067055 0.03170515565054902 0.013204303448740677
2543 -0.000792922551054914 0.006462504011183962 0.0009787373746337636
2008 -0.009781091693172664 0.013894528447456663 -0.009360667274830453
508 -0.023407613153459326 0.0030366119048577883 0.005193879835665192
2009 -0.0016417969429232135 0.00031575582970413783 -0.008023024788060898
2625 -0.0008702822863483459 -0.0027372509131385375 0.004796219372364332
2409 0.0019144887482117282 -0.003103682329956997 -0.004015292765124909
2408 0.0008216249233015794 0.00124436694888034 -0.0033577119063014004
2407 -0.002569950274234257 -0.004962444407411752 0.0033000303580210276
1303 0.00782148522178754 -0.016300051291953395 0.020269017707707327
1638 0.0006814285075301096 -0.0023776524139947253 -0.0027195077399784946
823 0.006716645511604964 0.003493114193469713 -0.008330188019234646
302 0.008857011992705116 0.002357814707748437 0.019162005761737773
1029 0.000913151586281108 -0.004377393819199902 -0.00010852889612708565
1028 0.004384826858361253 -0.005241123731013154 -0.0017935291355493496
1229 0.003187716003076783 0.0004423271010597851 -0.008548194022686029
1221 -0.012756160371048215 0.017498080818333147 0.011764128543974236
1226 0.001995763610949717 -0.011810515973609713 0.0016911376822641092
1232 -0.0007028943829809809 -0.02976462591497932 0.0021743124427180934
1637 0.005062410538246286 -0.0007992598699338581 0.0026608988568107583
1062 0.010655586038230335 -0.023458698283685093 -0.017996576272613255
1056 0.035726441875367373 -0.025548654789214104 0.05135990456047019
1049 -0.011279732995466949 0.0010412030597518347 0.009043567937026743
1223 -0.005995180537220748 -0.027556676030527243 -0.011002127102218914
1048 -0.0007479427870581019 -0.005747291581666914 0.00419480847514643
1054 0.0007089418040638232 0.004123134820419886 -0.005786814147454752
1046 -0.0058259654825957765 0.0010151765743272746 -0.0012543659285112422
1061 -0.005724412031135737 0.0030994553451542412 0.000745301889933058
1060 -0.0010278559127026815 -0.001828796961209795 0.0067745242260414075
1055 0.0032486650674994908 0.006153105978956081 0.00264206071331269
1050 -0.004235091942177592 0.006393197930260035 -0.0007733039680609953
1064 -0.002553893991972794 0.003633954786780803 0.00298966953514873
1035 -0.0006228386115727295 0.0023702909676703125 -0.00017249680984617047
1797 -0.0012093961887874192 -0.0019136578011921068 -0.001115375606423882
1799 -0.0041856952179751515 -0.004562259486022644 -0.00027921229093555135
1798 0.0002578085566764612 -0.00015276885165056692 -0.0019156468075987925
1796 0.0019909566175184573 -0.00037627836549352414 0.0015817786019126057
1045 0.01862297415800714 0.01607094024041581 0.0031710076403772807
1041 0.001153285184646719 -0.00188638876998107 -0.007379957005226743
94 0.0024722415643467542 -0.008462007030233204 0.00016408009435147524
1053 0.026729511817352503 0.02229498966945224 0.0396499732159414
1047 0.0031846359935652066 -0.008538661963291755 0.0026233440185715155
1063 -0.013807462165517426 -0.007344991448053508 -0.026732976218022585
1059 0.01124423400037578 -0.0052685412481631244 0.013876534849113718
1057 -0.004394547951480897 -0.005461251301393894 -0.0033257284713957406
1051 -0.006188765577421038 -0.0006695588360948332 0.0031760867176825473
1234 -0.02726697214539866 0.01894040896917099 -0.005048040507673763
1052 -0.012761886059978063 -0.013313727336029438 0.017481266761533994
1027 -0.0028577096306509897 0.004487102411058916 -0.0011891320516231388
1228 0.0048729467706432154 0.0046279360807634454 -0.001572011654741512
1058 0.0013840344710262862 0.013822003577265377 0.015908562772366706
1030 0.025127231518855382 0.0069410699225972315 -0.030948327439554276
1031 0.008398925302881034 -0.0033401508449391513 0.02558292086045567
90 0.015735423375132555 0.015793511374171267 -0.017259538377214532
82 -0.005005707186077801 -0.0009069375826077666 -0.0048022804591505725
2274 -0.017134509861266585 0.003163139950935262 -0.011451096239664674
88 -0.002922303415021064 -0.005668756891449296 -0.0027186223582542496
1042 -0.012714170801485064 -0.0014714409171136165 0.014749113398470069
1801 -0.021136330865555265 -0.013910854252821491 0.02365495229326714
1802 -0.02765669031621531 0.02668044532254261 0.004742161789508072
80 0.015010328085528442 0.007672001145139174 0.0058783702457624685
1043 0.004992811846397871 0.006314356117674829 -0.005708745863475458
78 -0.004017284241764856 -0.003816770066933725 0.0031645030267038695
2078 -0.0024016717575091585 -0.00025519707242317675 0.0005179861183287553
1004 -0.016747394807750178 -0.005651955193617431 -0.007037018910853802
303 0.003791778524088997 -0.005926831867690309 0.008579991017015374
1880 -0.00010540481122671235 0.0039053203590718195 -0.0017304311546739084
556 0.0012574489120789195 0.0015692326799019974 0.012795674199660951
554 0.0021028002680849667 -0.0025974421875294123 -0.004195213362615714
552 0.0021439987396766483 0.007136043043287246 0.0034935795944786375
89 0.0030084829333855466 0.024030239586835846 -0.005588490961286408
561 0.008716168635151272 -0.016314450901558072 0.004523603186969944
562 -0.001530553650116082 0.014565700547261135 -0.002381887720838644
2056 0.014314085104284873 0.006072557837107646 -0.01904243709890034
2057 -0.0008061058617328586 0.0029610860176706353 -0.004370744052865193
999 -0.007586127752016034 0.01302746917241827 -0.003985846576120687
2058 -0.002455270553802746 -0.008004220245406162 -0.01656023735931464
558 0.03565409152243961 0.008612706396706016 0.01401642188571953
2524 -0.003036732974068691 0.0038371997734857203 -0.008908855755107165
1007 0.007452270073676291 -0.029499329703336505 -0.02278374748567596
991 -0.004958646126259182 -0.00845434582997301 -0.009463145612017502
1375 0.005677671509165628 0.006354002528888278 -0.010155739643204705
1005 -0.0024429918715762793 -0.016948536791773317 0.015186512066897263
997 0.0040123308740493205 -0.0010858447358102902 -0.008650392321895245
1373 -0.005339931983625596 -0.008832392457231216 0.006229759720337591
1374 -0.0003288328534098046 -0.0032999071127277958 0.011027416537891528
1370 0.0012627780388102096 0.0008635144093999766 0.0068417278750307646
1003 0.005808564541561484 0.00017432103412568938 -0.002994575939074482
2099 -0.00721036315809491 0.00030742482130954873 -0.001934998671731549
2100 0.019705887363818113 0.011474434248131191 -0.023604562813643513
1369 -0.0035803828063426923 -0.004145321865324484 -0.00697563379343126
2098 -0.009562527509334156 -0.007298162968240373 0.00935769669476212
993 0.0242479291335844 -0.01392605443496252 0.02841089964252206
1372 0.004660649981832005 -0.0019412331401129734 0.00088851193696302
1371 -0.00528032505016868 -0.00562717495634487 0.0006402743931880451
2359 -0.03764460946507938 -0.02448352493393672 0.002622652084248697
2413 0.01368780048165869 -0.008069978811674119 -0.009926928715751454
2465 -0.0018979809615921432 -0.002254606830812277 -0.002990297293148989
2466 -0.0021902353577738253 0.008453612953085648 -0.015408717815940626
2360 -0.0012167872506464962 -0.002280814589904207 -0.0032785143784959236
2414 -0.00010809456946822557 0.002207396242755203 -0.000639059595843562
1879 0.0012621697644239719 -0.008892575417203029 0.0012175931016997802
81 0.006626772259817517 -0.01076618723966929 0.02659497024370308
1675 -0.007899108479691741 -0.01031988398347044 -0.005254630763122314
2464 -0.017300203851422606 0.013207623212557711 0.018524852324619537
2361 -0.006341170050096142 -0.006802173052842733 0.009907873100648406
2415 -0.005275181651683552 -0.00643494153396245 0.006360839099180129
1724 -0.006782285205347638 0.003197058175568668 0.015523214797963524
2129 -0.0017140422658260622 0.002662656842867899 0.0004104179636307474
1296 0.02015965245778825 0.005325558130603431 -0.010525091766205677
677 0.0038553544634902827 -0.00039234993942700765 -0.0035888021575680947
2663 -0.004944807702086131 0.0009740305949624972 0.0009500290758670177
2077 0.0002864384218188619 -0.015358651235878831 0.001797069530288895
1673 -0.0013526660784385915 4.952699469909109e-05 0.003521987585138488
2016 0.0043849292854382564 0.013043405574411143 0.0010586705638451737
2666 -0.0003523803756252584 0.0005351123212647612 0.009145839497697403
1307 0.004642385864425646 -0.0009113168522467389 0.0036623541776863483
2484 0.000379516331391867 -0.0025365124763207236 -0.01699911776504692
2483 0.001960278154229164 -0.006177855714666955 -0.011367868069672018
683 0.007745061394057275 0.002289807271333564 -0.005547876974772545
863 -0.004221472093946443 -0.006933862791496424 -0.0004029990293797669
857 0.0003036134707217581 0.0019508170799995297 -0.004032772497791029
1311 -0.010063147336098095 -0.0017093687311194176 0.015519636163777597
1665 0.003563284300171528 0.006767605526337018 0.00010237964905755009
376 0.00380220589346456 0.005332108180344076 0.0041497783512736116
380 0.0023663153659674646 0.006833818247254385 -0.0015182056505098451
862 0.012335840986353066 -0.0037131490239330576 -0.01619209366542401
377 0.027620018837757335 -0.037356821326233206 0.006886999173224644
378 -0.0014499487064854907 -0.01767124669082074 0.0025669205530475217
379 -0.01817540652266741 0.018921590080935895 -0.016291150082878864
370 0.002909620422908221 0.0042663856436380675 0.0008911596555750994
368 -0.005316629692002709 -0.0006602768459801172 0.00025345082214395123
373 -0.004147560914236916 -0.004791210230796518 0.0013006865663559007
367 0.0014421878163170436 -0.0010467292219658666 0.0038597716906244046
375 0.0054459928343199805 -0.002257129275861406 0.006491391695403986
2313 -0.012350069701141244 -0.014564299547566245 0.010686095675720705
371 -0.006370732194686458 0.00022422656751334052 0.006029035929479724
366 0.008393838584098586 0.0006641076248762956 -0.016644243326878215
363 0.0023727668727415944 -0.005517249455808791 0.011744279796538038
364 -0.00581058054599859 -0.0019332964856950711 0.00385306392332192
362 -0.00032007867693114163 0.003207446774784402 -0.003978811643271751
372 -0.013855056269105126 0.014382837792101928 0.004619384739107154
365 -0.0002221732499063005 0.00022852065251187191 0.00951580415083264
2311 -0.003446930248679144 0.0006277534575953318 -0.009587187889081363
2312 0.0009670635759367741 -0.00461854045982614 -0.005694541287657628
1666 0.002281026390991388 0.004480681514318546 0.007258346930030508
2680 -0.0013795597394782265 0.0200218191852872 0.024368587586426533
2681 0.0036066056908922927 0.0013376431279583298 -0.000788903354292984
1663 0.0026988297865260893 0.012477043683403218 -0.001740017164998979
2482 0.02165839208524178 0.028354149697678233 0.018395037755913966
369 -0.003202664158330997 -0.021445776273150852 0.004934066428827009
374 0.012919430134490152 -0.007888628582115784 0.015093508274290577
2682 0.0024517570448726695 -0.0013888750843260977 0.00302972091969459
817 -0.0014506399639384244 0.008493450869250147 -0.01327708049352543
816 0.0013832525681478295 -0.023226101250148883 -0.018296982335156975
813 -0.004696407907944465 0.003238858097622789 0.00584069560733287
1083 0.023990257770171986 -0.008235647080407305 0.028572283096791076
530 0.004019955347909612 -0.018651631656578682 -0.021032735372876376
682 -0.0009611390926015052 0.0037660394263762526 -0.013563932390189787
2528 -0.001147352268573566 0.0018504244737228336 0.0005785233349034809
676 -0.01572968394999539 -0.017322213428168108 -0.0010694650323167785
522 -0.0013653971346149667 0.004181175360906535 0.00112531540536334
2091 0.0017445477083630856 -3.134768548615289e-05 0.009913608874249911
2725 -0.008193240446308694 0.015423220009597999 0.0017141577951949429
868 0.010034063343671898 -0.014629204288922323 0.0012243547468607464
523 -6.868913304683084e-05 -0.0030994568839888994 -0.005154880029983338
2010 0.00447388563311086 0.0021505659849905398 0.015570083681596366
2677 0.0007283966514450526 0.001403874439353395 -0.0006549898447679522
1216 -0.002041867351218353 -0.0038411581496724605 -0.0006495626869579964
869 0.002171855044803272 -0.006623534259412848 0.01892813890218269
861 -0.00032484921564619013 -0.0009738017138750415 0.00046173540669783774
673 -0.018627423381763705 -0.006132725786837523 0.012789180694929863
684 -0.0296120794196941 0.0029060558089347437 -0.010165846080198163
2159 0.003020137640779387 -0.0031616651767926965 -0.0018770340350627477
1667 0.010592759142215361 -0.027209027936312257 -0.005164340246980209
130 -0.01497666574001729 0.005721927234944037 -0.03168494920966273
1668 -0.0010187406883861647 0.007412187190841049 -0.010028564324169464
1868 0.0036630656931613734 0.006342559411309645 -0.0002292208494906261
2278 -0.030006349824887053 -0.008371750742694683 0.01786006047050068
1866 0.006033035744763812 -0.0022741236822628797 0.0015393838066035004
1869 0.002820108333685499 0.004769577019854768 0.006529875872658841
2279 0.0050404448852672135 9.86832629033902e-05 0.004000336117716972
2280 0.012214949062123717 0.015109935227229322 0.010408230769937356
524 0.011709661225330965 0.015627638377432362 0.004853250906223483
516 0.005592457774031572 0.007544760813606439 -0.0028845696491189682
517 0.007756225836405249 0.011205915919119612 -0.031194334110406667
1867 0.004758300057276166 0.0073671298703976845 -0.009081046373867677
1669 -0.010168702194912187 -0.014243774677608892 -0.0051028783334300986
1664 0.0029596438192822376 0.001994029767603516 -0.0004916831026363648
1738 0.010464619422243861 -1.1669126746215282e-05 -0.019802319359626636
1737 0.00974982385672576 0.006030000674263269 -0.002866846417330391
1739 -0.006646410230463804 0.01482839507447219 -0.024613455580264135
1734 0.0033885070757112487 0.005484743918926567 -0.0032341520530678185
129 -0.003398213271731815 -0.000572255278375596 -0.0019177606518585501
1872 -0.0007397442610102228 0.0006094747880324326 -0.011674392548922174
1870 0.008539848426434243 -0.010660407811532015 -0.010302952594525554
133 0.002894337760753668 0.011859726074812145 -0.005894936508978521
1871 -0.012052755755731144 -0.011371408891191351 0.02983081179431104
123 0.0029450573155384695 0.008573466613516751 -0.0014071407028939055
1736 0.0015089845348318076 0.0006102724613694146 -0.0016557160240770587
1733 0.000865072366585143 0.00731039715321985 0.002001507061961601
1735 -0.0032916431431704884 0.0009545580626930218 -5.299582140929567e-05
1023 -0.008257956924628178 0.008177857311928624 -0.0033381393855005507
514 -0.0007677180347943018 0.0029886001975401493 0.0009966064009008504
449 0.0018027059581693459 -0.0007218278777596699 -0.004407514038444599
551 0.0037455771864831275 -0.02322304002992683 -0.021674646823035857
1039 -0.01586263853165949 0.00990904143779448 0.018510299133788134
772 -1.0048157617146703e-05 -0.00026135343443303797 -0.0036374688221156894
2172 0.016186929723153002 0.020482989530234662 -0.006369794310839432
518 0.005710920746109051 -0.007559508033227563 0.0017664069436110757
1040 -0.009778446334806202 -0.00976568884557279 0.023467423274640194
84 -0.004111480386558828 -0.004276425642627883 0.0032296177596177035
1672 0.004141882567337248 0.0008149391238040812 -0.0007601857455162269
521 0.005411989496061587 -0.01897135615305021 0.00029373730581068805
1032 -0.004870775166472946 -0.001272228024845389 -0.0004545849208636461
87 -0.0038047975748964212 -0.0013436603932719764 -0.01498241641716227
531 -0.007533691931858301 0.0035105674938181422 -0.008288750338134206
2171 0.0017999033419286094 -0.0002056504642655125 0.003654059122255973
520 -0.0021138350394448893 -0.006312061838976872 0.013913733321611055
515 0.0024533722639448626 -0.0015301897570477237 -0.002035170067698601
776 0.016347535183296794 -0.01658194146756335 -0.010845930433398545
526 0.008164599679251188 0.019628857113497048 -0.002898527314098963
769 0.004163572331715375 0.006167320811598358 -0.004428922372579507
775 0.00027869709002861277 -0.0016344702851094422 -0.003179222676159978
1038 0.00016051608810990688 0.004091704589262231 0.0039466115672605615
1044 -0.0018714945977686063 0.022828228498291275 -0.015308894541001209
779 -0.004796342517080887 0.007378715412701045 -0.0028618453511401356
777 0.01745676792188091 -0.0025819902422276548 -0.016217234734813582
519 -0.004319974614115196 -0.004781216741402399 0.0028881027476922857
527 -0.007456995135986028 -0.003308432801169676 0.00720451411795035
525 -0.0032129909471701303 -0.0018624752665833298 -0.0030336182052052257
2170 0.007290007955820803 0.002524256480991011 0.0019222541525164324
1756 0.007168584725515703 -0.0003324095357321752 0.006625192502757374
763 -0.003299389129154378 -0.004976795949204001 -0.004126439827306019
10 -0.008539130843633324 0.011499257468124392 -0.003896245111096661
771 -0.021583374536502446 -0.033804267003992576 -0.02821672890767244
764 0.003403979318318625 0.015331467381396936 0.0016044531307784834
1759 -0.0007706812079242877 0.024244842965740254 -0.013840507362354294
761 -0.006259188037607626 -0.004171171455258795 -0.00018550804639915828
1760 -0.009354764794406488 0.0011152819065775165 0.003385376540772805
1755 0.0010753517439737023 0.0027853353029357857 -0.00212335937727355
1754 -0.0014744039799135524 0.003372782080673383 -0.005609976300596962
1757 0.001853964009925389 -0.003752999836670708 -0.0017845787782266118
1758 0.00020842861172942778 -0.002045869340648894 -0.004908124791420065
2445 0.013320754280199822 -0.0028844846060344046 -0.020981879172284612
778 0.006090852231629846 0.00467384349285605 -0.000980249295353415
1981 0.011007230210522785 0.004996695416175944 0.007300341604365297
83 0.0031705927710441563 -0.01415143906577596 -0.0013477479103109742
768 -0.0119348729640359 0.011885692651661886 0.022272194727638035
16 0.039017816756090194 -0.01118528105255141 -0.006110133082459314
17 0.013413287970605536 0.0037023336403903956 0.014536044275851983
1074 -0.00941496502878475 0.00032412997483467255 0.01537560167245264
803 -0.0018068112666544069 -0.02264778228315476 -0.012973433642705102
77 0.0015520951888942736 -0.00017580256898393963 -0.0012625435817703345
807 0.007550024792963155 -0.004565713192581692 0.0011542874045087747
804 -0.0063991392756923065 -0.003483045775407067 0.0009000322794040077
812 0.004361057999066941 -0.021996282923252324 0.00583962848354931
2443 -0.031497129185042536 -0.006832278043486248 0.0075950480330860565
2444 -0.0034493880016525967 0.0033663929331088954 -0.005754648776388981
86 0.005590219621338214 -0.002481056754113902 -0.0011991246312984631
79 4.8241978864137354e-06 0.0009889064248023382 -0.002180478864789273
799 -0.0018425620527032017 -0.0006412532283294294 -0.0013257997472753188
810 0.005664177681294605 0.0015194573778983824 -0.0020947953534293205
1067 -0.0030700718994508035 -0.005825380152860875 -0.0011559951793831665
1654 -0.026797313172402196 0.01603730947369523 -0.008538060689954592
1081 -0.006947867993504146 0.004803471722405731 0.007507585890839339
1651 -0.003542911541796839 0.0007127777038368621 0.0029100943402522454
1649 -0.0003471508820553797 -0.0022422471892705126 0.004933503998253423
1080 0.02252792809063732 -0.02139520381306956 0.03529759065970037
1075 -0.004264208559432241 0.020283942122910865 0.016334111128680915
1073 0.0007401366488424328 0.003961410399073063 0.005014324503172462
1079 0.005217711028848586 -0.0031607727641743406 0.000975552570895644
1652 -0.003454115930315423 0.0003382727663885982 -0.002230420400061423
1650 0.0015275705051429362 0.0014449839684629827 -0.0029909089734512996
1655 0.01929900789205152 -0.018903837933837413 0.011966608285803964
1653 0.00027089158258983027 -0.0019423628473356571 -0.003962009585356519
2143 -0.0008801486960222056 -0.009015054913473108 0.009094985155563198
1068 -0.007183664126373692 -0.004130484788305433 -0.0031015428474795888
2145 -0.011570409700853946 0.013563790559095706 -0.02625080797734391
2144 0.0022278782439138565 -0.010873194921291183 -0.004102831955690201
1999 0.0017218102860387234 -0.004051816513029175 0.0063843210748174275
2001 -0.0032508173901752745 0.030221697508285142 -0.003962976717981787
2000 0.00074517255424515 -0.0032334497261322266 0.0011998401303394183
2630 2.3016641647516466e-05 0.0033402038513951904 -0.009418867429291062
2629 0.0004877950448780381 -0.005348029884481814 -0.0017759401896578174
2631 0.0040566622061100665 -0.010538483169849046 0.004590953885855963
802 0.004186383348275557 0.015723110650033963 0.0019464556068262118
1065 0.008280692129444687 -0.003422788980904371 0.004090359578063804
815 0.0033150714981638007 -0.0088666522450057 -0.040921715523949104
2348 0.002973093567240254 -0.00052544644578656 -0.00048330465675818667
299 -0.015783021631321607 -0.003965854703629615 -0.007126324637126497
1660 0.0034308858031246252 -0.00047194125552622244 0.0003650328498040412
2713 0.011067034673441913 0.009346155736556963 0.0002987303018606311
918 0.00036556217379555764 0.004643170177448465 0.0008774242684780054
1573 -0.002798981702487382 0.00910510990000581 0.0016089228051158811
1576 0.005552626789347287 -0.005854399577459217 -0.015004214469553901
2372 -0.00017995012998584884 0.0021289247585344184 0.0012682447166059727
1617 0.002415017147090391 -0.007177265077687266 -0.003471749288211686
2371 0.0028639419892914626 -0.0013359888683540126 -0.0029108408376644335
1578 0.001935740726965007 0.013136151676113015 0.0009567276373986288
289 0.010781420245037532 0.011864018477185143 -0.007284265283916182
926 0.004322808344062943 0.0025555086138410177 0.0029488335139948784
1574 -0.0033467697084486924 -0.0007579399642404124 -0.0008970981219721029
2303 0.0016324443966233737 -0.010127021496149555 0.0020499523571347548
2304 0.003433286355353433 -0.01174138903667485 -0.014724888728618615
2370 0.029621765249719247 -0.0444373874059207 -0.01789749611889512
1616 -0.0015588471939090133 0.0018722529373560695 0.0004897160726482059
2369 0.00011529562197729088 -0.0015677399526779527 0.0035935836332423423
2373 0.004550028650281647 0.005312724861895837 0.0020575648020480816
1614 -0.00747924877576011 -0.009244612274018302 0.0022714106261226665
2368 0.01930178258123026 -0.005298948165337427 -0.003714031382832736
2302 -0.021324801921613356 0.03411321123497329 0.018781561046139962
1618 -0.011950650670223873 -0.0345758738404428 0.010593116807538275
1620 -0.013154291622231305 -0.027103818741950773 0.0062255801599902455
1615 0.0017033972578841426 -0.00384543245636615 -0.0032188380313893004
1619 0.023317358195607544 -0.006905968114432305 0.009304371332392815
1014 0.003034837711167194 0.002495948959611072 0.0013649604533225233
1020 -0.0035763318654091734 -0.013656258079721153 -0.008056344772405973
1015 -0.010438087875517615 -0.020181442732141654 0.001624115042047957
1009 0.007514122851779838 -0.005935566473128866 -0.0028020468401012398
1013 0.0018190223866462862 0.00589761575194266 -0.004668732997901764
1017 0.005163901525595864 0.00628213830069721 0.01178677148293018
169 -0.02679068249710285 -0.030831416982784982 -0.006335378983858129
297 0.002906540001664263 -0.0023927729665454015 -0.00032367101530099933
1021 0.00793833067344321 0.023566767190650137 0.023333730793560437
1019 -0.009164238991983228 -0.001783121677865029 0.0026507659896784054
1025 0.009744708361811896 -0.006169266578704891 0.002699595902413896
2568 -0.008477045517107944 -0.00530307961687872 0.005817050095888601
295 -0.007760066635313236 -0.005841664275948027 0.004741727958305224
2529 -0.01181339590994764 0.011535995409661461 -0.010979831026894229
2693 -0.0004119440604222193 -0.0007023234566806788 0.0008428970108682152
601 0.0021042057714572944 0.004299609094716839 -0.007498942077086648
2624 0.00614080341310734 -0.006405122600964423 0.0024316708163518723
304 -0.00298178338548089 0.015726959379445644 -0.008562258698962988
2090 0.0038422789520184655 -0.0001860618704656064 -0.0034370794591053835
2094 0.014510417165690504 0.005216639599850027 -0.003067830075947616
18 -0.025400570949735007 0.009694257134119302 -0.024875377471484342
7 -0.016909699072390712 -0.0005697514660988427 0.02235654955702501
116 0.004272830423875735 0.007330478920417066 0.0044642924538176665
1012 -0.006610728184162893 0.019679358462730653 0.0012731951463364186
1008 0.0027147511617265415 -0.0037744194730695763 -0.002531728187446942
2112 0.013719518321457614 -0.003540084562674205 0.00949778293865089
2088 0.01920577005969574 -0.012568443988175092 -0.026165362291227564
117 -0.001741801615034476 -0.0021342391936094852 0.0016807496824133392
594 -0.014970432422127478 0.0018275179621926063 0.003440381670177445
124 -0.004938770476273491 -0.0027484876423251366 -0.0010622507656486266
1018 0.01878580696700665 0.02569244758166285 -0.002195850598727834
2596 0.026700134456128625 0.017249849586458494 -0.005816239740003944
1016 0.00025098519626238613 0.006404118252290834 0.0011551446563430091
1024 0.014384884639252011 0.0009227124152521026 0.01322092246379868
13 0.0005919672004495505 0.005556671843422116 -0.006556910924776474
12 0.00233729708323692 0.005465051640908205 0.0006334098946455179
6 -0.0014158952246209483 0.010268859841186972 -0.004832470393416089
119 -0.024128378213125697 0.021657053187851962 0.0035289151419881687
127 -0.000303071519776554 -0.0008176020711680351 -0.006419494398246547
1010 0.00034526475247675746 0.0061972226305141605 0.004155765020736405
1022 0.0016828356393833984 -0.0021884555040402897 0.0017146508897160411
1026 0.010646566876084925 -0.010144782384761563 0.002658528162021348
2694 0.0020453318921234208 -0.006202949291271045 0.02084110130231404
1011 -0.0073960485590058205 -0.010436288597988761 -0.014518046681231593
1833 0.002472865208596772 -0.0019066774988650552 -0.005490351811913648
1831 0.0009938754444437593 0.0004101425402368111 0.001017716653351593
1835 0.001386394770819863 -0.015746453817572004 0.002821705637241692
1837 -0.008176470862578167 0.0036090071710258437 0.014720532765206283
1834 -0.002862193239436594 -0.0007128278443944775 -0.002240605321614215
1832 -0.003989509266144854 0.0012895241349821797 -0.008349632569583206
1836 0.004326451019484487 0.007151554863658654 0.004609872376909826
121 -0.005399042572872092 0.011835114966552212 0.0024230635577610344
2550 0.002843741607652444 -0.012717457726189128 0.013865498136551642
2549 -0.00705207755433574 -0.0019515877743595165 0.0049768219843418764
2597 0.007573064577788062 0.0040190068424599225 -0.0016512868852519634
14 -0.007063027220194537 0.00949304493091762 0.005678027982451592
2548 -0.014784093134547456 -0.007872116790423779 0.008907739453019524
2598 -0.0043106961997281925 0.020290684303151386 -0.0035630471472149023
115 -0.004610269897824317 0.0020858632632424295 -0.00015782522900523936
2 0.0017383971626191235 0.0003986606113533227 0.0046045991874711385
8 -0.03610322920692538 -0.0008577899100400696 -0.0018924050147185517
1486 -0.004023461495621559 -0.006290012188840659 0.01659579255986777
2567 -0.0014362622395898926 -0.001596351165598487 -0.00035927199065352615
762 -0.004975422409262892 -0.005583636141574342 0.004810966593607823
963 0.00839404266255925 4.5526936101830583e-05 -0.0077717610128647426
1424 0.00753988050862473 0.011753738610233646 -0.024767942623273236
1918 0.003413474499173877 -0.013254885177591314 0.0184417507445018
2733 0.0029866459858855846 -0.0159099276594901 -0.0033851175323430216
2293 -0.008392450448611123 0.000757924945882008 0.010170817313609103
968 0.015049509574703222 -0.025439509333875704 0.015065332930931452
962 0.009376992997492832 -0.00567609377854852 0.0009317080480771861
2285 0.00027191704602814824 0.000533752075721903 -0.0013658695116278029
965 0.0021911621625891006 0.0009136102151252015 -0.0033026412802062664
969 0.0007801169862313895 -0.009696404249080672 0.002076061701972392
964 -0.010774901439788263 -0.0009598292350625713 -0.013131741668500648
2732 -0.0019471394207759443 0.00015315984159925138 0.0008028222727339744
2566 0.003008931464705647 0.007477169797974556 0.0037461174528399892
2284 0.006827102364928543 0.004284469855293556 0.0004497959084729596
1487 0.010340032041892159 -0.019366460772756174 0.0017819770926844583
3 0.003472432901429178 0.004389545834384683 -0.00152081690180845
11 0.03212911663666199 0.0058039685077698345 0.0012496797832726493
1658 0.002919998395462229 0.0029303669253475774 -0.0021676432141188246
1982 -0.008926433654753447 0.0027974008063843207 -0.0018403419312226276
1983 -0.012236370993816924 -0.01293576537179747 0.008090967049813718
1936 -0.026615244997358317 0.002618061473100824 -0.005798646747731436
1937 -0.0013550927563326072 0.002313467459974438 -0.003989171127757144
5 0.025745352739869082 0.01537206435685053 -0.0004745036029647173
1 0.0103267090023308 0.005521507354339347 -0.005807519601017312
9 -0.0008067912610051426 0.0005558274590463724 0.003007243149408383
550 -0.0003549383196160322 0.011642406841251661 0.0033345683234191443
4 0.004208129102149487 0.008993269796957668 -0.0038139753417324143
1938 -0.018714336792851147 0.025960656155600788 -0.0010364692303678274
2286 -0.0023584375339156917 0.008763353044796333 -0.005119389685298236
1420 -0.00015261007486500492 -0.005012791043548586 5.442190920059324e-05
1418 0.00044171484556615817 0.001674424024885591 0.006902606974077761
956 0.000972955098250846 -0.006290187742855215 0.001192628693626728
958 -0.007885488620886755 0.009118226524385445 0.013475778303767174
951 0.001595777361608157 0.0013976567648849535 0.0005625170608360028
952 -0.0027779560925971255 0.008188872870402946 0.004767201634423633
955 0.0009253070328195682 0.010195517625733657 -0.004163596835979419
957 -0.0167627308052146 -0.002873796918191505 0.0010347580090317567
953 0.004445964024354893 5.638834162927657e-05 0.006163419305602987
954 0.023338144992613212 0.009535201125779718 -0.029547152407785236
15 0.005519826817383852 -0.0020962992756633366 -0.004240293766089108
960 0.0011148433898887742 0.00044248558289266984 0.013686202809296884
1421 -0.004233786648744945 -0.0029636381527647086 0.0002991873619740093
961 0.016532083071791607 0.0008654483431315058 -0.007627649430851608
19 -0.024496521590778884 -0.014156075302330347 -0.000125127587700462
967 0.017655478500350392 -0.004971216639443552 0.004426117536038017
959 0.007877722074464235 0.0005589734129655308 -0.003847364160611552
2727 0.0020604387758557364 -0.022273726850471236 0.005057952502751031
2726 0.002397654057894974 0.004655893087599902 0.0019804703617818027
298 0.010468093801058242 0.01951524207684468 0.029964053921119362
288 -0.001263998701558071 -0.002003961797969983 0.005066699591039806
455 0.008724632651511703 0.01077929648019309 0.0015261388730766071
1671 -0.0005491146701810397 -0.00246917479891133 -0.00484332754647999
2539 -0.01326105341785254 -0.0048867437514138355 -0.02777914577543222
286 0.003962873919858479 0.004262513530238379 0.0069742984518731755
1674 0.00024196559564070412 -0.0194059801896997 -0.017767848180527804
294 0.0008682403939110065 0.007122078142327615 0.006608906977918346
301 -0.018119248475550232 0.001423366403947386 -0.009252501975248595
2128 -0.013630574852815462 -6.712163357057244e-05 0.006745537461021914
966 0.006565625863278976 -0.006167466453295598 6.239268357638291e-05
814 0.006704637210348196 -0.010176479553697815 0.0010618366103254781
287 0.004020509603629993 -0.0006225527908491882 0.001077937519784135
1670 -0.000778835624106275 -0.0017999513458000738 -0.000569263022090367
300 -0.00036821808245151834 -0.001735423156115774 0.005297989790250004
2347 -0.002249359102321527 -0.000902754833908529 -0.011846845891237159
296 -0.0008659407895118199 0.02251874606837226 -0.0003097204961152722
867 -0.006939755064596921 0.012389791599849301 0.0035634958523807422
122 -0.018382313838988317 0.030835650970868593 0.01228447659608572
1205 -0.006712226527558999 -0.005375064808122334 -0.007176831262687101
873 -0.007617899619698677 0.006015725942712322 -0.009465657648707852
1213 0.0237409057304174 -0.0016527877654184523 0.008722122095851496
822 0.015841476625199715 -0.004377646454063164 -0.0018304738861791062
120 0.0035634251393094948 -0.009341494889380894 -0.005709540932196263
1200 0.008420014523025123 -0.0012902727463440606 0.0049533629950558305
2462 -0.004316534737989952 0.0057615194187016355 0.00026724795035146373
765 0.012724949572372196 0.011410418380882754 0.007043996215728059
989 0.001209483732138218 0.0012816393108948702 -0.001960499772983642
2119 -0.008655257347240103 -0.003989712749740136 -0.004113733389062066
1751 0.0013967179958504956 -0.012935006718214235 0.002147636490729123
998 0.0040332245976665276 -0.00822469708154766 0.0029130036779318083
1725 0.0028558340362730967 -0.004684758735996728 0.0007604321989932802
2376 -0.0007025281105407144 0.018795138647670257 0.023554877485906803
187 -0.006338356195773821 0.015234892947462655 -0.01021180960892289
2601 -0.0030080548977346384 -0.013248035519391067 -0.02062777755857485
824 0.02106621911578961 -0.013984808965454475 0.011532592345955035
2093 -0.003751429908691668 -0.0018360220583819298 -0.01238133058790323
1210 -0.01785038739070213 0.018318828340516433 -0.008659321691150522
1634 0.000922710548984257 0.0016648170632175175 0.015942610224089056
75 -0.007633014984185958 0.00103411865450772 0.007924815502228665
1853 -0.0003278647997891107 -0.000792256528399062 0.009415522266976395
1858 -0.0007890684932584681 -0.0031429792446190244 0.006836522824026483
1856 0.001895184988432354 0.013858442945225842 0.007609204542183382
1852 0.0026220420605545256 0.0015203631654329879 0.001878484462787211
748 -0.017244084904375897 -0.00011894390374251822 -0.0028332592751522077
1857 -0.007519689767548857 0.0140332266701846 -0.006158645305404027
754 -0.0294889473403946 0.01410614216295521 0.0039892043253901945
743 -0.001547273395927545 0.005699867986946979 0.0023590633844922525
323 0.0013281595261302854 0.027875203459758715 0.005583746303062935
1854 0.003032555800103982 -0.0005436523794726681 -0.0004198420486417738
747 -0.004271787760765062 -0.005203476775488312 0.0012576319917563226
645 -0.000662490207452469 -0.017146881101060888 0.01806424273841938
1357 0.0018575524738429533 -0.020979767804108287 -0.0069450995071062005
2561 -0.003964549704185714 -0.002131416236697349 0.004138446440736285
2562 -0.006263903978348704 0.0009801921051212407 0.0032555677999109443
2657 -0.002361459476606596 0.004440416581824642 0.0009066103398072147
2389 0.01597771424594068 -0.005762334907954084 0.0019966666243709514
358 0.0037800198295495986 0.01676190240506457 -0.008123265951909611
2656 -0.008384476312366341 -0.01737062318910101 0.02273214445354358
2658 0.003478563223810903 0.0159723578533188 -0.005210038668004668
2390 0.004083011536381713 0.0015163735597042225 0.0005962165434769604
2391 0.006612611482486444 -0.0014850751317328594 -0.01365273053743446
351 0.0011412552388944295 -0.010057469914205896 -0.006695768175672664
2327 0.003896709936104774 0.0017525075435756213 0.003294003080057075
361 -0.005291054079245366 0.002653164358537744 -0.015836703266639027
359 -0.00016835848929839387 -0.0039013069609051864 0.00305540115434882
2499 0.001490668398909632 -0.007560634892790759 -0.010172962244468772
2498 0.004076929491476356 -0.0015235248053093976 0.0006457301052913342
1930 0.013388803807523782 0.01083274580151263 -0.03009002304997446
1825 -0.0005266179708135688 0.0022648809785301904 0.0036327881689445373
1824 -0.005628708672195853 0.009655200982260758 0.00232853240020935
1931 0.00439486574074705 -0.00516729477626928 0.005146680735762432
2326 -0.01546935567120078 0.004576401088561278 -0.013871209999836511
357 -0.0021099476311421867 0.0030578102033709375 0.000476066949194082
1826 0.006788768780115567 0.00443081821955728 -0.0015980811257112857
2158 0.0182211844129293 -0.01231933030005185 0.0016436288015794116
2041 -0.0017625144563828206 -0.018185776361368547 0.016407787392502392
1828 0.004255368776757726 0.003624032774796299 -0.0028364424902330545
2497 0.006900976218404985 0.002103275640941617 0.0013695563500627497
2043 -0.025871059214076144 -0.0017487685195507901 -0.008354976628017045
1932 -0.0006495867721815966 0.02373397353944045 -0.008920978977472186
2346 -0.02623018237754629 -0.01913764118488692 0.0032708664507528316
1842 0.025562184587646638 0.02218762491113975 -0.007363674108544997
2560 -0.00828578571217644 -0.005633344858419714 0.0006912698387247428
1512 -0.0018297357602767431 0.0004536035295114857 0.0009156609826342522
722 0.002985109857219024 0.01701610731430904 -0.0033338624818048017
718 0.0016778778210634346 0.005853706504396967 0.0005756489124645197
2042 -0.00791534355736886 0.000904913920007925 0.001196683884935627
1829 -0.024477653354617546 -0.00786921974234039 -0.008631319220162387
345 0.00588997624653081 -0.012111806431706252 -5.2510471179641904e-05
749 0.0008600213669662616 0.0059470073541457984 -0.007100810222085421
1827 0.003134539854957206 0.0010933007497400389 0.0010355978347638547
2635 0.030774796586738352 -0.008218156178903563 0.024901254089987567
2637 0.0052675059815874775 -0.0004537439874932861 -0.00697087615780069
1006 0.006410667918015143 0.005888311724549565 0.011453370114192373
2328 0.00504316049544249 0.01852528293005724 0.013782782791068064
350 0.029569175179666837 -0.019525644978188237 0.0071065722646391286
707 0.020653287903273015 0.010643435441337144 0.0010294279175528662
721 -0.00493840329971807 -0.001510562542389515 0.007234064561249102
715 0.002723368114511132 0.001982452014363809 -0.0039543297387738445
2333 -0.00280074001382987 0.005011559101897527 0.0005169006257144634
709 -0.004790097743344253 -0.0025490235026978916 0.006717612471982192
2334 0.028781833328796816 -0.0003341714432438302 -0.04123799534330932
2592 -0.0008795994672468157 0.015834755307462558 0.0020596154134088
2591 0.0029509747245179798 -0.002566968736249219 0.009929557361331835
716 -0.002444360815879114 -0.005420122390217508 0.01850553229352427
717 -0.0022396365615695696 0.012234998340133545 0.0037529969245973186
2651 -0.0033847320733171263 0.003149646129301325 0.006423944173152627
2650 0.007278893983691099 -0.015039637941989852 -0.004086579541580913
2652 0.01609713697420836 -0.003422006516141404 0.0006080802260864378
2487 0.02296641179126429 0.004915145984782205 0.011097655849175592
2701 -0.011069716265307361 -0.01207033449733366 0.0010751841048591386
2702 0.0005256433606800868 0.00070288990688354 -0.0021734536970495913
2332 0.000785878371127252 0.006018507679003921 -0.0001436736423756409
1392 0.0013332107427830114 -0.001919563816539982 0.00043277281729791164
330 0.01794260576504905 -0.0005814883957778852 0.009362400870356573
331 0.01045068078857521 0.01847182384070584 -0.027404126990243853
325 -0.002280483639750563 -0.0019028891652646631 -0.008780785104789121
708 0.017937623673720975 -0.02347944318533119 0.009138141847739608
705 0.006972409341987756 0.003691431672435378 0.0063434768697260965
2486 0.0012373271260773025 -0.0020193990004016816 -1.0257618441718198e-05
2485 -0.011374662656751534 0.03921211787166389 -0.023651469532754932
704 0.0015045310526408783 -0.004057524382147041 0.004051669810978802
2590 0.005485620872851842 0.00869541865016987 -0.0021773906004047537
334 -0.007627609899013146 -0.026130078024712754 0.019112633919625022
1390 0.0025376296937637747 -0.0016178593682406159 -0.008582222240700743
329 -0.0005881837511166318 0.0030752159370921726 0.0004112109212611196
2202 0.017747882675914848 -0.007565608081398603 0.0002028330083695964
341 -0.0022372042458511463 -0.012610360166308614 -6.402829223848371e-05
1465 0.014157780028717924 -0.002262758772402167 0.002815865635460503
925 -0.004252499259236613 0.006913515317485926 -0.00271473741030493
1591 0.020172504684491645 0.0217299834006175 -0.012945029864510694
1928 0.0027059390015121768 -0.004294326074170189 -0.006513538582341145
2490 0.006186452371295617 -0.004051874737461692 -0.0039685599374934865
2563 0.007715799526765717 0.00019997697883388486 -0.009880695254761597
1470 -0.0019329521210717712 -0.0046709485719427105 0.0038375128501457207
2565 -0.015822354613879902 0.023371840158971792 -0.019616375836960902
2564 -0.0018659841738013162 0.004666053525813306 -0.0012271251992124433
2191 -0.0019980312177592194 0.055473883563852 -0.0028036653828736225
641 0.000865893100992849 0.0009962692516308797 0.004563513255811488
2489 -0.0008427779938927514 -0.002565317824588881 0.0014836172561745757
2026 0.023860495124929413 0.010422192742266134 -0.007484488835410618
2488 0.027263593538018754 0.007111745406288585 0.020729514236944982
1984 0.005671879858161899 0.013077132108929758 0.0015496508879740917
1985 -0.004037942258779599 0.003136253293965421 0.0013008476768984023
2714 -0.0009962673203829941 0.004163930908808582 -0.009297926477183222
452 0.0017289829808967946 -0.0012671981184644839 -0.0003390182895985743
1986 0.010775783905594513 -0.026640857194181886 -0.005820378135650793
2715 -0.004973242455099641 0.0004418362719399378 -0.008048515118586069
2192 0.008774836806152205 0.0014601856521515447 0.0016953498983837934
2193 0.014841430424003006 0.001731135427931093 0.0068807309552292445
2672 -0.002058317671970609 0.002374603397515866 -0.0005594192061574742
2673 0.011177523243136051 -0.013774071938117461 0.008864459268848397
633 0.0018853720526983346 0.000528411603477325 0.0020619387882537363
634 -0.021722176889119788 0.022674693207312805 0.0038144333212884493
2151 -0.01832232762483103 0.004199536334818724 0.005452091423938422
640 -0.009886205832625984 0.007321096577993102 0.000833817579614263
2577 0.009994622075637045 0.004684358430399125 0.008739244800619694
1109 -0.00400420470275763 -0.018244930277597868 -0.029473395463006095
2027 0.005471486825053245 0.005524947399953338 0.003623262415870702
1112 -0.027913641585913515 0.011393952421495938 0.02646057505606898
2201 0.003054999970532628 -0.006374526386613752 0.0016216563015504194
920 -0.0034823032919024236 -0.0032128895889177666 0.010320841151551184
321 0.0027329940267958853 0.004664645211822201 0.008782781749552547
319 0.003222546747915102 -0.0035118240509125296 -0.00024399022586182395
755 0.008543183496819727 -0.030654880071564646 0.008588575477944243
1732 -0.00723121836074194 -0.006729454798264523 0.012294739106692529
1731 -0.015462431259352675 -0.008349879846068876 -0.0019258511968068307
320 0.016347604738928313 0.016807421173850617 0.0026878024357783036
313 0.0025895105496940777 0.004354153518465942 0.009258261419976184
315 0.005916936298375791 0.02274249449050608 0.002174490845181866
308 0.0003295974303664281 -0.007650420527706002 -0.00915669607922703
307 0.007163366507173166 0.0005728354029123653 0.0070103163137246365
314 0.004794116109692962 -0.005324126093346167 -0.0005828645485396091
305 -0.006505856924942424 0.0017129265922246138 0.00445355810075979
753 0.009661671548647756 -0.003107516507693708 0.005509580315098138
759 0.02434439006756119 0.014342077923535073 -0.031927873544782104
309 -0.008372865513773656 -0.037822721486722485 -0.002748522795321681
306 0.001558645629347415 -0.0077281463619256665 0.010442197238450707
312 0.0004845768939391724 0.0009486727743449168 0.01208919811566503
316 0.0037983838160733216 -0.000819710616451343 0.0029259639974274485
1727 -0.002645880339742918 0.012255024404544592 -0.004398067639350093
1987 -0.007230834080222607 -0.02301661909676737 0.0026405546521040316
311 0.04216211358379634 0.005838894536496853 -0.0013008687906535946
310 0.001188117914719228 0.002741359718139093 0.00891822955247036
317 -0.013674504647683204 0.010004525257294323 -0.0044382102355262805
1989 0.003020561209519414 -0.020656535527387124 -0.0173755169471768
1988 0.0010712870944236414 0.004249977718107058 0.00035287031354706367
1792 0.006767696399187254 0.0007848348299008032 0.006270445530351839
1726 -0.00024887379536368495 -0.005108452511552335 0.003832766036992338
1137 0.0017108806355426 -0.0053858169343852106 0.012767569294507355
2038 0.00010452669215300465 0.013896701543809946 -0.016604657695153787
2039 0.00026215444911235664 0.005826970767075358 0.0006259802993684215
1729 0.0007191345674211753 0.002601474263109622 0.0012042892186816176
1791 0.0013055279792978684 0.0005609616633533443 0.00015424509792153702
1730 -0.0017280175964826795 0.004649028879774774 -0.010080506519702478
2040 -0.006454213556035479 0.001095124396562301 -0.0050000356861179245
1338 -0.00016446702563153388 -0.005915635942325699 -0.013246275060370443
2014 -0.0010714350655023567 -0.02052416315619691 -0.0022612787546352838
1789 -0.0029818795118608833 -0.002722092975785392 0.003777717572481141
2712 0.014958671207528435 0.013023734962929573 0.016029649831072374
2015 -0.002591886243172268 0.0014460460784137925 0.0010159359037405296
855 0.009072723723088417 0.008217527291236185 0.002858571375626383
500 -0.005699075146913704 -0.004466229937676196 -0.005285678450535155
2345 -0.000434775225976045 0.00032187046754693745 -0.0016363464059474416
1138 0.013332884365660448 -0.005827760771502689 0.004461778541727147
2623 0.0028088642886965522 0.0004040851136989148 -0.0014559673129174804
1728 0.0021865513222085035 0.006435364508482578 -0.0025639009994144397
2344 -0.0058242219452677045 -0.003447496162013873 -0.005316927569500539
1128 0.02964708379361491 -0.012665765517964684 -0.016636420464069747
1123 0.0012601401334411152 0.0031518044331236843 0.001844689421173469
1840 0.00022682826506331214 0.0013042018164728794 -0.007927171641733215
1126 0.006647103577532933 -0.008394413189075625 -0.006262499672188236
1134 0.0026271995888574864 0.01262146803791444 0.00668385569844791
266 0.01608904788787058 0.003246508135082334 -0.006792809114005635
1129 0.004015808099344523 0.012859539715895823 0.0007069245446496452
1127 0.007105843817425679 0.000678123339630076 0.00310218009145138
1133 -0.0015490368524729748 -0.005779979813473071 -0.0021715019572820303
1131 -0.03776423075747766 0.018894646348431632 0.0006910137709097701
1122 0.002719409583835646 0.00018653602927286864 -0.002450821437189525
1132 0.010857839581084081 -0.01438936762057099 -0.02264665814527439
1124 -0.008881535493169406 0.0032342317453945566 -0.005013094529384787
1125 -0.006329602667520534 0.00570024701040259 -0.0004070965500184417
262 -0.0021253729089106715 -0.002327068724529055 -0.0028490397394917866
1135 0.01696021534776507 0.012179276621446173 -0.00537409238361158
264 -0.006638757116988585 -0.019336052762818405 -0.01295346713374717
256 0.001887538398391805 0.00182108808973998 0.002018595578966274
1139 -0.0016269108190893513 -0.005559356600166339 -0.0028132238015862333
1136 0.00224693576841231 -0.0051555641818659004 0.0004976638926528899
1130 0.009444496599643725 -0.007183243913889423 0.0028183589212265347
425 -0.0064099270217757055 -0.008524838067674928 -0.00990895874338451
420 0.004992208734003303 -0.010876479639125105 -0.003236709369077482
1408 0.0008186160724785955 -0.0005064482731896865 0.006041052563792717
1409 0.014045358474217423 -0.020296009115071397 -0.005436791955003838
1405 -0.0004316384035573124 -0.013627365043544289 0.009234248904508274
1140 0.012705483206788196 0.013573868870326702 0.0025883334928863
1410 0.023902700901566088 -0.015432147701937597 0.007537153247679433
431 -0.013272801079239513 -0.003929636855285899 0.00677601070590916
1838 -0.0036061121877134523 0.0011192937449152796 -0.00567575909060162
501 0.010328961632229836 -0.005137416474234816 -0.014533260298550184
1913 0.008216669661052875 -0.0009656807008631378 -0.002190837148498432
426 -0.016879766723127982 -0.013236338110545793 0.008837224342041454
2221 -0.011616628093257796 0.016607358413297406 5.7151533752488106e-05
2222 -0.00602079845018202 0.005772681118555354 0.0023416071161777774
1914 0.010317339272273745 0.01613717138463224 0.01736618161823534
2223 0.03169522179088619 0.010702255691002036 -0.008154668302074404
1912 0.0015982617003358374 -0.002775180680530387 0.0011539258641258135
512 -0.004152976713434595 -0.006580446784740367 -0.005391744524430445
506 -0.006101768931252568 -0.004436060341366718 -0.005923190719020581
2126 0.0015364473817721107 -0.004627753431870461 0.0009829472192030844
930 0.002596128652313657 0.019058340423845015 0.0022785716663840955
333 -0.01344640611636678 0.010512049685551654 -0.0067417831475823356
1396 -0.009139119134421782 -0.005762645876082945 -0.015904137585968925
1407 -0.006295593586731985 -0.0036646903997235116 0.0029938157093646633
831 0.019029889280782482 -0.011637116756446738 0.014968736565528629
1404 -0.008432460032174136 -0.005562374602749215 -0.004497627699073793
324 0.0033761902538396167 0.008096386049216154 -0.0053950442539073395
2343 0.017627153227938033 -0.019542784447188627 -0.009256990725575258
2342 0.0016618567729523373 -0.0026370445693309525 0.002626501812042394
2030 -0.004171010177699414 0.0033845795554095903 0.0037157474503995798
2029 0.004995394754327206 -0.020436845545984635 -0.01512467987049564
2341 -0.021922314884255365 -0.01675615524353466 -0.004486861831024093
328 -0.005368838269721534 -0.005623390516588953 0.008291094481732198
342 0.012592799721285517 0.01287884674794118 -0.0054314648895223494
338 -0.0026942017850622294 0.004998992883313586 -0.006684867654172494
339 0.00784848766894635 0.00598547446299999 0.002393331962714043
340 -0.0012644202058290867 0.006269232684700462 0.0033484478909801907
332 -0.001256042803368438 0.005874714517195067 0.0030438758303872604
326 0.008009517089758195 0.003923482191894098 0.005307600311554899
327 0.013462151570637628 0.015001940468408104 0.006798506507007693
892 -0.0031859215831412163 -0.012808649621388184 -0.018486419502352767
886 -0.0027475458299970044 0.00035969437985396336 0.0002508481202708428
2451 -0.004751205911938433 0.031687672800192065 -0.03345642452353758
2450 -0.005866452754189934 -0.0010905415936066178 0.00011502245955527765
1648 -0.02400433695380483 -0.002668925892908517 -0.0008047243298376291
2031 0.0037204705675870204 0.0031979061393871792 0.009393035342008794
1406 -0.0032888115890754204 0.0009304304299911398 -0.005128025847347417
2232 -0.0011085326003785997 0.007274820577726237 -0.002043810481950799
2050 -0.006250880539759383 -0.006053882307507261 0.013154208455262462
2051 -0.0020411097852693232 -0.0042659264212267095 -0.0023178026423996884
2052 -0.004281029066649939 -0.010825825132966297 -0.012819947857209262
2449 0.006010444716455142 0.0009459905045443777 0.011293054790055776
1643 -0.0013796973582854888 -0.00014144927849789554 0.0060344878830631
2092 0.00022868187600908496 -0.009730352912226946 -0.02191868190185238
1092 -0.0031627489066266648 0.0032694575854009937 -0.006891017265830928
1100 -0.00475204743820732 0.0038757527402827766 -0.02430499896918008
1647 -0.007888138324249613 0.004343449326304661 -0.004561343704531451
1720 0.005929583095093578 0.0056839788402049925 -0.0027523608641900703
887 0.00975603086771542 -0.017615646541661423 0.004675874792180037
1646 0.0036740381119312895 0.009882577309407895 0.005320580131162966
1099 -0.02819313240954635 -0.015461117986616472 -0.0255994377717901
1098 0.00020350635027445216 0.006625457319132969 0.0002636932385590172
26 -0.019162021228308602 -0.015647132810789617 0.023173295436325746
1394 -0.01120494146427624 -0.01838459661707412 -0.024154660491163767
1391 0.004235879776517444 -0.0019984863342887207 0.010447109061086996
1723 -0.0051066870947063655 0.008457610398835797 -0.004514823473145566
2089 -0.015934056612254964 -0.015354362251347394 0.0017493794113336205
2551 -0.006285883901131744 -0.018072090847457607 -0.013508974388909543
2553 -0.005779722042053909 0.017812901135932823 0.003865177291299869
322 -0.022685334600888462 0.002676828301722131 -0.0056881482031596806
274 0.007373961125297259 0.002341207454216673 -0.03764233211579274
2671 0.021354653708936563 0.017764879977862115 0.007402887655173442
2107 -0.010345648391318846 0.003215228522097559 0.011410650479375195
994 0.0024188097345938814 -0.003133334523380815 0.001307439744076374
1642 0.007869254340213702 0.011325198006641973 -0.0024669466249948647
2552 0.0024216351596636774 -0.001985124851969217 0.0037498756924009198
1645 -0.0018642158251842053 -0.0009539426103254733 -0.006144866358885188
1864 0.0028050134431098594 -0.006534748814982728 -0.003241539118426066
2576 0.0001938938558565073 0.00943859850106703 0.0016719734808509409
1865 -0.000320452602776111 0.006307448335389742 0.018920989583578966
1860 0.0014863335300537594 0.00656600785137653 0.0012076639202866645
1863 0.006842640654513687 0.008957124993642193 -0.004477749052028464
1862 -0.005139712231530965 -0.003945268382045191 -0.009673235151327815
1859 -0.006073673679620034 0.0055821390840344615 0.006706402897771313
1970 -0.0054261889676813025 0.0003287933615416694 0.000980976231536208
2575 -0.01614683012957946 -0.013568400404043862 0.01450463029002963
1971 -0.007656429364801494 -0.007253828150741272 0.01664087880264255
995 -0.005457779752113476 -0.008679193466991903 -0.020506700501892863
632 -0.011182035944762619 0.011216001854455789 0.006534398416393415
1969 -0.0052696788073522734 0.005128681683556905 0.00342620656501027
1861 -0.0075427807403091246 -0.011836413811688018 0.0016843782574952814
2085 0.008105276988566305 -0.016750335770006564 -0.01343187334709224
996 0.016056965348948418 0.008338221319609897 0.013519388653397689
2109 -0.0025094468438261784 -0.007443941335475491 0.000456630076893519
2108 -0.002281565840891494 0.000549353934687235 0.0038177085630030443
272 0.0023313695397879576 0.002744968612726039 0.001328834678726301
1001 -0.0012546196032110408 0.04663870639029891 0.016361079623192772
1343 -0.003976175803073924 -0.011645056935988928 -0.0007936600426463882
280 0.013987162051915155 -0.002346838605838043 -0.004570552267473666
1344 -0.0007277444115823289 0.00847653227227344 0.003153515796614047
1336 -0.008902546750102186 -0.001819361460187802 0.0025476630356663626
1348 0.013149377370728433 -0.0008601885060216502 0.02438990269335884
1342 -0.00013597999546944195 -0.0038005048267885926 -0.0033979559996654045
1337 0.020064537555333276 0.022461729469314528 0.020995962757029956
1332 -0.0003580480933983008 -0.0002459278528616203 0.000874098236290425
1644 0.006680503039546386 0.000120091460736983 -0.0031070883456895816
990 0.0031955643199670647 0.002257096022549306 -0.003440770726803729
1002 0.01714140262671557 0.003636360230872188 0.014955046484705217
279 -0.0013064112135043496 -0.010065348210855606 0.005725327055832981
854 -0.03924469304310386 0.015565441316626544 0.015118532551083617
1000 0.005528922382872109 -0.000764301758906428 0.0027508208933928616
2083 0.0005650831193490486 -0.0036539464873384378 0.00686257228286221
268 -0.0023038937930066746 0.0025296050629525445 0.001555320435040047
273 0.0012604553435319001 0.010352845031342192 0.005762505105664371
629 0.0026035717662867028 0.0026080705473869874 -0.007687454959681968
628 -0.000815246733196824 0.001389325409935235 0.003605141807441798
914 -0.002287670544302305 -0.005643851311219443 0.009366356017396818
983 -0.005494529645088576 -0.005690335125345232 0.013227769375233199
982 -0.0034849027132784973 -0.021264651211121987 -0.009597424942440846
987 0.046588467987368654 0.000816431910864968 -0.002238487488266932
860 0.014999264781049008 0.0005461898474545179 -0.013929356031957872
975 0.0009470114904630763 0.004042518079937857 0.0014901407388403084
981 0.00017409824355178342 0.004728181444036433 -0.007869565198272484
870 0.00017518735910346378 -0.00045672786543946974 -0.0006164777314220215
864 0.010167024266952608 -0.0025354855215294517 0.005539129323443799
971 -0.0016677817066647013 0.0009394110576568768 -0.003178718118212405
874 -0.02518922384243134 0.01983157622578265 0.012582264629966346
977 0.00623774468598959 -0.0009907632833237004 0.008577965913442693
979 -0.013074499233194719 0.008363245899990374 -0.008136897155286326
976 0.011241690374922906 0.006538567817354564 -0.007864841722610098
871 -5.013572684802644e-05 -0.0034483483412894632 0.01293172783041108
872 0.01519308298328813 0.010095239323523977 0.010899413825964977
974 -0.0252836439620807 0.009106735721224068 -0.007906871142477897
970 -0.008641494901411197 -0.002308770130497932 -0.012413984951566037
973 -0.0030300219794435245 -0.009023225554037286 0.01508999192733249
2315 0.0008533432955892236 0.001059881389217948 -0.0036763408254227017
984 -0.003368291177561344 0.00493661444682702 -0.004815428525132823
978 0.004951050749922147 0.0006526792797508595 0.002080152154237483
986 0.017112404176095396 -0.0044094556897401405 0.006830091349272886
988 -0.006787874361020235 -0.003250073996508248 -0.016126842844817618
2316 -0.010507995150026457 -0.0083071178402497 -0.0011534515914009248
972 -0.0006970866729856582 0.0024390599531381634 -0.002154765711234783
1705 0.0009012233602594334 -0.00034946887940555046 0.005773447196603718
1707 0.006454789374618334 0.0012001949912008722 -0.004576458166500239
2602 0.021215515622277935 0.0015467588081453506 -0.015352462722473028
2022 -0.008905838533394978 -0.003466907644927953 0.0016975323420679175
2314 -0.0019603995650343095 -0.025436419588507907 0.00677451793955315
2021 -0.0061478310342948555 -0.0025860057032790528 0.006251253122157209
1790 0.0005853046144911574 -0.0035058673580144074 0.0027598638627880727
437 0.003821693977169964 -0.03985221454684366 -0.019709697175824343
433 -0.003101483162003273 0.002042934882924487 -0.0041823157004766565
1708 -0.0010891492567026374 0.004733394629078463 0.003134193919861329
1784 0.002410413999584417 0.00032264929578469247 -0.0015336506711408123
985 -0.003987475128908416 0.003795067091390371 -0.010815099967972846
2604 -0.015861912755356766 0.007519085148351968 -0.014469860144615968
2603 0.004147769785403839 -0.0011750757044656527 -0.0029474083597802966
2157 -0.0012714277046495933 0.00285864457344512 -0.004916350011681079
507 -0.01682055807722013 -0.009270190898079036 4.0188164941353296e-05
1887 -0.004038842079607377 -0.011815469767260424 0.00691475454411598
2670 -0.00961651790601534 -0.008704307390436029 0.015163906656229357
2179 -0.005304028319893311 -0.007675690435998287 0.013153086190767601
1781 -0.005128831598673975 -0.015911967682984234 0.003932067765810868
2424 -0.007916097962964474 0.010612667791838448 0.01060449783991178
980 0.005182820036269781 0.005864054800512792 -0.006732673102943873
432 -0.0013021892449638956 0.011915672110363259 -0.010194386798292703
423 -0.03158970055328668 0.001014720000182147 0.028028564000936736
496 -0.002733891694070778 0.003732986676302724 -0.004567217621329694
424 -0.004803805262341561 0.0035488775083439375 -0.0017690090746118796
419 0.006926075152770078 -0.0011523828931996462 0.002778806216688197
396 -0.018889549942559824 -0.006730590180400424 0.02154205238662918
499 -0.023979921911249504 -0.0023508764130013428 -0.011989701694974104
1886 -0.0063777309847673335 -0.002725089934423805 -0.0004256869916968826
1885 -0.001751274179608086 0.012792242500659117 0.021922704337904945
505 0.018568410007041267 -0.003786468650548341 0.017933281170100596
2669 0.002154461856330346 -0.00187422735148377 0.0024217081788574916
509 0.0036635625456352154 0.0001114439929141523 -0.00045375821008302613
495 -0.00043287735419902934 -0.003982119544832025 0.009294375305009036
430 0.006244624598655249 -0.0011564812139763963 0.0004982107355567255
503 -0.0044741987195756885 0.001870999141986577 -0.0031287657255044264
497 0.00041029190734821226 0.0035535732964316414 0.005755413039554143
504 0.01845260857233655 -0.015532034206193812 -0.016744776341178495
436 0.018903176375107553 -0.010711043753754224 0.0026551863638809544
2668 -0.0008838206782259477 0.002713954800577232 -0.0013809187150247264
513 -0.02315943647518586 0.01141884085896462 0.011372721484243793
511 -0.007343994884434519 -0.01507796725969966 -0.012338716266102157
2018 -0.0030607946302800846 -0.0005687512624571569 -0.0014298844881795807
2019 0.006658694735531489 -0.01854554891836213 0.018578463877600395
2017 0.01797589340502143 -0.0030123177260803786 -0.01860216485615221
510 0.002293853531880455 -0.0046002322071941595 -0.004221162393142397
2659 -0.0061079755295085315 -0.007197502217220898 0.008304072632427724
2718 -0.01405971211274556 -0.012533097034319334 0.0037390175701195742
2660 -0.002317371353750626 0.0003591416531301112 0.0021027073326018593
422 -0.002128500549535005 0.004741488428945954 0.04661702673699766
395 -8.754845561873729e-05 0.00172929306970487 0.002140662997825121
389 -0.004520447403348805 -0.002181282059410073 0.005004864546185608
399 -0.0010788771944693055 -0.0031139865518233756 8.11802065024856e-05
397 -0.004936558210980398 -0.015028468408656499 -0.013730042895647094
1459 0.025439879686232215 -0.026364174132604865 -0.012264955758827583
2717 -0.00296012016539228 -0.010155043484456679 0.0043166626757192295
2716 -0.003026571685241192 -0.013192362490597154 0.008783204525032066
1520 -0.008560611647274542 0.007425351089376204 -0.017389340504637602
1458 -0.008255937720451089 -0.012758329264115796 -0.001712787200312977
180 -0.005052478644375291 0.0023189855026387366 0.00034125286274440066
498 -0.011141610444818864 -0.014548353003133613 0.009029488768042378
620 -0.0007066670291926224 -0.00418014855670634 -0.0057096687513547495
2184 -0.0030277971665446037 0.003921891457514658 0.03312903238669115
2231 0.00373028048572951 0.003107138480385654 0.00383981995995946
1521 0.015656521171245035 0.003058600724991049 -0.0065310614333480696
1456 0.0025589398448753863 0.001581407548682676 -1.4810710365208163e-05
1522 0.037238832198243504 0.01233289057344534 -0.019880949614280302
1454 0.001446541248785938 0.0008792273907725401 -0.0035212824814813016
1457 0.009778730672376374 0.02412728598014457 0.014140584619438755
1517 0.0016181289876889776 -0.003252114023929335 0.003951689215011306
1453 0.006152717786252535 -0.007610247807425413 -0.003697990158304309
277 0.007588095558484139 -0.0052929453884305215 0.004790946357100648
2183 -3.485824704538052e-05 0.006682875024934702 -0.003578249281558131
2182 0.006045154046038634 -0.016530942516504516 0.001737152172840964
2230 -0.010609054118090157 -0.00823291425764793 -0.00503172298052552
2115 -0.0004967221662268895 -0.012608217734814419 0.01948484658007505
1721 -0.0013418379252851421 0.0037123053694980783 -0.0017756114068810452
2113 0.000287256767637948 0.004849617714853885 -0.009157153342105843
2114 -0.0011273744582565952 -0.0034606759503913328 -0.004787144981897729
276 -0.012494691505731936 0.007423173428678785 0.006931778461502071
269 0.007245722228246024 -0.006129194297946063 -0.004881373116000553
1719 -0.005364811504654269 0.0017413764244682722 -0.0019730644215149684
2569 -0.021381209389061778 0.01151042146481353 0.011432973793127158
2570 0.002337452827194955 0.000826098335216714 -0.004254725534285861
1722 0.0023922732246083487 -0.003567257464233954 0.003751494316620543
1516 -0.009123553469784794 0.000705610364759293 -0.0002517533134842372
1455 0.003665191459271953 -0.01063285256910474 -0.0021433025252228584
219 -0.00892014414645915 0.0011063943299289036 0.010307205791388349
1519 -0.00012937004847558576 0.0078007188184415575 -0.0014161695019529574
212 -0.0032078602275545337 -0.0014721670437717804 -0.0016654968158701401
214 0.0031219804347893247 -0.00494808690161794 -0.003671328212258397
217 0.012197827385049027 -0.0002754538577589185 -0.0022709571875907868
220 -0.029604545422916996 0.006316882599656365 0.010471823707637268
210 0.0013266697973778106 0.003125455002203768 -0.0009170106354018846
213 0.0136952698651565 -0.00782792539723655 -0.004447694046175051
223 -0.006171993525692513 0.003912955534560755 0.02439625868256041
211 -0.0008966374650972081 -0.0031878171067249773 0.0011868638571289642
216 -0.01309154536772771 0.005622687180303463 -0.001300182714217364
215 0.0006415914137067141 -0.0034584982890216898 -0.006708000326157148
222 -0.005254749602083249 -0.011583753635737725 -0.005028195460081342
221 -0.0008019231521741095 0.0031954890787644482 -0.0027881796023980342
227 0.011097424218137327 0.0038261810713537737 -0.022218690995517248
773 -0.0033047288642034252 -0.004774635407114748 -0.0020479107092827987
2290 -0.0043757009104166186 0.010687303839804162 -0.0005440576389436182
2571 -0.0025133440212380146 -0.0005125880884966978 -0.011321297496194484
766 0.007720224336210832 -0.001672294993319634 -0.0006901991596683496
767 0.0033918609469041627 0.0070235082417222285 0.011828079658445366
1819 -0.00038550977636816374 0.005023642374965946 -0.0028461349113595193
1752 -0.011452033832060005 0.02133073984649384 -0.004899236096605058
856 0.0061363340991530246 -3.3318303519861454e-05 -0.0038381755537699007
2697 0.002598813708842176 -0.009929170727005365 -0.010200910378717684
827 0.00470363049106319 -0.004020746565364804 0.001644581625076208
95 0.0008502072816415322 0.008822846867601134 0.013995853132006677
1990 -0.009727231422441576 -0.010429314413883926 0.0009677106559880878
1782 0.00358776272714345 0.007187094574902443 -0.0004941442090597914
278 0.0017663290255329612 -0.001751668452724901 4.078158120952319e-05
93 -0.003041803506747682 -0.007381246617726731 -0.0008478676464478981
1072 -0.006664023933650825 0.000974790448855254 0.013013617500235133
1082 0.012566090120290519 -0.009199330017235899 -0.01960019344722787
2394 0.003019335951492729 0.003730114326571305 0.004563102045772221
1340 0.010797850552073307 -0.030405446173875153 0.01671717543793277
2035 0.01226411493488836 -0.0031752356236127623 0.019781091440204457
1817 -0.001794847337572607 -0.0004902471729143429 0.00042475309125184694
1820 0.0004633672297753579 -0.003707507305260914 0.0024475113827452247
1066 0.004032210336715942 0.0015538564308671611 -0.0063501309431249165
2037 0.01708641584740519 -0.00690908308115857 -0.010137121388679393
271 0.010465771877266666 -0.006606116600080372 0.005989064302709305
2410 -0.01848082027222677 0.006630582979505733 0.006447433615386651
2411 0.004365254000270647 -0.0020951192048347775 0.006005575850652174
2412 0.011382751203845444 0.02582262038566705 -0.008401061656196042
2036 0.010026157088934298 0.00245553897852265 -0.0013589627307000372
1335 -0.004919986537242695 -0.01504815573145108 0.010644683045541791
1331 0.012059747566724125 -0.004622342950623205 0.0022498285280464557
1334 0.010804740785188643 0.008774886396489412 0.01057969770039012
1333 0.0041169831921145286 -0.002206241623263731 -0.004391827277850799
1341 0.01769107200473283 -0.006840214566677876 -0.00016398142031230411
2388 0.006383170750715074 0.014612624915606139 0.00273332578469848
2387 -0.0032615417713664965 -0.0021793446867416698 -0.005182610362593476
2386 -0.013172990826982912 0.009673877206407564 0.01594357195998268
2393 0.008193177228271585 -0.0025130125581359036 0.004031697157300166
2392 -0.04174163652999783 0.0071571984779684366 2.7774097176023974e-05
1349 -0.013391816188136315 0.0052680991942219155 -0.0036220633719380663
1071 0.008864933247533173 0.008273645467709874 0.01229523436297094
1346 -0.032421540308396675 -0.004346341426754998 -0.0008288416939316205
1339 0.006252979031867989 0.004573420244486169 -0.005928087538724091
1345 -0.004978311531642098 -0.001106473168643717 0.00012504577115490966
1070 -0.0020913347082493344 0.003790578758389281 -0.0015273516410985353
1077 -0.0029726758044633524 0.002749635863488453 -0.001978627549839165
1347 0.005590383295493132 -0.009698248990726521 -0.02141099756197009
1076 -0.006812311196771504 -0.0005277648579739897 -0.0012797357400942905
1078 0.028916562896065028 0.0026519489605811605 -0.01825595469055098
1818 -0.005743486263539355 -0.0030826751606355418 -0.001194896030025216
1823 0.006259146718145118 0.006265643962421397 -0.015335785254246148
2317 0.007833947122330705 -0.0031393117308823634 -0.004162134762986091
1822 -0.009504622867428494 0.0041237059243100765 0.0015379519426299319
1783 0.0027956960614732877 -3.3379717816709935e-05 0.0004621192595572924
1788 -0.01050019431652539 -0.003544028125644306 0.02981568433812288
1787 -0.00026452529722456066 0.00673791070730102 -0.0030239316333343664
1821 0.0026115369907266355 0.0023082451253469203 0.004698658189502431
267 0.0032090278080687037 0.00025920727857298566 0.004716297615190134
2420 -0.004600298302186805 0.005206286598601182 -0.0003759034514241891
2020 0.03357592195602131 -0.0017282644370553598 0.020177671620013507
1706 0.0020365904656792122 0.0015665965473885145 0.001132383814113331
919 -0.014435000437828294 -0.011762894717380505 -0.0066319332023769195
1709 -0.009074920898831065 -0.0075537707705467215 -0.010423192386592277
1785 -0.0012212166465235407 0.006831451674860804 0.0010231972938023967
1711 -0.025693151158092675 0.019369554572748433 0.0068123055466321435
1710 0.0038155933332405315 0.0061673192589227635 -0.0018837228064597965
917 -0.009914506258486505 0.0065312156337729065 -0.006460749210201892
913 -0.000982084693506558 -0.003599127536022543 -0.0008089064913008092
922 0.005210119742176012 -0.006261297099270454 -0.021842035777650416
916 0.0023284360363805844 -0.0008784239464233814 0.02040349616468034
927 0.005777141495639671 -0.0019717534937058927 0.003893154774555594
931 -0.010998490429520868 -0.005189647155894034 0.0032574235518486056
915 -0.002833148445135206 -0.0004158909271008895 0.013876721736048848
921 -0.003286563443776732 0.00045261394688247367 -0.0010232779116867699
923 -0.017831072368050118 -0.00455650509963206 -0.02250054713389005
929 -0.00456629255029906 -0.016686734228967333 0.00822833724028768
928 0.00383024514065437 -0.01673917045746551 -0.010459807950276737
1114 0.0019891724439721646 0.0026011527629831287 -0.0002377922456861944
1120 -0.001770076943673441 -0.001139838560690586 -0.0035639781264467305
1713 -0.0033126781393461404 0.0019515806624303834 0.0009614754050243967
1717 0.0038943394043970433 0.00036320592414551246 0.0010210505867279671
1548 0.008660396671959484 -0.029554395103361972 -0.006290016580888884
491 -0.006139162758454208 -0.009719777087029037 0.01873064976669894
1718 0.019245938827802393 -0.007006263713567191 -0.0007782513776558738
1549 0.008579651057663274 -0.011899878030300935 -0.008088698246019937
1808 -0.006546618905701203 0.00017733007313044849 -0.005787757543141381
1775 0.00534690039906217 0.0014079402197194665 -0.001113377394573855
1779 -0.006321272067194851 0.011391414774029288 0.016937618743375807
1107 -0.00034213512887230457 -0.008655181605080303 -0.011880144457528552
1545 0.005140258863210276 -0.0026466309414951063 0.004167345411849039
1777 -0.0042552946493043305 -0.0041636070646976974 0.0011994122806556309
132 0.0048428961870277155 -0.006577579819966124 -0.007516698083995599
774 0.006257294509380804 -0.001201231924216085 -0.0017351935417793934
492 -0.035660926768079214 0.0173070786720325 -0.02188720539398502
2422 0.011952427294935002 0.008702967015290561 -0.0005766691223630063
2423 -0.0035979970098017097 0.0021475749413807604 -0.0012762844603652892
484 -0.0036829078234683977 0.0014288903890640231 0.004186508937390687
25 0.0016236937717256125 -0.005332228295675572 0.0034546520825632365
1905 0.021359928017651835 0.02014511316318237 -0.02558185363937602
1903 -0.014518763781382117 0.009285241415664853 0.001990074587970452
1904 -0.01166342258659543 -0.0012461819843587317 -0.005030464421855407
126 0.004873006332435781 -0.007127630214045248 -0.009027102826760955
483 0.0015128913639724847 0.016530212086916424 -0.004008495371008678
488 -0.013106302798994527 0.014221952535324963 -0.0005720475172093218
489 0.0018166031397211966 0.0037376022078018795 0.005387928042589259
486 -0.002498248582338209 0.013642626224235909 -0.00668664628913802
485 0.003899256892140585 0.0006694295156186404 0.019884969247311184
478 0.004049748926220352 -0.0020547334656549495 0.0004448998710918893
479 0.0058030069395706915 0.0031066323505428883 -0.010322022423733486
490 -0.0028470419982076205 0.004097466316900645 -0.0008777998574156907
494 0.0015662972600560428 -0.0005701382495230826 -0.0008811156525080088
476 -0.0015565648557944384 0.01000245654345338 0.0017230810870896248
480 -0.002953995676322533 0.0008099689574166325 0.006071344841960482
2080 -0.009687840374563631 -0.013379841987005354 -0.00977376296358461
2081 -0.003717216023042604 -0.005989782323654921 0.0017477773679233542
477 -0.0033281546463803 0.003514749454808473 0.0032039117719301928
482 -0.013305292501477725 0.0074176352297083675 -0.03479659318852168
2082 -0.016923816236532052 -0.007898103503716917 -0.015567954598245054
481 0.0013868191552250497 0.0018554441507529144 0.0033663743798516403
487 -0.002338567591332182 -0.008051445061583026 0.0002895581320131849
720 0.00974174116888617 -0.012109125621317876 -0.01611076242677954
493 0.0203299151637902 0.025323938925813153 -0.025816291477801505
1413 -0.0012194908443873853 -0.008520043899814143 -0.0024278339299211365
2633 -0.00302001475808249 -0.0047139355502373035 0.0029460884811119037
2634 -0.016127156271056948 0.003541890289267619 0.010153347734761484
1715 0.002536670687863612 -0.0008389814755817807 0.0008514389878448253
1412 0.0015497536537900467 -0.0006615930034443443 0.00035607458568154206
1411 0.0006879412127684632 -0.003061101543124893 -0.0006367849466600046
1416 0.015424634256011033 0.007309189550533502 0.005161789589831752
712 -0.0028555087290681445 -0.0032770873508346293 -0.0061562490471601524
719 -0.012813171197146554 -0.009754266435023888 -0.012266889113111561
714 0.0010951570461828826 -0.0115192527753324 -0.0076112636110044025
2532 -0.0009988515463713798 -0.032281619791374255 0.009270854156937023
1610 0.003201985983087393 -0.0038621747583065316 0.0022321552959608994
711 -0.010368893453963546 -0.021747973436261357 -0.015371742477441774
2703 -0.01779151978789396 0.01973168826973162 0.025317212797804963
710 0.001391890058279898 -0.002179077873863253 0.0053671213612331275
218 -0.004406242811206757 0.002938487349527062 -0.003457027999993257
226 0.02593170819189634 -0.01798166346565521 0.010778282746713226
2530 0.002457745534812836 0.009370570686638637 -0.005400526171146048
2531 0.004665316761455385 0.004053064516026449 -0.008849132196962229
225 0.0009020495173061634 0.00731563583283546 -0.015385608297530313
2587 0.0014298390722367138 -0.004511888360894841 -0.012409034324139307
706 -0.003059971479404681 -0.0010737594179128244 -0.008421407347018347
2589 0.01227968892382353 0.004416648322563082 -0.011091955108552388
224 -0.0032120862801532186 -0.0037214884985861127 -0.0019135570407101193
228 -0.013921749936497599 0.00329310801577868 0.015840588419986205
2588 0.0057452413516746416 -0.0014143455356848535 0.004533387584697971
713 0.01510876147917804 0.012169876763611257 -0.008144485455597048
2622 0.0025741758859755704 0.015944832436146618 0.01586010710472016
2621 0.0011812603639150356 -0.0032103179195065983 -0.003541129590192708
2736 -0.0006807692403359636 0.00510483398383949 -0.008980249079767957
2734 -0.009703059338571744 -0.020420404376118643 -0.007141508466474773
2620 -0.006610711830017005 0.002586593108229827 -0.00882595548610951
1586 0.0005743690396730242 -0.0028673284092256 0.0004781773779216147
446 0.0004425160954613033 0.004396685745874235 -0.002726061228816888
2735 0.003350191079014509 -0.0002923650627163966 -0.006181069550256977
665 0.006394481862047923 -0.008187931485259136 -0.022224200255820118
454 -0.0011301547390868188 -0.0018602031647275909 0.008904977392576941
2032 0.004256088220255924 -0.00027781012450338495 0.002013927733889699
2033 0.003384767563306486 -0.0008238297329960703 0.005587392437382744
661 -0.0019773558838386152 0.0005230373278326969 -0.0028278925621473766
2034 -0.02174045947623509 0.016389813245024015 0.003776038174181276
655 0.006478225191641716 -0.0003045539771233768 -0.00459193275187197
650 0.01029274566753795 0.008545472191766905 0.0064647233458907764
647 0.0008042718834913937 -0.00048642299939969394 0.001949731825661615
1588 0.0021321214771125867 -0.004727008721132196 0.00798948654617974
1589 0.0013195480759072302 0.005246675800551517 0.0006958434455183184
453 -0.010842152648285678 -0.0113014466482483 -0.017426188713883975
663 0.005996791413526714 -0.006433962085489817 -0.0110586527652232
662 0.041451410363310716 -0.02170879989170002 0.003919350863934239
649 -0.001135952153612892 -0.008263735469556858 0.0060808353413650505
2439 -0.0016999450854036319 -0.007096663138230426 -0.01027812946447184
651 -0.007234581088173614 -0.0017293824978966681 -0.005543117653394219
1417 0.013913378356549658 0.012979140540017496 -0.021271048936607192
657 -0.004641669915576502 -0.017691899225929283 0.007676748740684169
448 0.004092830002826709 0.015074572285504599 0.02042925081157262
440 -0.007869251310180143 -0.0018857209492651047 0.0029740746900209854
447 -0.02303742878398049 0.013687274321694516 0.002185306574768397
660 0.023830556350435975 0.01109647198127835 -0.0021182256335904163
648 0.00010070871104016044 0.0012997168505458913 -0.003508945364355992
850 0.00424223873900088 0.010168186012160074 0.017611250659909792
1115 -0.002678060657299119 0.010644794703783739 -0.005418270292100677
1108 -0.0029798406287277765 -0.0015446797104041161 -0.005463839766537032
1786 -0.021588693810903073 0.006253267125488889 0.0208750141223852
2318 0.006493736221413797 -0.004568487378011853 0.003021236079491286
2028 0.006374574724881286 -0.0006867643023712965 -0.0054576164770323045
2149 -0.02189533498366015 -0.006396861075247339 -0.016558647088603946
1104 -0.0002934246285166818 -0.0013295245187607237 -0.00946083966531759
1116 0.007506979681644947 0.00225748408449124 0.023642197771188776
2655 0.01304074174888176 0.017288444899925887 -0.001106633611869741
2319 -0.023014260046742244 0.003010834492255814 -0.000858347515298491
2150 -0.005167832386267225 -0.002929818035415574 -0.002363964966287734
438 0.0061503404978423175 -0.0005514343682822665 -0.0052245038313301845
445 -0.008125165052770106 -0.002821304733185337 3.514272290572136e-05
652 -0.0003139668508037215 -0.0016961779886769572 0.0034996341256439893
1769 0.003146893264701398 0.0036893948103020394 -0.004248973393688574
2069 -0.0022323559159882923 0.005198981870957655 -0.0007642465992557534
2070 -0.0047101397393616296 0.0027259205696340593 -0.005944254208628851
2068 0.00811688033229034 0.01362997180591115 -0.01369449938076801
442 0.010746724497554297 0.001155503107962973 -0.010525208451360134
658 0.0008754960861100227 -0.00039782699762634736 -0.0038849657939630496
439 -0.0024706899114468905 -0.0008090689277185396 -0.004193345486913779
2654 -0.001924056208564833 -0.0032883216933735897 -0.000470815215232922
444 -0.008967104293986831 0.002816608057609567 -0.0030987139740957016
2653 0.0012560118265741733 -0.018961160426221955 0.013926793148550555
664 0.0093085712257636 0.011183650784967511 0.02661197667067774
1110 -0.0009976914419051654 -0.0007398658423245194 0.010535007586313023
1768 -0.005022718940983539 -0.006873719254516843 -0.00446830915745047
1770 0.0027226133965777125 0.0066900496938460015 0.0011664715737192098
2188 -0.013971436842791708 0.025716108864812806 -0.00256163577249953
2190 0.005800344495905628 0.0013458540033656247 0.01866729399929528
2189 -0.0049462310314753195 0.0017990335624181591 0.0014417928347955063
450 0.0031665833465055124 -0.029502265097296542 -0.006618577017218043
2125 0.0021085578488885676 0.00035834542117961656 0.02136962003254705
1773 0.007869361490707131 0.01155695761182198 -0.012369826974167714
2127 -0.0006468916529539061 0.0024028511896908343 -0.007164984587624784
659 0.004630818683145986 0.017371856736200283 -0.006585316161112992
1771 0.003036577133912235 0.007431561321701278 0.005379797700489023
1778 0.006151013595931521 6.093623912798228e-05 0.0042919547871856385
1772 0.0006923566867139901 0.0162573009935227 0.001366075625023473
1550 0.017118147207608438 -0.006665076260279709 -0.0006287943830797605
443 -0.005942056554025251 0.0017548919441866258 0.00322553337121117
1106 0.0034311023317057324 0.005740593110360561 0.01261879324975763
1774 0.004759511521416114 -0.002617014665417774 0.0010959142477468323
1103 -0.0010763622377078295 -0.004752491948356493 -0.004478019313666915
866 -0.013264586396370898 0.0030872832783915014 0.015055057181114577
2046 0.026346683504266655 -0.024380651137136004 0.008308804307502738
1855 0.0005913594315261814 -0.0018463214888283488 0.0016790441864628538
746 0.012308903864917524 -0.01938320790203826 -0.0007471244284757751
1117 -0.00219609542131269 -0.00045659114381563774 0.002148705284216662
1896 0.032370762864017334 -0.006297987107514753 -0.001332027177208149
751 0.007968309965221073 0.0036142681115897742 -0.00716451079675709
757 0.0065035477516332575 0.002350257122737529 -0.0024037291636419167
760 0.002484106515014794 -0.01184524596570427 -0.0075577412379592614
756 -0.00023538387798759344 0.008177573706017127 -0.000589885663329437
744 -0.002964445709146738 -0.00338893996517228 0.004795990524743748
750 -0.0017298589419465049 -0.00484049208509968 -0.0015702369985358888
1895 0.0014666096280990346 0.000515314468215125 -0.0003447673518467944
1894 -0.011283611332890473 0.01808526130541797 -0.00833966399327951
1661 -0.004290608327471446 -0.00797542055848853 -0.0011082301270846121
2478 0.00457851422550696 -0.002014223762961654 -0.011790467115840923
1996 -0.002081691750279426 -0.012873274919161447 0.0038388492300176205
752 -0.004882638464973492 -0.0011966751800302185 0.013206551773955981
742 0.0010095321545843144 -0.0029676040039341637 0.0013354729961566423
758 0.005413225645140744 -0.0020302909150466657 -0.0036651313717953713
1884 -0.0033994828246178142 -0.014825236716004764 -0.014992146358235228
842 -0.005928831078822127 0.007240492719587157 0.002964610719348018
1843 -0.016586148105619328 0.03850068343832478 0.010197745053533725
1839 -0.001267185756821904 0.004593739006369227 0.0006194547315327302
352 -0.017779853921124585 0.005012392686794398 -0.014300805921776117
838 0.0015250227828794663 -0.004745559295476646 -0.0018099617636495695
848 0.00386909372457331 0.003849787507436103 0.0006201450804677348
158 -0.007178862033875249 -0.0005822120931395331 -0.0004819246892553108
1844 -0.00016376721738946298 0.015033441359872265 0.006292660715636221
1363 -0.0075190422827191425 0.007594539009203437 0.01957570050879698
1361 0.001054364207440698 -0.00492920083979692 0.0051646249806506055
1535 -0.010130708041681554 0.0014798186949376993 0.013490148434694899
1534 0.002321142703232658 0.01986669651287325 0.008291694386795655
1536 0.005845288044707035 -0.0016520888596305546 0.0017561400659654833
1531 -0.0029241363395404087 -0.004252196439716867 0.008550143186417098
1367 0.004529534955469181 -0.015679329150038106 2.307937447879816e-05
353 0.014991039239044431 -0.01086206004174529 0.0003495981424067547
1530 0.0013753041427701255 0.0016114815180425053 0.00299934830434094
1532 -0.00013370962127273947 0.006753926797853093 0.004239638269591084
1533 -0.0015698451539912293 -0.002545059762131219 0.0043545566077944995
343 0.005589101591825741 0.0017519069813199156 -0.00397296313402023
1353 -0.002215319144282113 0.002802469563429019 0.00359535610007331
1350 0.00020810271431623026 0.0010762029239557303 0.002144333069247549
2246 0.006177257132471752 0.0040993266728106565 -0.003525257843362315
170 -0.013030128685495041 0.01630140363206347 -0.01225105307119854
164 0.0027687024161141185 0.00482197619875072 -0.002815855649375768
2245 0.009378443896263043 0.016873616259797827 0.00016485694657159726
2247 0.012627318757363032 0.018155482071678733 -0.005235674152422047
1355 -0.004657153061688099 0.0006631957322879663 0.005572087870433874
1362 0.006292577250723002 0.01808450008510744 -0.028688439731835505
1351 -0.005268875566184965 -0.0020921708620044136 -0.0028038114051215333
1368 0.0022983290473164025 0.00889944608591686 0.005769881110016361
347 0.005596722210850367 0.02295395739515303 -0.003869713418123654
1354 -0.018978149581751508 -0.017938831283476633 -0.013046270209426105
346 0.008608798738101699 -0.0024282187470221514 0.012786723722826009
1364 -0.0013809045519426108 -0.0006980542697254374 0.0024813389651429456
1352 -0.0003778416126209063 -0.00450886047706043 0.004963484583818285
418 0.0033955925982646585 -0.012462238020026791 0.012641962102164258
2178 -0.008368434072550099 -0.007998346973631875 -0.002866356252629336
1794 -0.00021796036913054808 0.025945110264862552 -0.03144021522833296
165 0.0023238145861018134 0.00369735927447822 -0.0014998521448011685
865 0.003826776196709174 0.005472915897075592 -0.009826758684101922
686 -0.0027840713131109095 -0.002856405052619132 -0.00482657908443714
1464 -0.013410283308614915 -0.006553659152185656 0.0071848957408009355
456 -0.002741091229618653 -0.017000229773470484 -0.015714354742596838
1366 0.0037358198394419687 0.015801833077952177 0.00890787862921579
356 -0.0041086254173647585 0.005592126723545006 -0.013661191196798868
349 -0.00966777306300346 0.0015085809448050396 -0.002267097793083795
1466 -0.02705032086439521 0.0053483676074024995 0.014652262698237642
344 0.0015535806341427322 0.0029737676203959343 0.003282252470800788
355 0.006606059695167283 -0.0018485805398969512 0.03395386639903447
348 -0.002927690085023103 -0.00012401380460552475 -0.0021180000745909537
1476 -0.0023930740716424422 -0.0030098442606632234 -0.0002238906566560391
1358 0.003997450057397763 -0.001217578590806813 -0.0037837043466605043
1365 0.007008501350064439 0.007793270807076726 0.0067192663514638075
354 -0.0012784710951789099 -0.0048368341429081575 -0.002456796511277524
360 -0.01557804935689139 -0.01679950175637642 0.003267650080212372
2139 0.009055101993233715 0.010112953548188405 -0.021468254789454737
2138 -0.005688018208915216 -0.0005672218086182773 -0.0025750091285610447
1479 -0.02265315350710311 0.04311078659833006 0.011163822163394182
2076 -0.004433925793108257 0.001840308137034469 -0.011307457380665922
2075 -0.007000001667846976 -0.0047682781637485485 -0.0012364262732706365
2074 -0.008499338918532573 0.018319817875713715 0.005771957951599616
626 0.024887117778442384 -0.015444408532203599 0.01356238812027065
2137 0.00993542729826718 -0.003269870507402748 0.005029293007332207
470 -0.03440338629375199 0.020309801948202817 0.012282031346014377
1474 0.0014738108794885652 -3.12308668730149e-05 0.008699836228704932
1475 -0.0009314031676524632 0.0009822059141110756 -0.006575389205764843
1478 0.0006732040961691569 -0.00031385436300179954 -0.008257204201724135
1480 -0.010619931748213057 -0.012360754338034212 0.009777586178573366
474 -0.010284045708534978 0.00019866730176774824 0.0018567917066708447
1477 0.0007700803338307092 0.004192947860437378 0.001594274910275586
1461 0.01003799773674126 0.005405625732717839 -0.0006315087043543585
1460 -0.004424297031528148 0.006073942289652218 0.00031683699959518286
1462 -0.006028640916112394 0.002620579672580019 -0.0007641013175908094
462 -0.0005447190133245404 -0.0037266472233839863 -0.0047074751953218525
468 -0.0025832478862286017 0.004005094683132108 0.0008076643346923758
469 0.005779241267237859 -0.024636596441811834 0.009220616104605228
2710 0.0011699557292923813 -0.010090591160884578 -0.01515629718239311
2053 -0.015974857909933613 0.003768018976659666 0.002617631600110526
2055 -0.0012974178695378332 0.003797661206448355 -0.031142247310377624
2054 -0.0014742160355886926 0.00040456666663137003 0.005686544044580484
1393 -0.007277147750718979 -0.007831365843607777 -0.007075169961847995
1463 -0.004934910808496497 0.0021013388387107943 -0.007897286201769983
166 0.018689997085740245 -0.02497721822047869 -0.004253050162203922
1793 0.016474666932247164 -0.00792309729028246 -0.0015908186018302793
2606 0.0024932521771200257 0.00459043326587792 0.0027716472286878975
2605 0.0020346764353698474 -0.0005152267210025712 -0.010368613336672699
2664 0.026340040593583296 0.022771336196535177 0.027038658553000004
464 0.007671613216786604 0.010576516105181321 0.013783086099381179
1105 0.003321686882606373 -0.00501855674895465 0.0025582133245126855
1111 -0.0073403174386770815 -0.00822149891466471 -0.0027564101861013877
2607 0.02715856670517803 0.009309341361821977 -0.022553434689237765
1118 -0.01865679000039247 -0.020637860152655833 0.0026942466159871887
458 0.006524005153174285 -0.0009406640986094457 -0.0028844792037987384
2711 0.00407422579019165 0.0007036526629679838 0.0016796467283717383
2578 0.005497304669856485 -0.009660382017010851 0.005476620061076367
460 -0.012935307404009146 0.005713244213309071 0.014267811841089885
457 0.0005297132584965019 -0.00011011307583384732 0.001661023635793788
467 0.0068555035123478636 0.0017096455805081403 -0.004134488878687069
463 -0.002997037469993241 -0.00039052052156381644 0.006451726393855663
2385 -0.02343249968372773 -0.028867044232086688 -0.01843928808016435
472 0.017267570981750736 5.5925208378448256e-05 -0.001616423501971171
465 0.0008385133040173597 0.006572232866760211 0.0032519705203086367
473 0.012081298522649568 0.023323483199691922 -0.019004788123672695
459 -0.002055514819256476 0.00489646391048123 -0.00527878520426812
466 -0.016884879777360844 -0.01678677136106857 0.007827763234200449
471 -0.0017363511159782506 -0.0031190695663812365 -0.004726271926794026
461 0.00749055300615937 0.004486865603460008 0.025345645666982306
475 -0.014000749136246913 -0.006168679959455357 0.01848909376338422
2519 0.0009615498197073633 0.001960691582351068 -0.0033477778337386776
2520 0.010802482409650357 0.0027658283348875614 0.024952762851344276
2579 5.6382780802518984e-05 0.0014950179238825871 0.005997359300831165
2723 0.0024316781409832494 0.00905376017840254 -0.004035737114006526
2132 0.005276703513890188 0.002290177079366575 0.00015293906170015065
2131 -0.006200614690286102 0.022149668768386897 0.0019705860226608128
2383 -0.0036511451597075564 0.02746111996661055 -0.009688951598807139
2176 -0.006040835468830178 0.006373083582324891 0.0006456439812827745
2177 -0.0027114768170543513 -0.0006484700361535942 0.0062335930282674396
1804 0.0007412549156251048 0.004577967354887973 -0.00459088835131211
635 -0.009490205828886988 -0.005083347589899175 -0.013993252044121449
2133 0.026277815824194473 0.017523277115052235 0.015216000289129717
837 0.00291510057628314 0.0031476874676958115 0.0008087737851612519
318 0.019586797744897216 0.004649400373777236 -0.0022728112630625717
154 0.005571375700884041 0.0007515462560111907 -0.006318328177338957
1434 0.003738080632393011 -0.005300229940356724 -0.004628155425186088
1433 0.0037941174811113028 -0.005448952793746424 0.0059610084375227934
1438 0.021308091278203174 -0.012127055176930447 0.0028175621124985955
1432 0.008276344887272984 0.0020729147329344175 0.003961785041122659
1437 0.01486223377787779 0.01834744657609802 -0.026791473701701627
1921 0.0018469709971662585 -0.006880030720816726 0.009484213741844372
2690 0.0020217231983142778 -0.0012283293423974307 0.0012590257680458888
1436 -0.0037030259257436137 0.014229941746290598 -0.011855602642732931
745 -0.011396159070062112 -0.00557813299679556 -0.001822765883191428
1435 0.00439110004814539 0.0025774197323265207 -0.0008252826303273456
1922 -0.003504941943606546 -0.0003159048774368739 0.005305702439526547
1923 -0.007725070132128184 -0.0030449935242830317 -0.025977668865530167
2123 0.0023455846484011092 -6.954966840456383e-06 -0.004906448958621321
581 0.009685439803043278 -0.019573920462538336 -0.00337019590919353
579 -0.007731825688308948 0.0018610156409803549 -0.0015392817353237617
587 -0.010993938028519015 0.011386234999369797 -0.009152064797637673
586 -0.014922664984420105 -0.001967105520302585 -0.014966809624286615
573 0.0042691950999777205 2.948463852380605e-05 0.0012868163865064162
585 -0.0022038836112069377 -0.003324895739022955 -0.0021566579087167986
580 0.018706354002214595 0.0002563431277803683 0.01242081875048631
589 0.02201842024909243 -0.00942297138565139 0.018444532124654234
574 -0.009344573071256737 0.008014493802171126 0.0014024733078320411
571 -0.010053556930133389 0.002458688362184867 0.003562142552983569
577 -0.00017313591264741976 0.008542244564694398 0.00916647633363626
575 -0.012786848688611217 0.022921480464033975 0.009183184726092369
578 0.00839949938671237 0.014693149246235654 -0.00040688104756526477
572 -0.009447889863351173 0.00027822006119436503 0.0030753226423276543
582 -0.00180099375915977 0.006598918547051235 -0.0014453225428294272
576 0.0027394908121122813 -0.009322832099027237 -0.0018818900929622824
2396 -0.003419104718585522 -0.002500509849697676 0.000497821008641677
2397 -0.004463683604497251 -0.001232681559515631 -0.0006859650087304517
2395 -0.018424395289753752 -0.010446913578058404 -0.018970445620749336
583 0.013455303470224682 0.018134780904725256 -0.0010515966050243712
584 0.006878718463344343 -0.01132945531909992 -0.02067729557422156
2124 -0.006434181345844792 0.019382913880836485 -0.01446634259567863
2122 0.004710923941151282 -0.006822956521896417 0.015259540412245124
2685 0.015473922014685072 0.000626466475276135 0.0004402265749368537
2684 -0.0031760737144570813 0.0004050388731430635 -0.008026280224429022
588 -0.008951417986226957 0.003014601415386952 0.002994761671267026
2691 0.004696084833062944 -0.0014251822819239192 0.012988651715793425
1975 0.0063641191928252225 0.006886321560189917 -0.0037497392313865416
1444 0.005521670121770251 0.04873352555473223 -0.0037919436174717216
263 -0.029847635318419555 0.0020659835854404045 -0.007903375942072932
428 -0.006464947055557741 0.0014063295324814613 -0.013741848574677818
1633 -0.0022004165225854256 0.0021164122765180244 -0.022051990653010344
1976 -6.4342927570413575e-06 0.0014247840770747334 0.003151000933347879
2421 0.0018228795546457418 -0.006162975002156501 0.005583325306189351
858 -0.0004722740338567772 0.006947093751596743 -0.0013222268962086278
1962 -0.0056431918373632825 -0.01914671745262101 -0.019532746439364715
1910 -0.0008592348923787921 0.0025976437251757347 0.012694726366648902
1977 0.0017330131546586952 -0.020713383002500318 0.010186082613358885
1795 0.0036828727428816635 -0.009806036195512829 -0.003598879780968071
1909 -0.008651656037905386 0.011685285816152286 -0.019014634466686546
258 -0.012434772871085213 0.003476873936253333 -0.01157432764280113
250 -0.007058494041002971 0.0034236167725456733 -0.005771723789638121
257 -0.024972094799291092 0.016710204030416665 0.002682990515814292
1841 -0.0036703583416077914 -0.0026219496160130775 0.010703550807564136
259 0.003526903396466412 0.002202032290323876 0.0010389688991510758
265 -0.0033765330954374753 0.012705501802626315 -0.004217075180603094
253 0.004940209493022049 0.0029442259786574393 0.00017787572641872053
1944 -0.0016634273483208287 -0.011760186362721699 0.011208776764537626
1960 0.001197454280643003 0.008873894809881084 -0.008972567749323986
261 -0.0473577805941708 -0.002952393133852649 -0.008014320065162348
1961 -0.006161118201582229 0.00449033076998052 -0.001017851476152393
1943 -0.0011217040103599996 0.002867274213681205 0.0018381064623652838
1942 -0.004307290883116204 0.009763761384518706 -0.004231782556504425
251 0.006118320116626756 -0.013125410361943922 -0.011965217068671966
260 0.0051218513619869935 0.005590817246804789 -0.030133966898497237
255 0.009555653811499417 -0.0010750121258197292 0.0021316039782452115
248 -0.005177191000409025 -0.0027939758213228146 -0.00519726724962773
249 -0.0017285021143322555 -0.005428425367239605 -0.004960511192390045
254 -0.0006988457222895525 0.014296692334989567 -0.028534967426851444
832 0.00131985792910182 0.000703418348939864 -0.0068263913339989294
252 -0.004091528245763167 -0.0022254000201624886 -0.009714335451940465
2514 -0.008919593651452715 -0.005223023221866547 -0.00018293060961757892
1431 0.0022683167776567465 -0.0064512595619504115 0.023387475581480608
1428 0.0018538097089706928 0.000981106984560769 -0.0010514913333171247
1425 0.001330199989324164 -0.003527878525031107 0.006208214212329789
1426 0.001348228787575632 0.004343276634716078 0.0006593514006962841
1430 -0.01952466046212134 -0.005295666338457328 0.028703969441522575
1429 0.01277489044831748 -0.0032487136835995336 0.020346635499065235
2067 0.0028045773949592952 0.01921640257782265 -0.0015450789932327327
1427 -0.000188577861623805 0.0020379801915837003 -0.005635180788465657
834 0.027609926305815796 0.003532780918509935 -0.032295799118598485
826 -0.0041071833988389275 0.003570648633956614 -0.0006373874549998049
836 -0.004177425209031672 -0.004004112716347126 -0.0028361123781392825
688 0.020436649076151916 0.023051606753216842 -0.019486440911630376
2066 -0.00027897117386560777 0.0009302453744116609 0.001983906250731228
1093 -0.016183118014964 -0.004959307236279022 -0.008603849039262293
1776 0.0013873335541375522 0.002608007555515203 0.0010443472974670201
1395 -0.006731853797234047 0.0047456862736040455 0.011006361287051767
1102 0.022693484415395575 -0.02021216931300066 -0.004600829752478563
1445 0.010035567882762449 0.00028697239928080794 0.007489657693726889
1467 -0.0070246335759343494 0.00752379147132007 0.005298705625137924
821 0.02168193202021452 0.004111009052067336 -0.022156222391768742
825 0.008244269659403803 -0.013541571160068539 0.012710418016011046
880 0.008532936329867125 -0.007464624637949972 -0.0031506524786955306
888 0.001696032950270314 -0.021140154399903577 -0.0006937934024081701
1440 0.0033012118216240154 -0.0025204715134154957 -0.005980227952864597
1945 0.013629783994595116 0.012784938470758766 0.011777767864045267
1946 -0.003156770888172266 0.005824353062289065 -0.003056689716210563
1947 -0.0022120071706879106 -0.013570634830178464 0.013317540746115585
2442 -0.009706368733595356 0.00845436330234134 0.003512584321209652
820 -0.0031456397562020116 0.0001922306639635666 0.0008531584425738075
828 -0.018832909453240385 -0.0009375780744347256 -0.004263362178853415
818 -0.0012246911695935356 -0.0035184522803547915 -0.008253149240934404
2440 0.006672329091524272 -8.89100891358552e-05 0.011096890134894637
2441 0.0013976753892332168 -0.003033518787067281 -0.001796932998854867
879 0.003512739481179696 -0.0119485695784669 -0.020034965581660343
881 0.008566314793205665 0.027457524953925814 -0.01392725277024414
876 -0.0007868531214037899 0.0037268625982702294 0.001364914803915706
875 -0.002461776409701274 0.0006274739403371951 -0.005221416338181162
882 0.02197306553529261 -0.0119352039659016 -0.02156089357296846
877 -0.0003840208896013342 -0.00112078395089231 -0.0034658668825049382
884 0.030379526350449416 -0.0118733525803335 0.003873359322673365
2209 0.0038936772309637077 -0.010154027948809723 -0.016311021378084437
1094 0.004827670622697591 0.009668280593484738 0.028992070976915498
2210 0.00011428112811019706 0.0031999263180436037 0.0006929523829452897
183 0.001502705848700955 0.008770700475670804 -0.005522387734526108
2211 0.0006050720105382263 0.005495719423074338 -0.0021539112357378066
883 -0.005161281866961127 -0.003954947487829642 -0.0017911247580136022
890 0.0013471285971797815 -0.00807990096413978 -0.012879742071984477
889 0.0009787285988614575 0.005022521943974174 0.010523768513057877
891 -0.0012107857182591776 -0.012425463883723483 0.005358755123223118
189 0.015394109144614669 0.028327276206929822 -0.00396231998998236
1086 -0.008688614207651973 -0.01166748225452347 0.0030784220295247146
1439 0.0008755640209911614 0.0036917481947360458 -0.007630296956611078
1441 0.0031691733922903555 -0.00017183401185616115 -0.000852059121773835
893 0.011764713088198302 0.013297633092932451 -0.021661272808995206
885 0.006224533201063662 0.0023682173808589014 -0.013674129923303788
1443 0.0015651572478021165 -0.0029316642377925327 -0.0062209145423952
1087 -0.010475622415846033 0.006400863539544605 -0.01099983514653135
1442 0.003343455237657128 -0.0021057279615949638 0.0036905321209318048
639 0.0023259482410446742 0.004617023320789065 -0.00337859294763384
1119 0.005066311912087646 -0.01293260064794123 -0.003164400823595048
2594 -0.004278046598493345 -0.005025096405658578 0.0017568366991724046
1993 0.009934167690918266 0.0024834673058355974 -0.029172737196985227
2724 -0.0035526510825406475 0.025209897133731226 0.008604918345252606
172 0.00615813021296785 -0.006350937608969367 0.003979459438040203
2079 -0.003440917678183679 0.0002945616733800172 0.0009675648313162538
2024 0.000629086092628048 -0.00029539797806580134 0.008575858334765226
878 -0.004547944527551754 -0.0025425215622798653 -0.0026693423822322297
2706 -0.0045325847438012915 0.017843084587515583 -0.020151556969496286
643 -0.009823550690666323 -0.006979225890598619 0.0037239983114690316
637 -0.005113462935582458 -0.008336296272198339 -0.005293449778088269
2595 -0.004448945164600607 -0.002666573296826611 -0.0016619322132929509
631 0.002805027495341492 0.007373743785697795 -0.007905117190731923
2416 0.0021079775030899 0.006282072068885626 -0.0072722943963466425
2580 0.02456837464880834 0.003774349773643591 0.00305005587913709
1403 -0.0020413067734779905 0.02765549308343248 0.0037216426961005846
1399 -0.0024137288525888467 0.001700448620415416 -0.008945332676739002
1401 0.0027264534784216103 0.004710381251800735 -0.007329021676421445
1398 0.0020021614385638416 0.0016061984473875947 -0.0077106024863909245
1402 -0.00714049428495661 0.0033778415231953216 0.009053613296726768
1397 -0.002827793584587175 -0.0023657898536991236 -0.0010636962426844158
2722 0.016506976000876313 -0.00026206776285906986 0.006738073348400676
2418 -0.011566726590063966 -6.732153529719664e-05 0.015276954328560268
2417 0.002656219735606096 0.004080151198844327 -0.0009084696168910626
1400 0.0018043857591557332 -0.002874513203877521 0.0022458705606571293
638 0.006281962159600437 0.006464579005271135 0.005539582810850101
630 -0.011321170957154944 0.004997588742694354 0.005126569127321302
636 0.008676145149495766 -0.0003573166056560713 0.0032523533029005583
644 0.02223435780947752 0.011899367749717267 0.005650138778799339
642 -0.0014466542113121758 -0.0031220828880774614 0.0010458971047227724
2329 -0.008941194146773183 -0.001967887828162491 -0.03002264435994449
2330 -0.0061473767240088845 -0.005821341882267263 -0.0019190181689199778
646 -0.02227722138832541 0.0014297341330144304 -0.01509132944864797
2501 -0.0013171582259031774 0.003278802075444675 -0.004464283242988201
2331 -0.0039411241025744115 0.001944226072002205 -0.009477423515198766
1626 0.005984970724378743 0.0030774345434854762 0.00016636591264616976
1621 -0.002438460534475871 0.00396698735757362 -0.005643126966724096
1622 0.004412598065379402 0.003390870818932337 -0.0016321836518747653
1627 -0.0023522090571937524 -0.00498377784905131 0.020029556838740234
2502 0.002054139655545737 0.001184683491240248 -0.017578294467682977
1625 -0.0050302609946000455 -0.00109549694731787 -0.002544903731435352
2500 -0.006979358149862703 0.001284902594463481 -0.015583636242084826
179 0.004442070273499353 0.006253095971438772 0.011007365672581428
182 0.018018148687957387 -0.010576712367887948 0.03085468296531888
2025 -0.002128098904422025 0.005807345289916548 0.007374239394996518
1623 0.00347472934637558 -0.0022538458685428682 0.0024672793599155606
175 0.015370973119972722 -0.009911879622723265 -0.00035270865595809397
1113 0.011736545499975517 -0.020500129004577608 -0.026459746033365678
427 0.004289056902645403 -0.0073097409147650175 -0.00269071169004085
1524 -0.006171832460513845 -0.0013578839637988056 0.0012450864153886994
118 0.023181142594685802 0.0076979850722860834 0.011566544318816983
434 0.014249180268241134 0.0026014077950318217 0.0073722397722370625
2509 0.005921743485931012 -0.010858191168260131 0.010845069444251742
2510 -0.001681537786077892 -0.0009720775618057868 -0.0006364016885154259
1196 -0.012707104084849912 -0.008000215130526431 -0.019654958478584356
1190 -0.002182438522094017 -0.0011976402020389997 0.0012284935112842604
1699 -4.1495176728013336e-05 0.0011806244966027495 -0.005319801480738708
1702 -0.01407480895744354 0.017385276822775464 -0.005578160918925746
394 0.00915468111256003 0.001397760619488711 -0.020623784801494797
1703 0.0007839931520519311 -0.004135058531579 0.0014372075489481981
1704 0.020432007132738815 0.00987631665164146 -0.02277772648136025
393 0.015264339504097514 -0.014717480940123082 0.0027720976170287123
386 -0.0023903825357041732 -0.002344329838144278 -0.009308826205888352
392 0.005878790683518507 0.005155918801327835 -0.00040963899581781524
2469 -0.004655128162979017 -0.0004078450109636127 -0.0041686994236924966
2468 -0.005880281398701889 -0.001968568607820286 -0.004304218509399119
2467 -0.006404685707296782 0.004572542617539842 -0.010186372716584052
1192 -0.0017073888741689354 0.00809109929513094 -0.00971356922928493
1191 0.0148800999912008 0.019187333148372333 -0.007817401635450768
398 -0.004268801168379241 -0.005086526454708561 -0.014433601748761045
2511 -0.010643255578337493 -0.014550402298052635 -0.020037383557792332
2249 0.000699494499243813 0.0023624339435267365 0.005085041502268398
387 -0.050257222533740126 -0.013420530067113669 -0.03724561593299699
382 0.001978544131123271 0.004507417843169543 -0.005281748487420252
385 -0.002722901564277184 0.0067940409567009506 -0.005085164369996499
381 -0.00555407699448925 -5.308278661312518e-05 -0.0003145039812544651
2250 0.014336951082686011 0.006535881247770878 0.010013679247200105
2248 0.004204152609203526 -0.010025346723680498 0.02024723247899832
1698 -0.002964840837005261 -0.0030301021368189436 0.009384475056666003
1184 -0.0023053019621851927 0.002432267496516616 -0.006432962184467777
1490 -0.0007039715559485209 -0.0022968426113624853 0.000318726229871832
435 -0.007930620376186538 -0.006167569646322472 -0.0018357436648502444
1701 -0.00013231182711051056 0.0009038867917898674 0.0015859531810714735
1700 -0.003165538652274609 -0.0017076452282052958 -0.00012865482702090138
1766 -0.0012000735073293936 -0.006429421813419315 0.008314305856852349
1767 0.005153860700570794 0.01057096304892932 -0.002318453926986774
421 -0.0018733581785322726 0.0005501937008682832 -0.0033462503252140044
2661 -5.007160327992719e-05 2.127242472289532e-05 0.004166459370130056
1449 0.004621574956348035 0.001875562861381309 0.002385289548862049
429 -0.009361529110787062 0.008643788492399117 -0.001328606433081291
1911 0.03280659127410796 0.00013160566420334458 0.006010039262960595
2181 0.0002737183185104559 0.009200488776412266 0.01444725487612403
2308 -0.009504619506441847 0.014105478120636401 -0.014043058778947393
2513 -0.0026037203884729135 -0.0038974320318587606 -0.0007132438319016292
2512 -0.0017843778453971646 -0.006064153421240265 -0.014902641096828451
384 -0.029543586603295948 -0.0075312956048117635 -0.020093869604332747
388 -0.019013051502964805 0.004473412394848088 0.025748343436486874
1893 -0.001539841962189431 -0.004961570267849366 -0.0030708316712950855
1891 -0.0021501859526181543 -0.007004096046599191 9.067560318001483e-05
1892 -0.0017424269215838872 -0.004210180869695036 -0.0019501814326515893
390 0.011965482656859368 -0.003478595428218524 0.03701527711677816
383 -0.0012120288207720965 -0.007359050902557874 0.001838019144961446
2583 0.0017023992607699304 0.006964377306548271 -0.013157137529097564
2582 0.0010610939024080913 -0.006644094887110464 -0.0029828210409006727
2581 -0.008985786548606014 0.000871148138010091 -0.0009986658927279041
1446 0.0038590715494674207 0.004419626534866896 -0.00042308911099126243
2555 -0.00784844205121229 0.005261743170549761 0.004316957369873372
2556 -0.015160176407787686 0.015070058447347719 -0.008090062739549663
1450 -0.02647960584265631 0.010975333329507087 0.007801355435671273
1452 -0.00557260923654438 0.0019793992742621696 -0.005506838330618455
1447 0.0019117691799599712 0.0013950735807171132 -0.009034458717399604
1451 -0.009302812588851647 0.04592933361546368 -0.02196452855051475
1492 0.011248464070700358 0.005369502997487798 -0.014269832311336713
391 0.007405287042974662 -0.013787596753674707 -0.014104563001141445
1448 0.013480566033582603 0.0013099582397684902 -0.007423150824526952
2460 -0.0016495514243712898 -0.008565282284417863 0.0062932199602806355
685 -0.003571400976882333 0.0014239870037985436 -0.00045125171509235415
689 0.0389614303190162 0.02109367204421277 0.032951261465719334
2297 -0.0013061470153543538 0.004871123340217599 0.0005618856597941305
2298 0.005403077087819253 -0.010413632884042767 0.011104545846411988
2296 -0.012151931382598541 0.007385046672125457 0.012559560105291889
694 -0.008394813833865703 0.005764233283457413 0.001060297193331511
687 0.008928939533382422 -0.0003969326849506364 0.003854212179897063
695 0.0020179609533846838 -0.0009512807218400642 0.02007522253777605
691 -0.035939811720221426 -0.008202106953882213 0.008359770396510697
2459 -0.0012251405451795567 -0.0028524684293599377 -0.0018909794704799383
2458 0.006360832137246084 -0.006195490081053466 0.002867301264722213
2554 -0.0022974102140335337 -0.013680018130062564 0.015384785084558842
693 0.008538046012730645 0.0016432643638066527 -0.0018361527200199174
701 -0.02011858616978364 0.008785255219135651 -0.006532243745371509
700 -0.002602696749295635 0.012470421074912657 -0.0006995259728005124
1069 0.017565932736009635 -0.009631202794111123 -0.02452369955335671
1915 0.0396212631239689 -0.01840736442067058 0.014106401539651058
1916 0.005142905325931291 -0.0007434525229067076 -0.000409454838256926
282 0.0007601977621148412 0.003944970815700653 -0.023682443599457655
2364 -0.03056270137813646 0.010311684609669705 0.004149549522944686
2291 -0.0014937731344732315 -0.0006027287532918876 0.007738889261458642
1084 -0.0015937293416150625 0.006694871191828187 -4.97633527287169e-05
275 0.002403359716289689 0.0024235599209141965 -0.008110285400347646
2362 0.011253342585042287 -0.010619114469340472 0.019507812868738088
283 0.005657248250686769 0.01133024215739719 -0.00017450432565416522
1917 0.009286844835095986 -0.02603688320683861 -0.022718135505666513
1088 0.0004960995612688922 -0.006990276645549948 -0.012557204514433071
1095 -0.00253055481625211 0.00527527305281285 -0.0016844730965020634
1089 -0.0028211965823006563 -0.00260973854253204 -0.00048461162571632416
1101 -0.007684071426884135 0.006274910263238244 0.008350849823626633
1085 0.004997018738799806 -0.009149993862779753 0.005191449438939057
1204 -0.02280605155675027 -0.01789631259968002 0.0032510601192961156
1090 0.006895939097551944 -0.018028109617522076 0.0006516246971181044
1091 0.0035805995272312806 0.010178650406878207 0.020997379227543106
2472 0.009916241257419738 -0.003819039698810004 0.012677187821999725
2471 0.005269961176065158 -0.0007083095904908079 0.005644941055699045
281 0.0020260534876844903 -0.009426600905193174 0.0014557280351924862
2470 0.011114370626388976 0.011413348829017204 0.003215023410898312
699 -0.00013918201481177524 -0.001418224063228416 -0.00118930755428542
1096 0.006460183025242124 0.0012831820204363571 -0.005695664155122386
1097 -0.003884173449271093 -0.009787662413027138 0.005372858924872444
703 0.008412901522174986 -0.02205818668422843 0.022898456467351273
2258 0.00023425200733562015 -0.0011471320809175846 -0.0026619732408029537
2257 -0.004367465908876099 0.00306830895016287 -0.0027200388845915377
2259 -0.013018473658657067 -0.01005734536037092 0.013976234138464699
2363 -0.004736804054862974 -0.004987786452744346 0.004451471289470374
2292 0.014967774541337726 0.0008258418606551566 0.0069993415304481455
1175 -0.008720844675738804 0.004318171515855462 0.00019036998985396108
1176 0.007635154455140473 0.022387771290205506 0.014443627597309869
1168 -0.0008631535716825032 -0.005072189004876246 0.0025715949582925325
1174 -0.002801969999945622 0.0013946765800372176 0.0017921963073623814
1178 -0.01845401651697968 0.004604642112702651 0.021978412812927152
1207 0.0033077628875735213 -0.008786672820287136 0.004880880015103289
285 0.006900979797481403 0.005303410338028821 -0.03155370320789286
1830 0.012538910952266797 0.008805807219630207 0.0004489834302244433
692 0.006821148233960441 0.0068597005152380135 -0.01874161359956659
1743 0.00034069364287975484 -0.0013413618168080206 -0.001649921068142698
2430 0.002015932438160874 -0.023140421623280286 0.003222934356640943
1360 -0.031095637444226797 0.0037210922354093943 -0.011083787876539925
1469 -0.0009046407043621793 0.0013919579999007439 0.0014049107866953739
2599 -0.006999929464282721 -0.0029549296636319613 0.009751617852176491
2719 0.021673730037781145 0.022090229967421413 0.003241912939653838
131 0.035183042096799254 0.011596987008175385 0.011977611776024933
2023 -0.0007460799255033946 -0.0019585927104038866 -0.01052269792472903
284 0.0014813969333542674 0.020626356863710626 -0.005282076435382007
270 -0.030296387566530244 0.011118223040189735 0.0173075149694576
845 -0.0026085178813918765 -0.0029049465496913205 -0.006133177714801717
1169 -0.002680045047188901 -0.006350622393392428 0.015128166897505386
1624 0.004766203937374651 -0.007348961980764285 -0.006410020052999584
1162 0.011111608295694388 -0.0032001097467498694 0.005252628994257532
188 0.007645112016333474 0.009790085559331464 0.0018131407059322592
1172 -0.008077533691376084 0.012459678637536865 -0.00030077654653658085
1166 0.0047906931670063995 -0.008452288560626674 0.005394261734042386
1170 -0.01264715331676626 0.002140518503566593 0.008867851850892743
2505 -0.018504223986456875 0.012818073729259617 -0.008622852354886494
1765 0.010279669989486586 -0.010481557475375752 -0.02180658551413475
1762 0.001280011555710107 -0.004191239940219804 0.004909863299929682
2504 0.0011228082646470453 0.0027803932137963477 0.0010646955533391508
1167 0.0024256683068927328 -0.0031956453263314276 0.01218502877856434
2503 -0.014680318640901293 0.028882493376566964 0.018435696684412174
1761 -0.005605243580970663 -0.002335767696742148 0.0023257758286404544
1764 0.0014535672282850363 -0.0018537854613341223 0.004278047097857264
1160 0.009895152418697503 -0.002267336246060144 0.004444791605004036
1164 -0.02481220972091197 -0.019256351885458132 0.005518356607913742
1161 0.00781812295134631 -3.014720676277653e-05 0.001824539803824145
1177 -0.0035927502416754835 0.00911472233824962 0.010652368440793368
1171 -0.0038974214326281094 -0.00234230275782525 0.007087471739433233
2608 -0.026311653029921105 -0.0034540873775757903 -0.0026517139441464698
2610 4.659475259594329e-06 0.01796263845729219 0.0006826742597626109
2729 0.00253737778950678 0.0033350286533745752 -0.002140622206248338
2730 -0.0016371144425278946 0.0028091346392823957 0.011777987234805417
2609 4.252023506202407e-05 0.0064070427384071696 -0.002864255346270562
1763 -8.794894196483365e-05 -0.002189314484303483 -0.0025235558692655526
1165 0.0031768027587805426 0.004668473804537633 0.001799146486006161
1173 -0.005095420357336373 -0.010869382373818872 0.01674312628396654
1163 -0.003131428680075517 0.010283010606441743 0.023896094213908942
852 0.004923871223480138 -0.019150007631936028 -0.015964848021890254
2728 -0.009715351600803777 -0.00015574223302306468 0.004528017087776601
853 -0.01389762707507102 0.007781363983906073 -0.005917491961431449
1609 -0.004281322963608249 0.0028285512151359966 -0.0020143417495899424
2705 -0.010149512464927683 -0.00275435494716264 -0.002202504938256494
1629 0.0003566177162154699 -0.004383109549984899 -0.0004759793640598114
125 -0.011098759610187553 0.0245065549984878 0.003409980749572601
1716 0.023197895549444125 0.003476997421801611 0.02948073087755575
21 0.0019771048378332554 0.0036530474980969894 -0.0028466780252980736
174 -0.003895356624415596 0.0008145947650718989 0.002970698057743313
1180 -0.003054987166930051 0.00037266906221966866 0.0002905365431580613
1185 0.0005925093303293532 -0.027082737646279362 -0.020421721601696762
1121 -0.007401592284177078 -0.003390283109246523 0.020460360697921384
1195 0.0007715457925735964 0.010167308639584148 0.008483203427056921
1187 0.0006530867759011181 -0.00013409745513584537 0.006400340525700247
1194 0.005127449263414184 0.0013933830856396525 0.009898977620997286
31 -0.006112386294322168 -0.0009564070881982007 0.002661177123136288
37 -0.0016636719461017454 0.0027014837036136376 0.0027685944407825703
1186 0.003475792784613082 -0.0047813259883187735 -0.003872436205528119
1182 -0.0012552176814565037 -0.006091196958690025 0.003676363036914698
1179 -0.0028709690083838875 -0.0009213394769807336 0.0010687563549540036
1183 -0.014526509333407487 0.00459464561420518 0.010383409983311975
1899 0.01543475806451673 0.008388487616395327 -0.03356588061932952
23 -0.008401763020773476 0.010163468140631538 -0.00030757599731458035
1544 -0.005678242527740534 -0.0017768625670614982 0.004810665783022224
2203 -0.004073749244447394 0.007950767661567774 -0.01979157843162039
1898 -0.0002948657789067944 0.0021849381512383005 -0.0031191269971408107
1897 -0.009844897813762504 0.004835807453364519 0.0010995305992910396
2205 -0.0072016229224798264 0.012655131529273046 0.0012501337265282486
2204 -0.003551004553034274 -0.00440220092852766 -0.0012393830879673627
1181 -0.0037015330148698904 0.008263513679241165 -0.008788677355722032
1188 0.006685482722277213 0.01283550141584262 0.01641273090200355
2687 -0.004419606399894464 -0.0001814813244102225 -0.0016594089072255488
2686 -0.001095286683627825 -0.0031386440300648116 0.02284411442377123
2688 -0.015612841416792353 -0.00887825409689691 0.017274248965560568
1189 0.0025626462722814565 0.0056877271234297795 -0.0155067718766432
24 0.004870354050044183 -0.02392620740943718 0.01230336951749573
1547 -0.0068784209903594235 0.0015611766388904475 0.003005080958503133
34 7.00192622892869e-05 -0.00010765251393124609 0.00046589334590422296
35 0.008168837982963095 0.0038803841889858306 0.016651673013058976
20 0.008365522260365327 -0.00042034167440755727 0.001379013238001935
38 0.0034548271554987672 0.007562815217096066 0.0008750261857808462
1491 0.0021219666744119394 -0.004103052248795432 -0.0011101460609996374
28 -0.00806219033633098 -0.0018860022096540026 0.00273724790649828
1488 2.9517894170939073e-05 -0.0016815366505267273 0.001614473757894755
159 0.010476245147619393 -0.0016909256514996596 0.015930520060825848
2375 0.004530608055323896 0.0008991565120827244 -0.0059814600537842965
27 0.013599301518230552 0.0009022391521419568 0.015466872966820033
1935 0.016709861278285495 -0.017797056626397113 -0.030349053608141007
157 0.016130633798820463 -0.011612973555523076 -0.0010795717760828576
2309 0.001459009207863247 0.0024643329483257574 -0.0038618837842004515
1493 0.0050298257316031625 0.011198760502266493 0.004725874011215973
1489 -0.002047068556984553 0.007025811821654312 -0.0037475591509373647
1953 -0.01892186832180075 0.002070831359635851 -0.010977787196047166
1712 0.0022099001069637515 -0.0013829488286953386 0.00033875217770056444
1714 0.0022398294719086164 -0.0035772495755131183 0.00017985603316987648
1934 0.006520806757734622 -0.0007535487324576669 0.0023901252544662
153 -0.00020463467218841163 0.0028062978281692746 -0.0012548284171242756
2310 -0.012668582039193478 -0.010806757781611763 -0.010212868753661248
1494 0.002643076928011868 -0.007363206513572626 -0.0036862613755439992
1415 0.006252728131655158 0.011886404121441515 0.012362484180973
2632 -0.005274178760244152 -0.006676222729652754 0.0017621950923665667
1883 0.008600179665384122 -0.004572092886788404 -0.007550902419054662
22 0.004458203723937521 0.003659149644104233 0.002516390774130894
36 -0.01231970992460209 -0.00800390018159342 -0.013761643177644124
29 -0.011503061841707784 -0.010128280247417085 0.02269764242410611
2180 0.0030430564126767293 0.0007335436759633668 0.0016938112049263794
30 -0.007867907957340934 -0.013914571242347925 -0.0005324797154967122
2427 -0.01067376565817471 0.016999533931943367 0.007907594553271459
2426 0.003453951043750457 -0.0047697865139500655 0.001196340672398077
1882 0.02507757356630879 -0.005813852689230188 0.0011039444582174335
1933 -0.005561236390589018 0.00677134687766472 -0.002266312177900243
2425 0.01727314457049096 -0.013480593736137018 -0.01657904738578315
413 -0.0031332774364372594 4.675137103083975e-06 0.003789529547493308
156 -0.010254651657202928 0.007390461336388696 0.011452187716114707
410 -0.016241559494056573 -0.01309158324964252 -0.019736216429181188
171 -0.007534554380480664 0.016256506675011634 0.006503468598741357
168 0.017133708083783353 0.0074848356322516196 0.005512639130321151
416 0.001709841406022267 0.00793393197671331 0.016644227920975585
407 0.003391798824339933 -0.017425400777844182 -0.0014155267908632803
167 -0.0003277453464011476 -0.0007195987932428435 -0.000757218511630976
409 0.008018928280535301 0.002045301934237991 0.0017775844906105743
402 -9.324339144675614e-05 -0.0026935584319047654 0.004911532630431654
415 0.00012972313677617265 0.008502458593281628 -0.004595822422669196
161 0.001676194115818767 0.01300585516570502 -0.004858487836490035
405 -0.0020566688279721403 -0.0022774808162415107 -0.006130534219065491
414 -0.006546856925210036 -0.008892507048689869 0.003366849397639909
406 -0.02626196372438691 0.0039184555297739915 0.005535614857691628
401 0.00029939175071158023 0.0035929352121419973 -0.0017488352395949628
417 -0.00029140384433253735 -0.02980985135113543 0.006679928323458567
403 0.0002851668614489251 0.024667636368795234 -0.012006081830964322
400 -0.0032928347777818525 0.0015133474674967203 -0.0026326243646628117
404 -0.00802401584016795 0.013060853452208155 -0.0053968395196283036
411 0.005304967029491744 -0.002879974324561649 0.00451172192311248
408 -0.002930924247830398 -0.00019288487685988076 -0.006735115302156305
412 0.012561249842782382 -0.0002982003418690406 0.013344360592980484
1414 -0.011454788048951186 -0.0036116871918725224 0.006716554867401343
2437 0.018673314390764605 -0.004479867090001845 -0.011719948803922683
2065 0.014119799718003645 0.013172229995029374 0.045225734391728806
1807 0.0039471717679991905 0.041795068210789564 -0.0054363572800342295
1590 0.01174466066278369 0.011504322848639227 0.006629556730791598
1546 0.004394550739545413 -0.003940183025273203 -0.0024242600299532987
1745 -0.01729607339724895 0.004131351499112024 -0.009347537598581524
844 -0.0029999164228660014 0.003611429158403017 0.00618938617191756
2429 0.0022682736609644445 -0.007816355387290367 -0.0032368539105968727
1587 0.0026453838229439025 0.0007452256455278839 0.007339353709613891
859 0.021309620596465347 -0.008687765490989504 0.007386604706080528
1744 -0.00534546164948219 0.005962609902469777 0.015954456444579237
1742 -0.004585594982997998 0.0002121863983648672 -0.00030185942172685415
2428 0.010110403068000656 -0.011181181857556354 0.01603574658583571
2438 0.006707481625819065 0.0015825490890503128 0.0028139422462549134
1740 0.0031652151192289005 -0.004289007488971088 -0.007528396166802371
1592 0.01921338057858775 0.002008141968827673 0.012133017694754345
656 0.004701039805062436 -0.002757890434814273 0.00915453028193138
1746 0.00266008885162252 -0.004250145784124855 -0.0008614578341012231
1741 -0.0038879064874083463 -0.004676671138534879 -0.008136902245286194
2187 0.0010979519561019507 -0.0016393724824453125 -0.009070078971344963
67 -0.01737506615206484 0.006472378356172168 -0.002169729667382314
2116 0.0021070073214814423 0.009546693923246535 0.005994157035919908
73 0.0014777264738829615 -0.014839610056166762 0.0019276230107207006
62 -0.015560997005649217 0.005169959305721862 -0.007941719233757657
72 -8.876360654119581e-05 0.0033059500112808974 0.002215515822040114
61 0.04589729699639206 -0.009019749356488239 -0.006737904184337825
66 0.004587007706756426 0.00175547033513869 -0.007209658575878236
68 0.014052814260119303 -0.018020956886283173 0.007996585697316217
64 0.011327367909445602 -0.009726926829068196 -0.018726224198828245
70 -0.00995209796910089 0.006397320263810859 -0.03173694738627945
63 -0.004831941147693882 -0.006115007736055331 -0.0019165908639877283
65 0.008226327928328128 0.012355968620676094 0.01100032163136588
2277 -0.002055438977705728 0.008294033330829483 -0.01101679497006018
59 0.00044169988856002627 -0.00032312829361150696 0.005195670620195018
71 0.02378436393107863 0.0017171005171881936 0.014234480946044795
2117 0.0010610289077996786 0.003760048358347739 -0.0012526952921742504
2275 -0.016927326131175383 0.01057599618418489 -0.003260874626962495
69 -0.0004012928368911316 8.835946008046469e-05 0.005601474215226587
2118 -0.01248285919802084 0.021247475572549145 -0.026605710779743788
58 -0.0003316646178447029 0.006461670098654545 -0.00567237902274131
2276 -0.0018984817466610423 0.0071895884272744895 -0.004568150989860919
60 -0.005512017016505697 0.0030907633324782327 -0.005820037195434176
2186 -0.006098582176999875 0.007621619379831786 0.003688976819447362
654 -0.006891862980073541 -0.014850004265982335 -0.0017095110942596668
76 -0.0034617805097839254 -0.007196909605645811 0.00015172395939071513
74 0.009269481451500614 -0.006505854576540932 -0.0006062111631501472
2185 0.027077987634364923 -0.020755715530229733 -0.010355670495557296
1803 -0.002167841136828448 0.0022042501510730356 0.003733015405930768
653 -0.00042319637996562237 -0.0011864155486805371 -0.008020963903708487
841 -0.014052063318847983 0.015726464097745498 0.01922995793986282
843 -0.0006396783437201036 -0.004059305299866326 -0.00419938063291889
839 0.0005186839651815433 0.008714275999956774 0.009912405227206725
2142 0.011378247967573266 -0.006702350625336834 -0.022241448181808607
1951 -0.026438573443507276 -0.005128296386350125 0.012567444512560949
2696 -0.006478310734469091 -0.0036299121720316596 -0.00391297150847599
2518 -0.014409382985964479 0.008267857484429925 0.010334068370475525
2384 0.0018743460523093925 -0.0024005577056788706 0.0014611639148008745
1958 0.0031736051997713205 -0.011696542568282649 0.001772882432614617
1991 0.00048106807270124414 -0.00036551793866242463 -0.003306407062253384
1952 -0.0028552137800549166 -0.0021107322154712447 -0.001282119375406328
2141 -0.0014000297465489027 0.00011964946694728511 -0.0037058797362075914
840 0.0007720956404245894 -0.027260754143488695 -0.01676226088565738
1607 -0.0019391114618011397 0.0028546647242074434 0.004052285423100807
2419 0.001360573856818618 0.02009051511105762 -0.0032356438671748812
847 0.019284799290690935 -0.015271445113796205 -0.011337580054612727
846 0.0009083155163237016 0.0036299623794357984 0.008682737738798608
849 -0.04025211816268232 -0.023087663941212616 0.0052305813534115324
1992 0.00878318614727853 0.013912230410733731 -0.02310204199962111
2695 0.009258442496976113 0.006357136793139928 0.01092880018836143
851 0.0004894600177520343 0.006178119581590593 -0.0010151105615243037
1929 -0.003013377019041367 -0.0011629862542032014 -0.018615021719928494
2704 -0.010548073143904588 -0.0010528307515964134 0.002453323363716048
1527 -0.006762309067374541 0.0032754653976591803 -0.0026554777046618695
819 -0.0075442034815137275 0.002334558125732769 0.0061987643741344325
1632 -0.010730764405891208 -0.015068611704561644 -0.014940733734514529
1806 -0.001725904878920787 -0.0017081168205129965 0.002159150866873886
177 0.0022572866686314036 -0.006795161944339276 -0.00017041868454121165
2084 0.005088807856128355 -0.002963333370446599 -0.0004113215031733284
1359 0.002026580174330422 -0.015085675546517534 0.015559065279578333
1994 0.005233552598303039 -0.006437109158902378 0.003403991821599837
1356 0.009305764310139023 -0.023295606697279203 0.02995190664758895
1529 -0.00502798376068568 -0.00835833922762191 -0.020710798869356783
2156 -0.0020863301732470907 -0.002915961727890673 -0.0026426173907880784
1286 -0.008259599857333587 -0.010333614800500974 0.0017485046742231453
1809 0.00363309045876644 -0.02906114540326794 -0.025922842354381363
205 0.005710365253363606 -0.001887054609882212 0.0011223888324604998
33 0.020982428269935925 0.005478184315279611 -0.01125628929111276
2477 0.0013798235380266014 0.0010589398206134156 -0.0018076076553244426
2463 -0.0050366067354636595 0.0053819653152722595 0.002845695379054875
1959 0.0079879924480556 -0.003134986161013977 -0.018100512133245886
441 -0.01413670102831341 -0.011618117502059003 -0.006190823021570259
1927 -0.01033216402053645 -0.020760988954907363 0.006342264799978209
833 0.016505647325498436 -0.025452291521799623 0.006147480767450797
336 -0.024753089913165747 0.03376903228890463 0.010136634200678113
185 0.018863755135957536 -0.0056659230361870185 0.0011046513072834867
2683 -0.008891491616666214 -0.0030209130823666435 -0.00032509066665758563
2120 0.00541698069895787 -0.0013785815428463877 0.0038372788878374546
697 -0.005563297457675785 0.03407856007891268 -0.022627359067456766
702 0.013025821790242335 0.0017993474096096242 0.0008053906142175697
2155 -0.004114349138922765 -0.0048775585902830505 -0.01932536886450287
1528 -0.009281490780789915 0.00042925347677557723 -0.00559197893179626

Bonds

1 9 2048 2047
2 9 2198 2197
3 9 2049 2048
4 7 1692 1691
5 9 2199 2198
6 4 1695 1692
7 4 1697 1692
8 6 113 107
9 9 2147 2146
10 9 1998 1997
11 5 107 101
12 9 2645 2644
13 9 2646 2645
14 9 2628 2627
15 9 2627 2626
16 9 2228 2227
17 9 2163 2162
18 9 2675 2674
19 9 2676 2675
20 2 992 989
21 1 1199 1198
22 4 1696 1692
23 9 2337 2336
24 9 2336 2335
25 9 2162 2161
26 9 1955 1954
27 9 1956 1955
28 4 108 101
29 9 2096 2095
30 3 101 97
31 4 102 97
32 4 109 101
33 9 2097 2096
34 5 110 104
35 6 114 110
36 4 605 598
37 4 111 104
38 2 100 96
39 1 97 96
40 3 104 98
41 9 2480 2479
42 4 600 592
43 4 112 104
44 9 2243 2242
45 4 1381 1377
46 9 2481 2480
47 4 160 154
48 4 606 598
49 1 592 590
50 3 598 592
51 4 596 591
52 9 2169 2168
53 9 2168 2167
54 9 2244 2243
55 5 829 823
56 6 627 623
57 4 621 614
58 3 902 896
59 4 910 902
60 4 624 617
61 3 617 611
62 4 625 617
63 5 623 617
64 1 611 609
65 4 618 611
66 5 908 902
67 2 613 609
68 6 912 908
69 7 1846 1845
70 4 615 610
71 1 610 609
72 4 616 610
73 2 612 609
74 4 619 611
75 9 2585 2584
76 6 835 829
77 4 904 896
78 3 614 610
79 9 1889 1888
80 1 896 894
81 9 2639 2638
82 9 2262 2261
83 9 2456 2455
84 4 622 614
85 4 1849 1846
86 9 1890 1889
87 4 1851 1846
88 4 1850 1846
89 9 2586 2585
90 8 1603 1600
91 9 2270 2269
92 9 2271 2270
93 8 1848 1845
94 8 1602 1600
95 4 830 823
96 4 1233 1225
97 9 2241 2240
98 9 2636 2635
99 9 2643 2642
100 2 897 894
101 9 1925 1924
102 9 1926 1925
103 4 901 895
104 9 1875 1874
105 8 1847 1845
106 9 2235 2234
107 9 2234 2233
108 9 2433 2432
109 9 2432 2431
110 9 2492 2491
111 4 790 782
112 9 2493 2492
113 4 789 782
114 4 907 899
115 4 787 781
116 1 782 780
117 4 786 781
118 9 2306 2305
119 9 2559 2558
120 4 795 788
121 9 2523 2522
122 9 2522 2521
123 9 2307 2306
124 9 1874 1873
125 8 1693 1691
126 9 2153 2152
127 9 2220 2219
128 9 2148 2147
129 4 1541 1538
130 4 244 237
131 5 243 237
132 9 2072 2071
133 6 247 243
134 9 2073 2072
135 3 237 231
136 4 939 933
137 8 1540 1537
138 4 938 933
139 1 933 932
140 4 942 934
141 4 941 934
142 2 935 932
143 1 934 932
144 2 936 932
145 2 233 229
146 2 232 229
147 1 230 229
148 8 1539 1537
149 6 246 240
150 6 1310 1304
151 5 1304 1298
152 3 1298 1294
153 4 1305 1298
154 7 1538 1537
155 3 940 934
156 4 948 940
157 4 947 940
158 9 2273 2272
159 4 1543 1538
160 5 240 234
161 2 1297 1293
162 8 1694 1691
163 4 245 237
164 1 231 229
165 4 1542 1538
166 9 1997 1996
167 4 150 142
168 4 149 142
169 2 99 96
170 1 98 96
171 1 1294 1293
172 4 103 97
173 5 946 940
174 6 950 946
175 8 1630 1628
176 4 106 98
177 8 1686 1684
178 4 105 98
179 4 146 139
180 8 1631 1628
181 6 151 145
182 5 145 139
183 3 139 135
184 4 147 139
185 2 138 134
186 4 1299 1294
187 9 2282 2281
188 9 2283 2282
189 4 140 135
190 4 143 136
191 1 135 134
192 3 142 136
193 1 136 134
194 4 141 135
195 4 144 136
196 9 2012 2011
197 9 2208 2207
198 9 2207 2206
199 9 1949 1948
200 9 1950 1949
201 2 137 134
202 4 1606 1601
203 4 1604 1601
204 9 2367 2366
205 5 148 142
206 7 1601 1600
207 4 92 85
208 4 1688 1685
209 4 128 120
210 9 2600 2599
211 5 91 85
212 4 1605 1601
213 6 152 148
214 4 1224 1218
215 4 1815 1811
216 4 1814 1811
217 4 1227 1219
218 1 1219 1217
219 5 1231 1225
220 6 1235 1231
221 9 2103 2102
222 8 1813 1810
223 2 1220 1217
224 7 1811 1810
225 8 1812 1810
226 9 2102 2101
227 3 1225 1219
228 9 2213 2212
229 9 2214 2213
230 4 1230 1222
231 3 1222 1218
232 4 1816 1811
233 4 1036 1029
234 9 2708 2707
235 1 1218 1217
236 9 2709 2708
237 5 1209 1203
238 4 1681 1678
239 4 1683 1678
240 4 184 177
241 4 1033 1028
242 6 798 794
243 7 1678 1677
244 4 1034 1028
245 3 291 287
246 4 236 230
247 4 239 231
248 4 796 788
249 4 1682 1678
250 4 235 230
251 3 788 782
252 1 781 780
253 4 238 231
254 4 568 560
255 5 566 560
256 8 1680 1677
257 2 784 780
258 2 783 780
259 5 794 788
260 6 570 566
261 3 785 781
262 3 560 554
263 4 178 173
264 4 793 785
265 8 1679 1677
266 9 2648 2647
267 9 2649 2648
268 4 567 560
269 9 1980 1979
270 9 1979 1978
271 5 791 785
272 6 797 791
273 4 792 785
274 4 1037 1029
275 9 2175 2174
276 9 2612 2611
277 9 2174 2173
278 9 2106 2105
279 2 176 172
280 4 181 174
281 9 2613 2612
282 2 555 552
283 9 2720 2719
284 3 234 230
285 4 1306 1298
286 4 241 234
287 4 242 234
288 7 1580 1579
289 4 1583 1580
290 4 1585 1580
291 4 1584 1580
292 8 1582 1579
293 4 678 671
294 4 1156 1149
295 6 1159 1155
296 5 1155 1149
297 4 1157 1149
298 9 2406 2405
299 3 671 667
300 4 679 671
301 9 1964 1963
302 9 1965 1964
303 8 1581 1579
304 9 2496 2495
305 4 1597 1594
306 9 2495 2494
307 9 2378 2377
308 9 2379 2378
309 9 2288 2287
310 9 2289 2288
311 3 1149 1143
312 9 2405 2404
313 9 2721 2720
314 4 672 667
315 9 2667 2666
316 8 1525 1523
317 7 1594 1593
318 4 1598 1594
319 1 667 666
320 4 1599 1594
321 8 1596 1593
322 4 1300 1294
323 9 2366 2365
324 3 690 686
325 8 1595 1593
326 2 669 666
327 4 681 674
328 3 674 668
329 4 698 690
330 2 670 666
331 6 532 528
332 9 2354 2353
333 9 2355 2354
334 5 528 522
335 1 668 666
336 4 1248 1241
337 6 1253 1247
338 5 1247 1241
339 3 1241 1237
340 4 1242 1237
341 4 675 668
342 4 1249 1241
343 9 2402 2401
344 9 2403 2402
345 9 2678 2677
346 9 2252 2251
347 9 2253 2252
348 8 1560 1558
349 8 1561 1558
350 9 2679 2678
351 1 1237 1236
352 5 680 674
353 4 1243 1237
354 5 696 690
355 5 1193 1187
356 4 1211 1203
357 5 335 329
358 1 155 153
359 4 162 155
360 2 1202 1198
361 6 1215 1209
362 3 1206 1200
363 9 2267 2266
364 9 2268 2267
365 8 1553 1551
366 3 1203 1199
367 7 1552 1551
368 8 1554 1551
369 2 1201 1198
370 4 1556 1552
371 4 1557 1552
372 4 1555 1552
373 9 2061 2060
374 9 2060 2059
375 4 1562 1559
376 7 1559 1558
377 3 541 535
378 4 549 541
379 4 548 541
380 5 547 541
381 4 542 535
382 1 535 533
383 4 543 535
384 4 539 534
385 1 534 533
386 4 540 534
387 2 536 533
388 2 537 533
389 4 1563 1559
390 9 2352 2351
391 4 1214 1206
392 9 2351 2350
393 4 1564 1559
394 5 1212 1206
395 9 2007 2006
396 4 1506 1503
397 9 2474 2473
398 3 538 534
399 4 546 538
400 4 1753 1748
401 9 2475 2474
402 4 54 47
403 4 55 47
404 3 47 41
405 6 190 186
406 8 1505 1502
407 4 1508 1503
408 7 1503 1502
409 4 1507 1503
410 9 2264 2263
411 9 2265 2264
412 9 2240 2239
413 8 1504 1502
414 4 49 41
415 1 41 39
416 4 48 41
417 2 42 39
418 9 2301 2300
419 9 2300 2299
420 4 805 800
421 2 43 39
422 5 50 44
423 4 52 44
424 4 46 40
425 1 40 39
426 4 45 40
427 3 44 40
428 4 51 44
429 4 808 801
430 6 56 50
431 5 186 180
432 5 53 47
433 4 806 800
434 4 811 804
435 1 800 799
436 1 801 799
437 4 809 801
438 6 209 205
439 9 2619 2618
440 9 2573 2572
441 9 2618 2617
442 9 1907 1906
443 9 2535 2534
444 1 1143 1141
445 9 2574 2573
446 4 1150 1143
447 2 1145 1141
448 4 1151 1143
449 2 1144 1141
450 4 1147 1142
451 1 1142 1141
452 4 1148 1142
453 9 2435 2434
454 9 2436 2435
455 4 32 25
456 8 1575 1572
457 9 2358 2357
458 9 2357 2356
459 9 2399 2398
460 9 1908 1907
461 9 2400 2399
462 4 1611 1608
463 9 2003 2002
464 4 1577 1573
465 4 1676 1671
466 4 599 592
467 3 85 79
468 8 1518 1516
469 2 290 286
470 5 924 918
471 4 1251 1244
472 2 1240 1236
473 4 1380 1377
474 4 1382 1377
475 2 1239 1236
476 9 2256 2255
477 9 1877 1876
478 9 2255 2254
479 4 1245 1238
480 6 1254 1250
481 4 1246 1238
482 1 1238 1236
483 5 1250 1244
484 7 1377 1376
485 3 1244 1238
486 4 1252 1244
487 9 1995 1994
488 8 1379 1376
489 8 1378 1376
490 9 2087 2086
491 8 1805 1803
492 9 1878 1877
493 9 2454 2453
494 9 2111 2110
495 9 2453 2452
496 4 163 155
497 9 2340 2339
498 9 2339 2338
499 4 1208 1200
500 4 292 287
501 9 2534 2533
502 4 909 902
503 5 544 538
504 4 903 896
505 9 2006 2005
506 8 1567 1565
507 9 2324 2323
508 8 1526 1523
509 2 898 894
510 9 1973 1972
511 7 1566 1565
512 9 2507 2506
513 9 2508 2507
514 8 1568 1565
515 9 1974 1973
516 9 1920 1919
517 9 2217 2216
518 9 2216 2215
519 4 1280 1275
520 4 1283 1276
521 2 1277 1274
522 2 1278 1274
523 5 1288 1282
524 6 1292 1288
525 1 1275 1274
526 4 1281 1275
527 4 1571 1566
528 4 1570 1566
529 9 1919 1918
530 4 1569 1566
531 3 1279 1275
532 9 2325 2324
533 4 1423 1419
534 9 2004 2003
535 4 206 199
536 4 1422 1419
537 7 1419 1418
538 1 895 894
539 6 57 53
540 3 1146 1142
541 4 545 538
542 1 1276 1274
543 3 1282 1276
544 4 1287 1279
545 3 899 895
546 4 1612 1608
547 6 1158 1152
548 4 900 895
549 4 906 899
550 4 1154 1146
551 5 1152 1146
552 4 1289 1282
553 4 1284 1276
554 4 1153 1146
555 6 1291 1285
556 4 1290 1282
557 5 905 899
558 6 911 905
559 7 1608 1607
560 5 1285 1279
561 9 2540 2539
562 8 1497 1495
563 9 1902 1901
564 9 1901 1900
565 8 1498 1495
566 9 2541 2540
567 4 1500 1496
568 4 1499 1496
569 7 1496 1495
570 4 1501 1496
571 4 1613 1608
572 9 2196 2195
573 9 2219 2218
574 9 2154 2153
575 9 2130 2129
576 9 2229 2228
577 9 2699 2698
578 4 1327 1320
579 9 2700 2699
580 4 1328 1320
581 4 1321 1314
582 9 2063 2062
583 3 1320 1314
584 7 1748 1747
585 9 2537 2536
586 1 1314 1312
587 4 293 287
588 4 1515 1510
589 4 602 595
590 4 1389 1384
591 4 1514 1510
592 4 603 595
593 9 2160 2159
594 4 1388 1384
595 4 597 591
596 1 591 590
597 4 1387 1384
598 5 604 598
599 6 608 604
600 4 1268 1260
601 6 1330 1326
602 5 1326 1320
603 3 595 591
604 4 1261 1256
605 4 1267 1260
606 7 1384 1383
607 3 1260 1256
608 1 1256 1255
609 4 1262 1256
610 2 593 590
611 5 1266 1260
612 2 1259 1255
613 2 1258 1255
614 6 1272 1266
615 4 1264 1257
616 1 1257 1255
617 2 1316 1312
618 8 1386 1383
619 9 1967 1966
620 4 1265 1257
621 3 1263 1257
622 2 1315 1312
623 4 1270 1263
624 8 1511 1509
625 9 2546 2545
626 9 1968 1967
627 8 1385 1383
628 7 1510 1509
629 6 1197 1193
630 6 607 601
631 4 1271 1263
632 5 1269 1263
633 4 451 443
634 4 502 496
635 9 2261 2260
636 9 2045 2044
637 4 1513 1510
638 9 2547 2546
639 9 2640 2639
640 9 2135 2134
641 9 2457 2456
642 9 2382 2381
643 9 1941 1940
644 9 1940 1939
645 9 2381 2380
646 6 1273 1269
647 9 2136 2135
648 4 738 731
649 4 739 731
650 6 741 737
651 3 731 725
652 4 732 725
653 5 737 731
654 1 725 723
655 4 733 725
656 2 726 723
657 2 727 723
658 1 724 723
659 4 729 724
660 4 730 724
661 8 1483 1481
662 9 2295 2294
663 8 1484 1481
664 9 2294 2293
665 4 1800 1797
666 9 2349 2348
667 9 2121 2120
668 8 1659 1656
669 4 1485 1482
670 7 1482 1481
671 4 770 763
672 4 337 329
673 4 1473 1468
674 6 740 734
675 4 1471 1468
676 9 2195 2194
677 5 734 728
678 6 569 563
679 5 563 557
680 4 565 557
681 3 728 724
682 3 557 553
683 9 2558 2557
684 4 735 728
685 4 564 557
686 4 736 728
687 7 1657 1656
688 4 1662 1657
689 7 1468 1467
690 1 553 552
691 4 559 553
692 4 1472 1468
693 3 937 933
694 6 949 943
695 1 173 172
696 9 2064 2063
697 4 1322 1314
698 9 1881 1880
699 5 943 937
700 4 945 937
701 8 1750 1747
702 9 2516 2515
703 9 2538 2537
704 9 2526 2525
705 4 944 937
706 9 2448 2447
707 2 194 191
708 4 198 192
709 4 201 193
710 1 193 191
711 8 1749 1747
712 1 192 191
713 6 208 202
714 9 2447 2446
715 4 197 192
716 4 207 199
717 3 196 192
718 4 203 196
719 4 204 196
720 5 202 196
721 3 199 193
722 2 195 191
723 4 200 193
724 9 2105 2104
725 9 2517 2516
726 4 1308 1301
727 3 1301 1295
728 9 2615 2614
729 9 2616 2615
730 9 2525 2524
731 9 2237 2236
732 9 2238 2237
733 9 2013 2012
734 8 1687 1684
735 4 529 522
736 9 2322 2321
737 1 1295 1293
738 4 1780 1776
739 4 1690 1685
740 4 1309 1301
741 4 1689 1685
742 7 1685 1684
743 9 2321 2320
744 9 2226 2225
745 4 1324 1317
746 4 1318 1313
747 4 1319 1313
748 1 1313 1312
749 3 1317 1313
750 4 1325 1317
751 9 2165 2164
752 9 2166 2165
753 5 1323 1317
754 9 2225 2224
755 6 1329 1323
756 9 2544 2543
757 9 2642 2641
758 7 1636 1635
759 4 1639 1636
760 4 1640 1636
761 4 1641 1636
762 4 1302 1295
763 9 2543 2542
764 4 508 500
765 9 2009 2008
766 9 2625 2624
767 9 2409 2408
768 9 2408 2407
769 4 1303 1295
770 8 1638 1635
771 3 823 819
772 4 302 294
773 1 1029 1027
774 1 1028 1027
775 4 1229 1222
776 2 1221 1217
777 4 1226 1219
778 4 1232 1225
779 8 1637 1635
780 4 1062 1054
781 4 1056 1048
782 2 1049 1046
783 4 1223 1218
784 1 1048 1046
785 3 1054 1048
786 4 1061 1054
787 5 1060 1054
788 4 1055 1048
789 2 1050 1046
790 6 1064 1060
791 3 1035 1029
792 7 1797 1796
793 8 1799 1796
794 8 1798 1796
795 6 1045 1041
796 5 1041 1035
797 6 94 88
798 4 1053 1047
799 1 1047 1046
800 6 1063 1057
801 4 1059 1051
802 5 1057 1051
803 3 1051 1047
804 6 1234 1228
805 4 1052 1047
806 5 1228 1222
807 4 1058 1051
808 2 1030 1027
809 2 1031 1027
810 4 90 82
811 3 82 78
812 9 2274 2273
813 5 88 82
814 4 1042 1035
815 4 1801 1797
816 4 1802 1797
817 2 80 77
818 4 1043 1035
819 1 78 77
820 9 2078 2077
821 4 1004 997
822 6 303 297
823 9 1880 1879
824 2 556 552
825 1 554 552
826 4 89 82
827 4 561 554
828 4 562 554
829 9 2057 2056
830 4 999 991
831 9 2058 2057
832 4 558 553
833 6 1007 1003
834 1 991 989
835 4 1375 1370
836 4 1005 997
837 3 997 991
838 4 1373 1370
839 4 1374 1370
840 7 1370 1369
841 5 1003 997
842 9 2099 2098
843 9 2100 2099
844 2 993 989
845 8 1372 1369
846 8 1371 1369
847 9 2465 2464
848 9 2466 2465
849 9 2360 2359
850 9 2414 2413
851 2 81 77
852 4 1675 1671
853 9 2361 2360
854 9 2415 2414
855 4 1724 1720
856 9 2129 2128
857 2 1296 1293
858 5 677 671
859 9 2663 2662
860 8 1673 1670
861 9 2016 2015
862 9 2666 2665
863 5 1307 1301
864 9 2484 2483
865 9 2483 2482
866 6 683 677
867 4 863 857
868 1 857 856
869 6 1311 1307
870 8 1665 1663
871 5 376 370
872 6 380 376
873 4 862 857
874 4 377 370
875 4 378 370
876 6 379 373
877 3 370 364
878 4 368 363
879 5 373 367
880 3 367 363
881 4 375 367
882 9 2313 2312
883 4 371 364
884 2 366 362
885 1 363 362
886 1 364 362
887 4 372 364
888 2 365 362
889 9 2312 2311
890 8 1666 1663
891 9 2681 2680
892 4 369 363
893 4 374 367
894 9 2682 2681
895 6 817 813
896 6 816 810
897 5 813 807
898 6 1083 1079
899 4 530 522
900 4 682 674
901 9 2528 2527
902 4 676 668
903 3 522 516
904 9 2091 2090
905 4 868 861
906 4 523 516
907 9 2010 2009
908 6 1216 1212
909 4 869 861
910 3 861 857
911 4 673 667
912 6 684 680
913 9 2159 2158
914 4 1667 1664
915 4 130 123
916 4 1668 1664
917 8 1868 1866
918 8 1869 1866
919 9 2279 2278
920 9 2280 2279
921 4 524 516
922 1 516 514
923 2 517 514
924 7 1867 1866
925 4 1669 1664
926 7 1664 1663
927 4 1738 1734
928 4 1737 1734
929 4 1739 1734
930 7 1734 1733
931 5 129 123
932 4 1872 1867
933 4 1870 1867
934 6 133 129
935 4 1871 1867
936 3 123 117
937 8 1736 1733
938 8 1735 1733
939 4 1023 1016
940 5 449 443
941 6 551 547
942 4 1039 1032
943 5 772 766
944 9 2172 2171
945 2 518 514
946 4 1040 1032
947 4 84 78
948 8 1672 1670
949 4 521 515
950 3 1032 1028
951 4 87 79
952 6 531 525
953 9 2171 2170
954 4 520 515
955 1 515 514
956 4 776 769
957 4 526 519
958 3 769 763
959 5 775 769
960 5 1038 1032
961 6 1044 1038
962 6 779 775
963 4 777 769
964 3 519 515
965 4 527 519
966 5 525 519
967 8 1756 1754
968 1 763 761
969 4 10 3
970 4 771 763
971 2 764 761
972 4 1759 1755
973 4 1760 1755
974 7 1755 1754
975 8 1757 1754
976 4 1758 1755
977 9 2445 2444
978 6 778 772
979 4 83 78
980 4 768 762
981 4 16 9
982 4 17 9
983 4 1074 1067
984 2 803 799
985 3 807 801
986 3 804 800
987 4 812 804
988 9 2444 2443
989 4 86 79
990 1 79 77
991 5 810 804
992 1 1067 1065
993 4 1654 1650
994 4 1081 1073
995 8 1651 1649
996 4 1080 1073
997 4 1075 1067
998 3 1073 1067
999 5 1079 1073
1000 8 1652 1649
1001 7 1650 1649
1002 4 1655 1650
1003 4 1653 1650
1004 2 1068 1065
1005 9 2145 2144
1006 9 2144 2143
1007 9 2001 2000
1008 9 2000 1999
1009 9 2630 2629
1010 9 2631 2630
1011 2 802 799
1012 4 815 807
1013 9 2348 2347
1014 4 299 291
1015 4 1660 1657
1016 3 918 914
1017 7 1573 1572
1018 4 1576 1573
1019 9 2372 2371
1020 8 1617 1614
1021 4 1578 1573
1022 2 289 286
1023 4 926 918
1024 8 1574 1572
1025 9 2303 2302
1026 9 2304 2303
1027 9 2370 2369
1028 8 1616 1614
1029 9 2369 2368
1030 9 2373 2372
1031 4 1618 1615
1032 4 1620 1615
1033 7 1615 1614
1034 4 1619 1615
1035 4 1014 1009
1036 4 1020 1013
1037 4 1015 1009
1038 1 1009 1008
1039 3 1013 1009
1040 4 1017 1010
1041 4 169 161
1042 5 297 291
1043 4 1021 1013
1044 5 1019 1013
1045 6 1025 1019
1046 9 2568 2567
1047 4 295 288
1048 9 2529 2528
1049 9 2693 2692
1050 5 601 595
1051 9 2624 2623
1052 6 304 300
1053 9 2090 2089
1054 9 2094 2093
1055 6 18 12
1056 4 7 2
1057 1 116 115
1058 2 1012 1008
1059 9 2112 2111
1060 9 2088 2087
1061 1 117 115
1062 2 594 590
1063 4 124 117
1064 4 1018 1010
1065 3 1016 1010
1066 4 1024 1016
1067 4 13 6
1068 5 12 6
1069 3 6 2
1070 2 119 115
1071 4 127 120
1072 1 1010 1008
1073 5 1022 1016
1074 6 1026 1022
1075 9 2694 2693
1076 2 1011 1008
1077 8 1833 1831
1078 4 1835 1832
1079 4 1837 1832
1080 8 1834 1831
1081 7 1832 1831
1082 4 1836 1832
1083 4 121 116
1084 9 2550 2549
1085 9 2549 2548
1086 9 2597 2596
1087 4 14 6
1088 9 2598 2597
1089 1 2 1
1090 4 8 2
1091 4 1486 1482
1092 9 2567 2566
1093 1 762 761
1094 4 963 956
1095 4 1424 1419
1096 9 2733 2732
1097 6 968 962
1098 5 962 956
1099 9 2285 2284
1100 5 965 959
1101 6 969 965
1102 4 964 956
1103 9 2732 2731
1104 4 1487 1482
1105 1 3 1
1106 4 11 3
1107 8 1658 1656
1108 9 1982 1981
1109 9 1983 1982
1110 9 1937 1936
1111 2 5 1
1112 3 9 3
1113 6 550 544
1114 2 4 1
1115 9 1938 1937
1116 9 2286 2285
1117 8 1420 1418
1118 3 956 952
1119 4 958 952
1120 1 952 951
1121 2 955 951
1122 4 957 952
1123 1 953 951
1124 2 954 951
1125 5 15 9
1126 4 960 953
1127 8 1421 1418
1128 4 961 953
1129 6 19 15
1130 4 967 959
1131 3 959 953
1132 9 2727 2726
1133 9 2726 2725
1134 4 298 291
1135 1 288 286
1136 6 455 449
1137 7 1671 1670
1138 4 1674 1671
1139 3 294 288
1140 4 301 294
1141 4 966 959
1142 4 814 807
1143 1 287 286
1144 5 300 294
1145 4 296 288
1146 5 867 861
1147 4 122 116
1148 4 1205 1199
1149 6 873 867
1150 4 1213 1206
1151 2 822 818
1152 3 120 116
1153 1 1200 1198
1154 9 2462 2461
1155 2 765 761
1156 4 1751 1748
1157 4 998 991
1158 4 1725 1720
1159 9 2376 2375
1160 4 187 180
1161 9 2601 2600
1162 4 824 819
1163 9 2093 2092
1164 4 1210 1203
1165 4 1634 1629
1166 6 75 69
1167 7 1853 1852
1168 4 1858 1853
1169 4 1856 1853
1170 4 748 743
1171 4 1857 1853
1172 4 754 747
1173 1 743 742
1174 6 323 319
1175 8 1854 1852
1176 3 747 743
1177 6 645 639
1178 4 1357 1351
1179 9 2561 2560
1180 9 2562 2561
1181 9 2657 2656
1182 4 358 351
1183 9 2658 2657
1184 9 2390 2389
1185 9 2391 2390
1186 3 351 345
1187 9 2327 2326
1188 6 361 357
1189 4 359 351
1190 9 2499 2498
1191 9 2498 2497
1192 7 1825 1824
1193 9 1931 1930
1194 5 357 351
1195 8 1826 1824
1196 4 1828 1825
1197 9 2043 2042
1198 9 1932 1931
1199 9 2346 2345
1200 4 1842 1839
1201 8 1512 1509
1202 6 722 718
1203 5 718 712
1204 9 2042 2041
1205 4 1829 1825
1206 1 345 343
1207 4 749 743
1208 8 1827 1824
1209 9 2637 2636
1210 6 1006 1000
1211 9 2328 2327
1212 4 350 344
1213 2 707 704
1214 6 721 715
1215 5 715 709
1216 9 2333 2332
1217 3 709 705
1218 9 2334 2333
1219 9 2592 2591
1220 9 2591 2590
1221 4 716 709
1222 4 717 709
1223 9 2651 2650
1224 9 2652 2651
1225 9 2487 2486
1226 9 2702 2701
1227 8 1392 1390
1228 4 330 325
1229 4 331 325
1230 1 325 324
1231 2 708 704
1232 1 705 704
1233 9 2486 2485
1234 4 334 326
1235 3 329 325
1236 9 2202 2201
1237 6 341 335
1238 4 1465 1461
1239 4 925 918
1240 4 1591 1587
1241 9 1928 1927
1242 9 2490 2489
1243 8 1470 1467
1244 9 2565 2564
1245 9 2564 2563
1246 4 641 633
1247 9 2489 2488
1248 9 1985 1984
1249 9 2714 2713
1250 5 452 446
1251 9 1986 1985
1252 9 2715 2714
1253 9 2192 2191
1254 9 2193 2192
1255 9 2672 2671
1256 9 2673 2672
1257 3 633 629
1258 4 634 629
1259 9 2151 2150
1260 4 640 633
1261 9 2577 2576
1262 4 1109 1104
1263 9 2027 2026
1264 4 1112 1105
1265 9 2201 2200
1266 4 920 914
1267 4 321 313
1268 5 319 313
1269 4 755 747
1270 4 1732 1727
1271 4 1731 1727
1272 4 320 313
1273 3 313 307
1274 4 315 307
1275 2 308 305
1276 1 307 305
1277 4 314 307
1278 5 753 747
1279 6 759 753
1280 2 309 305
1281 1 306 305
1282 4 312 306
1283 5 316 310
1284 7 1727 1726
1285 4 311 306
1286 3 310 306
1287 4 317 310
1288 9 1989 1988
1289 9 1988 1987
1290 8 1792 1789
1291 4 1137 1130
1292 9 2039 2038
1293 8 1729 1726
1294 8 1791 1789
1295 4 1730 1727
1296 9 2040 2039
1297 4 1338 1332
1298 9 2712 2711
1299 9 2015 2014
1300 6 855 851
1301 3 500 496
1302 9 2345 2344
1303 4 1138 1130
1304 8 1728 1726
1305 4 1128 1123
1306 1 1123 1122
1307 8 1840 1838
1308 2 1126 1122
1309 4 1134 1127
1310 6 266 262
1311 4 1129 1123
1312 3 1127 1123
1313 5 1133 1127
1314 4 1131 1124
1315 4 1132 1124
1316 1 1124 1122
1317 2 1125 1122
1318 5 262 256
1319 4 1135 1127
1320 4 264 256
1321 3 256 250
1322 6 1139 1133
1323 5 1136 1130
1324 3 1130 1124
1325 4 425 420
1326 1 420 419
1327 4 1408 1405
1328 4 1409 1405
1329 7 1405 1404
1330 6 1140 1136
1331 4 1410 1405
1332 4 431 424
1333 4 501 496
1334 9 1913 1912
1335 4 426 420
1336 9 2222 2221
1337 9 1914 1913
1338 9 2223 2222
1339 6 512 506
1340 5 506 500
1341 9 2126 2125
1342 6 930 924
1343 4 333 326
1344 4 1396 1391
1345 8 1407 1404
1346 4 831 823
1347 9 2343 2342
1348 9 2342 2341
1349 9 2030 2029
1350 2 328 324
1351 6 342 338
1352 5 338 332
1353 4 339 332
1354 4 340 332
1355 3 332 326
1356 1 326 324
1357 2 327 324
1358 6 892 886
1359 5 886 880
1360 9 2451 2450
1361 9 2450 2449
1362 4 1648 1643
1363 9 2031 2030
1364 8 1406 1404
1365 9 2232 2231
1366 9 2051 2050
1367 9 2052 2051
1368 7 1643 1642
1369 3 1092 1086
1370 4 1100 1092
1371 4 1647 1643
1372 7 1720 1719
1373 4 887 880
1374 4 1646 1643
1375 4 1099 1092
1376 5 1098 1092
1377 4 26 21
1378 4 1394 1391
1379 7 1391 1390
1380 4 1723 1720
1381 9 2553 2552
1382 6 322 316
1383 4 274 268
1384 3 994 990
1385 9 2552 2551
1386 8 1645 1642
1387 4 1864 1860
1388 9 2576 2575
1389 4 1865 1860
1390 7 1860 1859
1391 4 1863 1860
1392 8 1862 1859
1393 9 1970 1969
1394 9 1971 1970
1395 4 995 990
1396 2 632 628
1397 8 1861 1859
1398 9 2085 2084
1399 4 996 990
1400 9 2109 2108
1401 9 2108 2107
1402 3 272 268
1403 4 1001 994
1404 4 1343 1336
1405 4 280 272
1406 4 1344 1336
1407 3 1336 1332
1408 6 1348 1342
1409 5 1342 1336
1410 4 1337 1332
1411 1 1332 1331
1412 8 1644 1642
1413 1 990 989
1414 4 1002 994
1415 4 279 272
1416 6 854 848
1417 5 1000 994
1418 1 268 267
1419 4 273 268
1420 1 629 628
1421 1 914 913
1422 4 983 975
1423 4 982 975
1424 6 987 981
1425 2 860 856
1426 3 975 971
1427 5 981 975
1428 5 870 864
1429 3 864 858
1430 1 971 970
1431 6 874 870
1432 4 977 971
1433 4 979 972
1434 4 976 971
1435 4 871 864
1436 4 872 864
1437 2 974 970
1438 2 973 970
1439 9 2315 2314
1440 5 984 978
1441 3 978 972
1442 4 986 978
1443 6 988 984
1444 9 2316 2315
1445 1 972 970
1446 8 1707 1705
1447 9 2022 2021
1448 9 2021 2020
1449 7 1790 1789
1450 6 437 433
1451 5 433 427
1452 8 1708 1705
1453 8 1784 1782
1454 4 985 978
1455 9 2604 2603
1456 9 2603 2602
1457 9 2157 2156
1458 4 507 500
1459 9 1887 1886
1460 9 2670 2669
1461 4 1781 1776
1462 9 2424 2423
1463 4 980 972
1464 4 432 424
1465 2 423 419
1466 1 496 495
1467 3 424 420
1468 4 396 389
1469 2 499 495
1470 9 1886 1885
1471 4 505 497
1472 9 2669 2668
1473 5 509 503
1474 5 430 424
1475 3 503 497
1476 1 497 495
1477 4 504 497
1478 6 436 430
1479 6 513 509
1480 4 511 503
1481 9 2018 2017
1482 9 2019 2018
1483 4 510 503
1484 9 2718 2717
1485 9 2660 2659
1486 2 422 419
1487 5 395 389
1488 3 389 383
1489 6 399 395
1490 4 397 389
1491 4 1459 1454
1492 9 2717 2716
1493 4 1520 1517
1494 4 1458 1454
1495 3 180 174
1496 2 498 495
1497 5 620 614
1498 9 2184 2183
1499 9 2231 2230
1500 4 1521 1517
1501 8 1456 1453
1502 4 1522 1517
1503 7 1454 1453
1504 4 1457 1454
1505 7 1517 1516
1506 4 277 269
1507 9 2183 2182
1508 9 2115 2114
1509 8 1721 1719
1510 9 2114 2113
1511 4 276 269
1512 1 269 267
1513 9 2570 2569
1514 8 1722 1719
1515 8 1455 1453
1516 4 219 212
1517 8 1519 1516
1518 1 212 210
1519 2 214 210
1520 4 217 211
1521 4 220 212
1522 2 213 210
1523 4 223 215
1524 1 211 210
1525 4 216 211
1526 3 215 211
1527 4 222 215
1528 5 221 215
1529 6 227 221
1530 4 773 766
1531 9 2571 2570
1532 3 766 762
1533 4 767 762
1534 8 1819 1817
1535 4 1752 1748
1536 9 2697 2696
1537 4 827 820
1538 6 95 91
1539 5 278 272
1540 4 93 85
1541 4 1072 1066
1542 6 1082 1076
1543 9 2394 2393
1544 4 1340 1333
1545 8 1820 1817
1546 1 1066 1065
1547 9 2037 2036
1548 2 271 267
1549 9 2411 2410
1550 9 2412 2411
1551 9 2036 2035
1552 2 1335 1331
1553 2 1334 1331
1554 1 1333 1331
1555 4 1341 1333
1556 9 2388 2387
1557 9 2387 2386
1558 9 2393 2392
1559 6 1349 1345
1560 4 1071 1066
1561 4 1346 1339
1562 3 1339 1333
1563 5 1345 1339
1564 3 1070 1066
1565 4 1077 1070
1566 4 1347 1339
1567 5 1076 1070
1568 4 1078 1070
1569 7 1818 1817
1570 4 1823 1818
1571 4 1822 1818
1572 7 1783 1782
1573 4 1788 1783
1574 4 1787 1783
1575 4 1821 1818
1576 9 2420 2419
1577 7 1706 1705
1578 4 919 914
1579 4 1709 1706
1580 8 1785 1782
1581 4 1711 1706
1582 4 1710 1706
1583 2 917 913
1584 4 922 915
1585 2 916 913
1586 5 927 921
1587 6 931 927
1588 1 915 913
1589 3 921 915
1590 4 923 915
1591 4 929 921
1592 4 928 921
1593 5 1114 1108
1594 6 1120 1114
1595 7 1713 1712
1596 4 1717 1713
1597 4 1548 1545
1598 4 491 484
1599 4 1718 1713
1600 4 1549 1545
1601 4 1808 1804
1602 4 1779 1776
1603 2 1107 1103
1604 7 1545 1544
1605 8 1777 1775
1606 6 132 126
1607 4 774 766
1608 4 492 484
1609 9 2423 2422
1610 3 484 478
1611 3 25 21
1612 9 1905 1904
1613 9 1904 1903
1614 5 126 120
1615 4 483 477
1616 4 488 481
1617 4 489 481
1618 4 486 478
1619 4 485 478
1620 1 478 476
1621 2 479 476
1622 5 490 484
1623 6 494 490
1624 2 480 476
1625 9 2081 2080
1626 1 477 476
1627 4 482 477
1628 9 2082 2081
1629 3 481 477
1630 5 487 481
1631 4 720 712
1632 6 493 487
1633 8 1413 1411
1634 9 2633 2632
1635 9 2634 2633
1636 8 1715 1712
1637 7 1412 1411
1638 4 1416 1412
1639 3 712 706
1640 4 719 712
1641 4 714 706
1642 9 2532 2531
1643 8 1610 1607
1644 4 711 705
1645 9 2703 2702
1646 4 710 705
1647 3 218 212
1648 4 226 218
1649 9 2531 2530
1650 4 225 218
1651 1 706 704
1652 9 2589 2588
1653 5 224 218
1654 6 228 224
1655 9 2588 2587
1656 4 713 706
1657 9 2622 2621
1658 9 2621 2620
1659 9 2736 2735
1660 3 446 440
1661 9 2735 2734
1662 6 665 661
1663 4 454 446
1664 9 2033 2032
1665 5 661 655
1666 9 2034 2033
1667 3 655 649
1668 2 650 647
1669 8 1588 1586
1670 8 1589 1586
1671 4 453 446
1672 4 663 655
1673 4 662 655
1674 1 649 647
1675 9 2439 2438
1676 2 651 647
1677 4 1417 1412
1678 4 657 649
1679 4 448 440
1680 1 440 438
1681 4 447 440
1682 4 660 652
1683 1 648 647
1684 4 850 842
1685 4 1115 1108
1686 3 1108 1104
1687 4 1786 1783
1688 9 2318 2317
1689 9 2028 2027
1690 1 1104 1103
1691 4 1116 1108
1692 9 2655 2654
1693 9 2319 2318
1694 9 2150 2149
1695 4 445 439
1696 3 652 648
1697 7 1769 1768
1698 9 2069 2068
1699 9 2070 2069
1700 2 442 438
1701 5 658 652
1702 1 439 438
1703 9 2654 2653
1704 4 444 439
1705 6 664 658
1706 4 1110 1104
1707 8 1770 1768
1708 9 2190 2189
1709 9 2189 2188
1710 4 450 443
1711 4 1773 1769
1712 9 2127 2126
1713 4 659 652
1714 8 1771 1768
1715 8 1778 1775
1716 4 1772 1769
1717 4 1550 1545
1718 3 443 439
1719 2 1106 1103
1720 4 1774 1769
1721 4 866 858
1722 9 2046 2045
1723 8 1855 1852
1724 2 746 742
1725 5 1117 1111
1726 9 1896 1895
1727 4 751 744
1728 4 757 750
1729 6 760 756
1730 5 756 750
1731 1 744 742
1732 3 750 744
1733 9 1895 1894
1734 4 1661 1657
1735 9 2478 2477
1736 4 752 744
1737 4 758 750
1738 9 1884 1883
1739 3 842 838
1740 4 1843 1839
1741 7 1839 1838
1742 4 352 345
1743 1 838 837
1744 5 848 842
1745 3 158 154
1746 4 1844 1839
1747 4 1363 1355
1748 5 1361 1355
1749 4 1535 1531
1750 4 1534 1531
1751 4 1536 1531
1752 7 1531 1530
1753 6 1367 1361
1754 4 353 345
1755 8 1532 1530
1756 8 1533 1530
1757 2 1353 1350
1758 9 2246 2245
1759 6 170 164
1760 5 164 158
1761 9 2247 2246
1762 3 1355 1351
1763 4 1362 1355
1764 1 1351 1350
1765 6 1368 1364
1766 2 347 343
1767 2 1354 1350
1768 2 346 343
1769 5 1364 1358
1770 1 1352 1350
1771 6 418 414
1772 9 2178 2177
1773 4 1794 1790
1774 4 165 158
1775 4 865 858
1776 1 686 685
1777 4 1464 1461
1778 6 456 452
1779 4 1366 1358
1780 4 356 348
1781 4 349 344
1782 4 1466 1461
1783 1 344 343
1784 4 355 348
1785 3 348 344
1786 8 1476 1474
1787 3 1358 1352
1788 4 1365 1358
1789 5 354 348
1790 6 360 354
1791 9 2139 2138
1792 9 2138 2137
1793 4 1479 1475
1794 9 2076 2075
1795 9 2075 2074
1796 6 626 620
1797 4 470 462
1798 7 1475 1474
1799 4 1478 1475
1800 4 1480 1475
1801 6 474 468
1802 8 1477 1474
1803 7 1461 1460
1804 8 1462 1460
1805 3 462 458
1806 5 468 462
1807 4 469 462
1808 9 2055 2054
1809 9 2054 2053
1810 8 1393 1390
1811 8 1463 1460
1812 4 166 158
1813 4 1793 1790
1814 9 2606 2605
1815 9 2664 2663
1816 4 464 458
1817 1 1105 1103
1818 3 1111 1105
1819 9 2607 2606
1820 4 1118 1111
1821 1 458 457
1822 9 2711 2710
1823 2 460 457
1824 4 467 459
1825 4 463 458
1826 9 2385 2384
1827 4 472 465
1828 3 465 459
1829 4 473 465
1830 1 459 457
1831 4 466 459
1832 5 471 465
1833 2 461 457
1834 6 475 471
1835 9 2519 2518
1836 9 2520 2519
1837 9 2579 2578
1838 9 2723 2722
1839 9 2132 2131
1840 9 2177 2176
1841 7 1804 1803
1842 4 635 629
1843 9 2133 2132
1844 4 318 310
1845 1 154 153
1846 8 1434 1432
1847 7 1433 1432
1848 4 1438 1433
1849 4 1437 1433
1850 9 2690 2689
1851 4 1436 1433
1852 2 745 742
1853 8 1435 1432
1854 9 1922 1921
1855 9 1923 1922
1856 9 2123 2122
1857 4 581 573
1858 3 579 573
1859 4 587 579
1860 4 586 579
1861 1 573 571
1862 5 585 579
1863 4 580 573
1864 6 589 585
1865 2 574 571
1866 4 577 572
1867 2 575 571
1868 4 578 572
1869 1 572 571
1870 5 582 576
1871 3 576 572
1872 9 2396 2395
1873 9 2397 2396
1874 4 583 576
1875 4 584 576
1876 9 2124 2123
1877 9 2685 2684
1878 9 2684 2683
1879 6 588 582
1880 9 2691 2690
1881 4 1444 1440
1882 4 263 256
1883 4 428 421
1884 4 1633 1629
1885 9 1976 1975
1886 9 2421 2420
1887 1 858 856
1888 9 1962 1961
1889 9 1910 1909
1890 9 1977 1976
1891 4 1795 1790
1892 4 258 250
1893 1 250 248
1894 4 257 250
1895 8 1841 1838
1896 5 259 253
1897 6 265 259
1898 3 253 249
1899 9 1944 1943
1900 4 261 253
1901 9 1961 1960
1902 9 1943 1942
1903 2 251 248
1904 4 260 253
1905 4 255 249
1906 1 249 248
1907 4 254 249
1908 5 832 826
1909 2 252 248
1910 9 2514 2513
1911 4 1431 1426
1912 8 1428 1425
1913 7 1426 1425
1914 4 1430 1426
1915 4 1429 1426
1916 9 2067 2066
1917 8 1427 1425
1918 4 834 826
1919 3 826 820
1920 6 836 832
1921 2 688 685
1922 9 2066 2065
1923 4 1093 1086
1924 7 1776 1775
1925 4 1395 1391
1926 6 1102 1098
1927 4 1445 1440
1928 2 821 818
1929 4 825 819
1930 3 880 876
1931 4 888 880
1932 7 1440 1439
1933 9 1946 1945
1934 9 1947 1946
1935 9 2442 2441
1936 1 820 818
1937 4 828 820
1938 9 2441 2440
1939 2 879 875
1940 4 881 876
1941 1 876 875
1942 4 882 876
1943 1 877 875
1944 4 884 877
1945 4 1094 1086
1946 9 2210 2209
1947 5 183 177
1948 9 2211 2210
1949 3 883 877
1950 4 890 883
1951 5 889 883
1952 4 891 883
1953 6 189 183
1954 1 1086 1084
1955 8 1441 1439
1956 6 893 889
1957 4 885 877
1958 4 1443 1440
1959 2 1087 1084
1960 8 1442 1439
1961 5 639 633
1962 4 1119 1111
1963 9 2594 2593
1964 9 2724 2723
1965 9 2079 2078
1966 9 2024 2023
1967 2 878 875
1968 9 2706 2705
1969 4 643 636
1970 4 637 630
1971 9 2595 2594
1972 2 631 628
1973 9 2580 2579
1974 4 1403 1398
1975 8 1399 1397
1976 4 1401 1398
1977 7 1398 1397
1978 4 1402 1398
1979 9 2418 2417
1980 9 2417 2416
1981 8 1400 1397
1982 4 638 630
1983 1 630 628
1984 3 636 630
1985 4 644 636
1986 5 642 636
1987 9 2330 2329
1988 6 646 642
1989 9 2501 2500
1990 9 2331 2330
1991 4 1626 1622
1992 7 1622 1621
1993 4 1627 1622
1994 9 2502 2501
1995 4 1625 1622
1996 4 179 173
1997 4 182 174
1998 9 2025 2024
1999 8 1623 1621
2000 2 175 172
2001 4 1113 1105
2002 3 427 421
2003 7 1524 1523
2004 2 118 115
2005 4 434 427
2006 9 2510 2509
2007 6 1196 1190
2008 5 1190 1184
2009 7 1699 1698
2010 4 1702 1699
2011 4 394 386
2012 4 1703 1699
2013 4 1704 1699
2014 4 393 386
2015 3 386 382
2016 5 392 386
2017 9 2469 2468
2018 9 2468 2467
2019 4 1192 1184
2020 4 1191 1184
2021 6 398 392
2022 9 2511 2510
2023 9 2249 2248
2024 4 387 382
2025 1 382 381
2026 2 385 381
2027 9 2250 2249
2028 3 1184 1180
2029 8 1490 1488
2030 4 435 427
2031 8 1701 1698
2032 8 1700 1698
2033 4 1766 1762
2034 4 1767 1762
2035 1 421 419
2036 9 2661 2660
2037 8 1449 1446
2038 4 429 421
2039 9 1911 1910
2040 9 2181 2180
2041 9 2513 2512
2042 2 384 381
2043 4 388 382
2044 9 1893 1892
2045 9 1892 1891
2046 4 390 383
2047 1 383 381
2048 9 2583 2582
2049 9 2582 2581
2050 9 2555 2554
2051 9 2556 2555
2052 4 1450 1447
2053 4 1452 1447
2054 7 1447 1446
2055 4 1451 1447
2056 4 1492 1489
2057 4 391 383
2058 8 1448 1446
2059 9 2460 2459
2060 2 689 685
2061 9 2297 2296
2062 9 2298 2297
2063 4 694 687
2064 1 687 685
2065 4 695 687
2066 4 691 686
2067 9 2459 2458
2068 3 693 687
2069 4 701 693
2070 4 700 693
2071 2 1069 1065
2072 9 1916 1915
2073 4 282 275
2074 9 2364 2363
2075 9 2291 2290
2076 3 275 269
2077 4 283 275
2078 9 1917 1916
2079 2 1088 1084
2080 5 1095 1089
2081 3 1089 1085
2082 6 1101 1095
2083 1 1085 1084
2084 4 1204 1199
2085 4 1090 1085
2086 4 1091 1085
2087 9 2472 2471
2088 9 2471 2470
2089 5 281 275
2090 5 699 693
2091 4 1096 1089
2092 4 1097 1089
2093 6 703 699
2094 9 2258 2257
2095 9 2259 2258
2096 9 2363 2362
2097 9 2292 2291
2098 4 1175 1168
2099 4 1176 1168
2100 3 1168 1162
2101 5 1174 1168
2102 6 1178 1174
2103 4 1207 1200
2104 6 285 281
2105 4 1830 1825
2106 4 692 686
2107 8 1743 1740
2108 9 2430 2429
2109 4 1360 1352
2110 8 1469 1467
2111 4 131 123
2112 6 284 278
2113 2 270 267
2114 3 845 839
2115 4 1169 1162
2116 8 1624 1621
2117 1 1162 1160
2118 4 188 180
2119 4 1172 1165
2120 4 1166 1161
2121 4 1170 1162
2122 9 2505 2504
2123 4 1765 1762
2124 7 1762 1761
2125 9 2504 2503
2126 4 1167 1161
2127 8 1764 1761
2128 2 1164 1160
2129 1 1161 1160
2130 6 1177 1171
2131 5 1171 1165
2132 9 2610 2609
2133 9 2729 2728
2134 9 2730 2729
2135 9 2609 2608
2136 8 1763 1761
2137 3 1165 1161
2138 4 1173 1165
2139 2 1163 1160
2140 4 852 845
2141 4 853 845
2142 8 1609 1607
2143 9 2705 2704
2144 7 1629 1628
2145 4 125 117
2146 4 1716 1713
2147 1 21 20
2148 1 174 172
2149 1 1180 1179
2150 4 1185 1180
2151 6 1121 1117
2152 4 1195 1187
2153 3 1187 1181
2154 4 1194 1187
2155 5 31 25
2156 6 37 31
2157 4 1186 1180
2158 2 1182 1179
2159 2 1183 1179
2160 9 1899 1898
2161 2 23 20
2162 9 1898 1897
2163 9 2205 2204
2164 9 2204 2203
2165 1 1181 1179
2166 4 1188 1181
2167 9 2687 2686
2168 9 2688 2687
2169 4 1189 1181
2170 2 24 20
2171 8 1547 1544
2172 5 34 28
2173 4 35 28
2174 6 38 34
2175 8 1491 1488
2176 3 28 22
2177 4 159 154
2178 9 2375 2374
2179 4 27 21
2180 9 1935 1934
2181 2 157 153
2182 9 2309 2308
2183 4 1493 1489
2184 7 1489 1488
2185 9 1953 1952
2186 8 1714 1712
2187 9 1934 1933
2188 9 2310 2309
2189 4 1494 1489
2190 4 1415 1412
2191 9 1883 1882
2192 1 22 20
2193 4 36 28
2194 4 29 22
2195 9 2180 2179
2196 4 30 22
2197 9 2427 2426
2198 9 2426 2425
2199 4 413 405
2200 2 156 153
2201 4 410 402
2202 6 171 167
2203 4 168 161
2204 4 416 408
2205 4 407 401
2206 5 167 161
2207 4 409 402
2208 1 402 400
2209 4 415 408
2210 3 161 155
2211 3 405 401
2212 5 414 408
2213 4 406 401
2214 1 401 400
2215 6 417 411
2216 2 403 400
2217 2 404 400
2218 5 411 405
2219 3 408 402
2220 4 412 405
2221 8 1414 1411
2222 4 1807 1804
2223 4 1590 1587
2224 8 1546 1544
2225 4 1745 1741
2226 4 844 838
2227 9 2429 2428
2228 7 1587 1586
2229 2 859 856
2230 4 1744 1741
2231 8 1742 1740
2232 9 2438 2437
2233 4 1592 1587
2234 4 656 649
2235 4 1746 1741
2236 7 1741 1740
2237 9 2187 2186
2238 4 67 60
2239 4 73 66
2240 2 62 58
2241 5 72 66
2242 2 61 58
2243 3 66 60
2244 4 68 60
2245 4 64 59
2246 4 70 63
2247 3 63 59
2248 4 65 59
2249 9 2277 2276
2250 1 59 58
2251 4 71 63
2252 9 2117 2116
2253 5 69 63
2254 9 2118 2117
2255 9 2276 2275
2256 1 60 58
2257 9 2186 2185
2258 4 654 648
2259 6 76 72
2260 4 74 66
2261 4 653 648
2262 2 841 837
2263 4 843 838
2264 1 839 837
2265 9 2142 2141
2266 9 2696 2695
2267 9 2384 2383
2268 9 1958 1957
2269 9 1991 1990
2270 9 1952 1951
2271 9 2141 2140
2272 2 840 837
2273 4 847 839
2274 4 846 839
2275 4 849 842
2276 9 1992 1991
2277 5 851 845
2278 9 1929 1928
2279 4 1527 1524
2280 1 819 818
2281 4 1632 1629
2282 8 1806 1803
2283 3 177 173
2284 9 2084 2083
2285 4 1359 1352
2286 9 1994 1993
2287 4 1356 1351
2288 4 1529 1524
2289 9 2156 2155
2290 4 1286 1279
2291 4 1809 1804
2292 5 205 199
2293 4 33 25
2294 9 2477 2476
2295 9 2463 2462
2296 9 1959 1958
2297 2 441 438
2298 4 833 826
2299 4 336 329
2300 4 185 177
2301 9 2120 2119
2302 4 697 690
2303 6 702 696
2304 4 1528 1524

Angles

1 14 2047 2048 2049
2 14 2197 2198 2199
3 13 1691 1692 1695
4 13 1691 1692 1696
5 13 1691 1692 1697
6 7 1695 1692 1696
7 7 1695 1692 1697
8 7 1696 1692 1697
9 14 2146 2147 2148
10 10 101 107 113
11 14 2644 2645 2646
12 14 2626 2627 2628
13 14 2227 2228 2229
14 14 2674 2675 2676
15 11 1692 1691 1693
16 11 1692 1691 1694
17 12 1693 1691 1694
18 4 1198 1199 1203
19 5 1198 1199 1204
20 5 1198 1199 1205
21 6 1203 1199 1204
22 6 1203 1199 1205
23 7 1204 1199 1205
24 14 2335 2336 2337
25 14 2161 2162 2163
26 14 1954 1955 1956
27 14 2095 2096 2097
28 8 97 101 107
29 6 97 101 108
30 6 97 101 109
31 9 107 101 108
32 9 107 101 109
33 7 108 101 109
34 10 104 110 114
35 4 96 97 101
36 5 96 97 102
37 5 96 97 103
38 6 101 97 102
39 6 101 97 103
40 7 102 97 103
41 8 98 104 110
42 6 98 104 111
43 6 98 104 112
44 9 110 104 111
45 9 110 104 112
46 7 111 104 112
47 1 97 96 98
48 2 97 96 99
49 2 97 96 100
50 2 98 96 99
51 2 98 96 100
52 3 99 96 100
53 14 2479 2480 2481
54 14 2242 2243 2244
55 4 590 592 598
56 5 590 592 599
57 5 590 592 600
58 6 598 592 599
59 6 598 592 600
60 7 599 592 600
61 8 592 598 604
62 6 592 598 605
63 6 592 598 606
64 9 604 598 605
65 9 604 598 606
66 7 605 598 606
67 14 2167 2168 2169
68 10 823 829 835
69 8 896 902 908
70 6 896 902 909
71 6 896 902 910
72 9 908 902 909
73 9 908 902 910
74 7 909 902 910
75 8 611 617 623
76 6 611 617 624
77 6 611 617 625
78 9 623 617 624
79 9 623 617 625
80 7 624 617 625
81 10 617 623 627
82 4 609 611 617
83 5 609 611 618
84 5 609 611 619
85 6 617 611 618
86 6 617 611 619
87 7 618 611 619
88 10 902 908 912
89 1 610 609 611
90 2 610 609 612
91 2 610 609 613
92 2 611 609 612
93 2 611 609 613
94 3 612 609 613
95 13 1845 1846 1849
96 13 1845 1846 1850
97 13 1845 1846 1851
98 7 1849 1846 1850
99 7 1849 1846 1851
100 7 1850 1846 1851
101 4 609 610 614
102 5 609 610 615
103 5 609 610 616
104 6 614 610 615
105 6 614 610 616
106 7 615 610 616
107 14 2584 2585 2586
108 8 610 614 620
109 6 610 614 621
110 6 610 614 622
111 9 620 614 621
112 9 620 614 622
113 7 621 614 622
114 14 1888 1889 1890
115 4 894 896 902
116 5 894 896 903
117 5 894 896 904
118 6 902 896 903
119 6 902 896 904
120 7 903 896 904
121 14 2638 2639 2640
122 14 2455 2456 2457
123 14 2269 2270 2271
124 14 2635 2636 2637
125 14 1924 1925 1926
126 1 895 894 896
127 2 895 894 897
128 2 895 894 898
129 2 896 894 897
130 2 896 894 898
131 3 897 894 898
132 11 1846 1845 1847
133 11 1846 1845 1848
134 12 1847 1845 1848
135 14 2233 2234 2235
136 14 2431 2432 2433
137 14 2491 2492 2493
138 4 780 782 788
139 5 780 782 789
140 5 780 782 790
141 6 788 782 789
142 6 788 782 790
143 7 789 782 790
144 14 2305 2306 2307
145 14 2521 2522 2523
146 14 1873 1874 1875
147 14 2152 2153 2154
148 10 237 243 247
149 14 2071 2072 2073
150 8 231 237 243
151 6 231 237 244
152 6 231 237 245
153 9 243 237 244
154 9 243 237 245
155 7 244 237 245
156 4 932 933 937
157 5 932 933 938
158 5 932 933 939
159 6 937 933 938
160 6 937 933 939
161 7 938 933 939
162 1 933 932 934
163 2 933 932 935
164 2 933 932 936
165 2 934 932 935
166 2 934 932 936
167 3 935 932 936
168 4 932 934 940
169 5 932 934 941
170 5 932 934 942
171 6 940 934 941
172 6 940 934 942
173 7 941 934 942
174 1 230 229 231
175 2 230 229 232
176 2 230 229 233
177 2 231 229 232
178 2 231 229 233
179 3 232 229 233
180 11 1538 1537 1539
181 11 1538 1537 1540
182 12 1539 1537 1540
183 4 229 230 234
184 5 229 230 235
185 5 229 230 236
186 6 234 230 235
187 6 234 230 236
188 7 235 230 236
189 10 1298 1304 1310
190 8 1294 1298 1304
191 6 1294 1298 1305
192 6 1294 1298 1306
193 9 1304 1298 1305
194 9 1304 1298 1306
195 7 1305 1298 1306
196 13 1537 1538 1541
197 13 1537 1538 1542
198 13 1537 1538 1543
199 7 1541 1538 1542
200 7 1541 1538 1543
201 7 1542 1538 1543
202 8 934 940 946
203 6 934 940 947
204 6 934 940 948
205 9 946 940 947
206 9 946 940 948
207 7 947 940 948
208 14 2272 2273 2274
209 10 234 240 246
210 1 1294 1293 1295
211 2 1294 1293 1296
212 2 1294 1293 1297
213 2 1295 1293 1296
214 2 1295 1293 1297
215 3 1296 1293 1297
216 4 229 231 237
217 5 229 231 238
218 5 229 231 239
219 6 237 231 238
220 6 237 231 239
221 7 238 231 239
222 14 1996 1997 1998
223 4 96 98 104
224 5 96 98 105
225 5 96 98 106
226 6 104 98 105
227 6 104 98 106
228 7 105 98 106
229 4 1293 1294 1298
230 5 1293 1294 1299
231 5 1293 1294 1300
232 6 1298 1294 1299
233 6 1298 1294 1300
234 7 1299 1294 1300
235 10 940 946 950
236 11 1629 1628 1630
237 11 1629 1628 1631
238 12 1630 1628 1631
239 10 139 145 151
240 8 135 139 145
241 6 135 139 146
242 6 135 139 147
243 9 145 139 146
244 9 145 139 147
245 7 146 139 147
246 14 2281 2282 2283
247 1 135 134 136
248 2 135 134 137
249 2 135 134 138
250 2 136 134 137
251 2 136 134 138
252 3 137 134 138
253 4 134 135 139
254 5 134 135 140
255 5 134 135 141
256 6 139 135 140
257 6 139 135 141
258 7 140 135 141
259 8 136 142 148
260 6 136 142 149
261 6 136 142 150
262 9 148 142 149
263 9 148 142 150
264 7 149 142 150
265 4 134 136 142
266 5 134 136 143
267 5 134 136 144
268 6 142 136 143
269 6 142 136 144
270 7 143 136 144
271 14 2011 2012 2013
272 14 2206 2207 2208
273 14 1948 1949 1950
274 11 1685 1684 1686
275 11 1685 1684 1687
276 12 1686 1684 1687
277 10 142 148 152
278 13 1600 1601 1604
279 13 1600 1601 1605
280 13 1600 1601 1606
281 7 1604 1601 1605
282 7 1604 1601 1606
283 7 1605 1601 1606
284 14 2599 2600 2601
285 10 85 91 95
286 11 1601 1600 1602
287 11 1601 1600 1603
288 12 1602 1600 1603
289 4 1217 1219 1225
290 5 1217 1219 1226
291 5 1217 1219 1227
292 6 1225 1219 1226
293 6 1225 1219 1227
294 7 1226 1219 1227
295 1 1218 1217 1219
296 2 1218 1217 1220
297 2 1218 1217 1221
298 2 1219 1217 1220
299 2 1219 1217 1221
300 3 1220 1217 1221
301 10 1225 1231 1235
302 11 1811 1810 1812
303 11 1811 1810 1813
304 12 1812 1810 1813
305 13 1810 1811 1814
306 13 1810 1811 1815
307 13 1810 1811 1816
308 7 1814 1811 1815
309 7 1814 1811 1816
310 7 1815 1811 1816
311 14 2101 2102 2103
312 8 1219 1225 1231
313 6 1219 1225 1232
314 6 1219 1225 1233
315 9 1231 1225 1232
316 9 1231 1225 1233
317 7 1232 1225 1233
318 14 2212 2213 2214
319 8 1218 1222 1228
320 6 1218 1222 1229
321 6 1218 1222 1230
322 9 1228 1222 1229
323 9 1228 1222 1230
324 7 1229 1222 1230
325 14 2707 2708 2709
326 4 1217 1218 1222
327 5 1217 1218 1223
328 5 1217 1218 1224
329 6 1222 1218 1223
330 6 1222 1218 1224
331 7 1223 1218 1224
332 10 1203 1209 1215
333 13 1677 1678 1681
334 13 1677 1678 1682
335 13 1677 1678 1683
336 7 1681 1678 1682
337 7 1681 1678 1683
338 7 1682 1678 1683
339 8 287 291 297
340 6 287 291 298
341 6 287 291 299
342 9 297 291 298
343 9 297 291 299
344 7 298 291 299
345 8 782 788 794
346 6 782 788 795
347 6 782 788 796
348 9 794 788 795
349 9 794 788 796
350 7 795 788 796
351 4 780 781 785
352 5 780 781 786
353 5 780 781 787
354 6 785 781 786
355 6 785 781 787
356 7 786 781 787
357 10 560 566 570
358 1 781 780 782
359 2 781 780 783
360 2 781 780 784
361 2 782 780 783
362 2 782 780 784
363 3 783 780 784
364 10 788 794 798
365 8 781 785 791
366 6 781 785 792
367 6 781 785 793
368 9 791 785 792
369 9 791 785 793
370 7 792 785 793
371 8 554 560 566
372 6 554 560 567
373 6 554 560 568
374 9 566 560 567
375 9 566 560 568
376 7 567 560 568
377 11 1678 1677 1679
378 11 1678 1677 1680
379 12 1679 1677 1680
380 14 2647 2648 2649
381 14 1978 1979 1980
382 10 785 791 797
383 14 2611 2612 2613
384 14 2173 2174 2175
385 14 2719 2720 2721
386 8 230 234 240
387 6 230 234 241
388 6 230 234 242
389 9 240 234 241
390 9 240 234 242
391 7 241 234 242
392 13 1579 1580 1583
393 13 1579 1580 1584
394 13 1579 1580 1585
395 7 1583 1580 1584
396 7 1583 1580 1585
397 7 1584 1580 1585
398 11 1580 1579 1581
399 11 1580 1579 1582
400 12 1581 1579 1582
401 10 1149 1155 1159
402 8 667 671 677
403 6 667 671 678
404 6 667 671 679
405 9 677 671 678
406 9 677 671 679
407 7 678 671 679
408 14 1963 1964 1965
409 14 2494 2495 2496
410 14 2377 2378 2379
411 14 2287 2288 2289
412 8 1143 1149 1155
413 6 1143 1149 1156
414 6 1143 1149 1157
415 9 1155 1149 1156
416 9 1155 1149 1157
417 7 1156 1149 1157
418 14 2404 2405 2406
419 13 1593 1594 1597
420 13 1593 1594 1598
421 13 1593 1594 1599
422 7 1597 1594 1598
423 7 1597 1594 1599
424 7 1598 1594 1599
425 4 666 667 671
426 5 666 667 672
427 5 666 667 673
428 6 671 667 672
429 6 671 667 673
430 7 672 667 673
431 11 1594 1593 1595
432 11 1594 1593 1596
433 12 1595 1593 1596
434 14 2365 2366 2367
435 8 686 690 696
436 6 686 690 697
437 6 686 690 698
438 9 696 690 697
439 9 696 690 698
440 7 697 690 698
441 8 668 674 680
442 6 668 674 681
443 6 668 674 682
444 9 680 674 681
445 9 680 674 682
446 7 681 674 682
447 14 2353 2354 2355
448 10 522 528 532
449 1 667 666 668
450 2 667 666 669
451 2 667 666 670
452 2 668 666 669
453 2 668 666 670
454 3 669 666 670
455 4 666 668 674
456 5 666 668 675
457 5 666 668 676
458 6 674 668 675
459 6 674 668 676
460 7 675 668 676
461 10 1241 1247 1253
462 8 1237 1241 1247
463 6 1237 1241 1248
464 6 1237 1241 1249
465 9 1247 1241 1248
466 9 1247 1241 1249
467 7 1248 1241 1249
468 14 2401 2402 2403
469 14 2677 2678 2679
470 14 2251 2252 2253
471 11 1559 1558 1560
472 11 1559 1558 1561
473 12 1560 1558 1561
474 4 1236 1237 1241
475 5 1236 1237 1242
476 5 1236 1237 1243
477 6 1241 1237 1242
478 6 1241 1237 1243
479 7 1242 1237 1243
480 10 674 680 684
481 10 690 696 702
482 10 1187 1193 1197
483 10 329 335 341
484 4 153 155 161
485 5 153 155 162
486 5 153 155 163
487 6 161 155 162
488 6 161 155 163
489 7 162 155 163
490 8 1200 1206 1212
491 6 1200 1206 1213
492 6 1200 1206 1214
493 9 1212 1206 1213
494 9 1212 1206 1214
495 7 1213 1206 1214
496 14 2266 2267 2268
497 8 1199 1203 1209
498 6 1199 1203 1210
499 6 1199 1203 1211
500 9 1209 1203 1210
501 9 1209 1203 1211
502 7 1210 1203 1211
503 11 1552 1551 1553
504 11 1552 1551 1554
505 12 1553 1551 1554
506 13 1551 1552 1555
507 13 1551 1552 1556
508 13 1551 1552 1557
509 7 1555 1552 1556
510 7 1555 1552 1557
511 7 1556 1552 1557
512 1 1199 1198 1200
513 2 1199 1198 1201
514 2 1199 1198 1202
515 2 1200 1198 1201
516 2 1200 1198 1202
517 3 1201 1198 1202
518 14 2059 2060 2061
519 13 1558 1559 1562
520 13 1558 1559 1563
521 13 1558 1559 1564
522 7 1562 1559 1563
523 7 1562 1559 1564
524 7 1563 1559 1564
525 8 535 541 547
526 6 535 541 548
527 6 535 541 549
528 9 547 541 548
529 9 547 541 549
530 7 548 541 549
531 10 541 547 551
532 4 533 535 541
533 5 533 535 542
534 5 533 535 543
535 6 541 535 542
536 6 541 535 543
537 7 542 535 543
538 1 534 533 535
539 2 534 533 536
540 2 534 533 537
541 2 535 533 536
542 2 535 533 537
543 3 536 533 537
544 4 533 534 538
545 5 533 534 539
546 5 533 534 540
547 6 538 534 539
548 6 538 534 540
549 7 539 534 540
550 14 2350 2351 2352
551 10 1206 1212 1216
552 14 2473 2474 2475
553 8 534 538 544
554 6 534 538 545
555 6 534 538 546
556 9 544 538 545
557 9 544 538 546
558 7 545 538 546
559 8 41 47 53
560 6 41 47 54
561 6 41 47 55
562 9 53 47 54
563 9 53 47 55
564 7 54 47 55
565 11 1503 1502 1504
566 11 1503 1502 1505
567 12 1504 1502 1505
568 13 1502 1503 1506
569 13 1502 1503 1507
570 13 1502 1503 1508
571 7 1506 1503 1507
572 7 1506 1503 1508
573 7 1507 1503 1508
574 14 2263 2264 2265
575 14 2239 2240 2241
576 4 39 41 47
577 5 39 41 48
578 5 39 41 49
579 6 47 41 48
580 6 47 41 49
581 7 48 41 49
582 14 2299 2300 2301
583 1 40 39 41
584 2 40 39 42
585 2 40 39 43
586 2 41 39 42
587 2 41 39 43
588 3 42 39 43
589 10 44 50 56
590 4 39 40 44
591 5 39 40 45
592 5 39 40 46
593 6 44 40 45
594 6 44 40 46
595 7 45 40 46
596 8 40 44 50
597 6 40 44 51
598 6 40 44 52
599 9 50 44 51
600 9 50 44 52
601 7 51 44 52
602 10 180 186 190
603 10 47 53 57
604 4 799 800 804
605 5 799 800 805
606 5 799 800 806
607 6 804 800 805
608 6 804 800 806
609 7 805 800 806
610 4 799 801 807
611 5 799 801 808
612 5 799 801 809
613 6 807 801 808
614 6 807 801 809
615 7 808 801 809
616 14 2572 2573 2574
617 14 2617 2618 2619
618 14 1906 1907 1908
619 4 1141 1143 1149
620 5 1141 1143 1150
621 5 1141 1143 1151
622 6 1149 1143 1150
623 6 1149 1143 1151
624 7 1150 1143 1151
625 1 1142 1141 1143
626 2 1142 1141 1144
627 2 1142 1141 1145
628 2 1143 1141 1144
629 2 1143 1141 1145
630 3 1144 1141 1145
631 4 1141 1142 1146
632 5 1141 1142 1147
633 5 1141 1142 1148
634 6 1146 1142 1147
635 6 1146 1142 1148
636 7 1147 1142 1148
637 14 2434 2435 2436
638 14 2356 2357 2358
639 14 2398 2399 2400
640 14 2002 2003 2004
641 11 1573 1572 1574
642 11 1573 1572 1575
643 12 1574 1572 1575
644 8 79 85 91
645 6 79 85 92
646 6 79 85 93
647 9 91 85 92
648 9 91 85 93
649 7 92 85 93
650 10 918 924 930
651 1 1237 1236 1238
652 2 1237 1236 1239
653 2 1237 1236 1240
654 2 1238 1236 1239
655 2 1238 1236 1240
656 3 1239 1236 1240
657 14 1876 1877 1878
658 14 2254 2255 2256
659 4 1236 1238 1244
660 5 1236 1238 1245
661 5 1236 1238 1246
662 6 1244 1238 1245
663 6 1244 1238 1246
664 7 1245 1238 1246
665 10 1244 1250 1254
666 13 1376 1377 1380
667 13 1376 1377 1381
668 13 1376 1377 1382
669 7 1380 1377 1381
670 7 1380 1377 1382
671 7 1381 1377 1382
672 8 1238 1244 1250
673 6 1238 1244 1251
674 6 1238 1244 1252
675 9 1250 1244 1251
676 9 1250 1244 1252
677 7 1251 1244 1252
678 11 1377 1376 1378
679 11 1377 1376 1379
680 12 1378 1376 1379
681 14 2086 2087 2088
682 14 2110 2111 2112
683 14 2452 2453 2454
684 14 2338 2339 2340
685 14 2533 2534 2535
686 10 538 544 550
687 14 2005 2006 2007
688 14 2323 2324 2325
689 11 1524 1523 1525
690 11 1524 1523 1526
691 12 1525 1523 1526
692 14 1972 1973 1974
693 11 1566 1565 1567
694 11 1566 1565 1568
695 12 1567 1565 1568
696 13 1565 1566 1569
697 13 1565 1566 1570
698 13 1565 1566 1571
699 7 1569 1566 1570
700 7 1569 1566 1571
701 7 1570 1566 1571
702 14 2506 2507 2508
703 14 2215 2216 2217
704 1 1275 1274 1276
705 2 1275 1274 1277
706 2 1275 1274 1278
707 2 1276 1274 1277
708 2 1276 1274 1278
709 3 1277 1274 1278
710 10 1282 1288 1292
711 4 1274 1275 1279
712 5 1274 1275 1280
713 5 1274 1275 1281
714 6 1279 1275 1280
715 6 1279 1275 1281
716 7 1280 1275 1281
717 14 1918 1919 1920
718 8 1275 1279 1285
719 6 1275 1279 1286
720 6 1275 1279 1287
721 9 1285 1279 1286
722 9 1285 1279 1287
723 7 1286 1279 1287
724 13 1418 1419 1422
725 13 1418 1419 1423
726 13 1418 1419 1424
727 7 1422 1419 1423
728 7 1422 1419 1424
729 7 1423 1419 1424
730 4 894 895 899
731 5 894 895 900
732 5 894 895 901
733 6 899 895 900
734 6 899 895 901
735 7 900 895 901
736 8 1142 1146 1152
737 6 1142 1146 1153
738 6 1142 1146 1154
739 9 1152 1146 1153
740 9 1152 1146 1154
741 7 1153 1146 1154
742 4 1274 1276 1282
743 5 1274 1276 1283
744 5 1274 1276 1284
745 6 1282 1276 1283
746 6 1282 1276 1284
747 7 1283 1276 1284
748 8 1276 1282 1288
749 6 1276 1282 1289
750 6 1276 1282 1290
751 9 1288 1282 1289
752 9 1288 1282 1290
753 7 1289 1282 1290
754 8 895 899 905
755 6 895 899 906
756 6 895 899 907
757 9 905 899 906
758 9 905 899 907
759 7 906 899 907
760 10 1146 1152 1158
761 10 899 905 911
762 13 1607 1608 1611
763 13 1607 1608 1612
764 13 1607 1608 1613
765 7 1611 1608 1612
766 7 1611 1608 1613
767 7 1612 1608 1613
768 10 1279 1285 1291
769 14 2539 2540 2541
770 14 1900 1901 1902
771 11 1496 1495 1497
772 11 1496 1495 1498
773 12 1497 1495 1498
774 13 1495 1496 1499
775 13 1495 1496 1500
776 13 1495 1496 1501
777 7 1499 1496 1500
778 7 1499 1496 1501
779 7 1500 1496 1501
780 14 2218 2219 2220
781 14 2698 2699 2700
782 14 2062 2063 2064
783 8 1314 1320 1326
784 6 1314 1320 1327
785 6 1314 1320 1328
786 9 1326 1320 1327
787 9 1326 1320 1328
788 7 1327 1320 1328
789 13 1747 1748 1751
790 13 1747 1748 1752
791 13 1747 1748 1753
792 7 1751 1748 1752
793 7 1751 1748 1753
794 7 1752 1748 1753
795 14 2536 2537 2538
796 4 1312 1314 1320
797 5 1312 1314 1321
798 5 1312 1314 1322
799 6 1320 1314 1321
800 6 1320 1314 1322
801 7 1321 1314 1322
802 11 1510 1509 1511
803 11 1510 1509 1512
804 12 1511 1509 1512
805 4 590 591 595
806 5 590 591 596
807 5 590 591 597
808 6 595 591 596
809 6 595 591 597
810 7 596 591 597
811 10 598 604 608
812 1 591 590 592
813 2 591 590 593
814 2 591 590 594
815 2 592 590 593
816 2 592 590 594
817 3 593 590 594
818 10 1320 1326 1330
819 8 591 595 601
820 6 591 595 602
821 6 591 595 603
822 9 601 595 602
823 9 601 595 603
824 7 602 595 603
825 13 1383 1384 1387
826 13 1383 1384 1388
827 13 1383 1384 1389
828 7 1387 1384 1388
829 7 1387 1384 1389
830 7 1388 1384 1389
831 8 1256 1260 1266
832 6 1256 1260 1267
833 6 1256 1260 1268
834 9 1266 1260 1267
835 9 1266 1260 1268
836 7 1267 1260 1268
837 4 1255 1256 1260
838 5 1255 1256 1261
839 5 1255 1256 1262
840 6 1260 1256 1261
841 6 1260 1256 1262
842 7 1261 1256 1262
843 10 1260 1266 1272
844 1 1256 1255 1257
845 2 1256 1255 1258
846 2 1256 1255 1259
847 2 1257 1255 1258
848 2 1257 1255 1259
849 3 1258 1255 1259
850 11 1384 1383 1385
851 11 1384 1383 1386
852 12 1385 1383 1386
853 4 1255 1257 1263
854 5 1255 1257 1264
855 5 1255 1257 1265
856 6 1263 1257 1264
857 6 1263 1257 1265
858 7 1264 1257 1265
859 14 1966 1967 1968
860 8 1257 1263 1269
861 6 1257 1263 1270
862 6 1257 1263 1271
863 9 1269 1263 1270
864 9 1269 1263 1271
865 7 1270 1263 1271
866 1 1313 1312 1314
867 2 1313 1312 1315
868 2 1313 1312 1316
869 2 1314 1312 1315
870 2 1314 1312 1316
871 3 1315 1312 1316
872 14 2545 2546 2547
873 13 1509 1510 1513
874 13 1509 1510 1514
875 13 1509 1510 1515
876 7 1513 1510 1514
877 7 1513 1510 1515
878 7 1514 1510 1515
879 10 1263 1269 1273
880 14 2260 2261 2262
881 14 2044 2045 2046
882 14 2134 2135 2136
883 14 1939 1940 1941
884 14 2380 2381 2382
885 8 725 731 737
886 6 725 731 738
887 6 725 731 739
888 9 737 731 738
889 9 737 731 739
890 7 738 731 739
891 10 731 737 741
892 4 723 725 731
893 5 723 725 732
894 5 723 725 733
895 6 731 725 732
896 6 731 725 733
897 7 732 725 733
898 1 724 723 725
899 2 724 723 726
900 2 724 723 727
901 2 725 723 726
902 2 725 723 727
903 3 726 723 727
904 4 723 724 728
905 5 723 724 729
906 5 723 724 730
907 6 728 724 729
908 6 728 724 730
909 7 729 724 730
910 11 1482 1481 1483
911 11 1482 1481 1484
912 12 1483 1481 1484
913 14 2293 2294 2295
914 11 1657 1656 1658
915 11 1657 1656 1659
916 12 1658 1656 1659
917 13 1481 1482 1485
918 13 1481 1482 1486
919 13 1481 1482 1487
920 7 1485 1482 1486
921 7 1485 1482 1487
922 7 1486 1482 1487
923 14 2194 2195 2196
924 10 728 734 740
925 10 557 563 569
926 8 724 728 734
927 6 724 728 735
928 6 724 728 736
929 9 734 728 735
930 9 734 728 736
931 7 735 728 736
932 8 553 557 563
933 6 553 557 564
934 6 553 557 565
935 9 563 557 564
936 9 563 557 565
937 7 564 557 565
938 14 2557 2558 2559
939 13 1656 1657 1660
940 13 1656 1657 1661
941 13 1656 1657 1662
942 7 1660 1657 1661
943 7 1660 1657 1662
944 7 1661 1657 1662
945 13 1467 1468 1471
946 13 1467 1468 1472
947 13 1467 1468 1473
948 7 1471 1468 1472
949 7 1471 1468 1473
950 7 1472 1468 1473
951 4 552 553 557
952 5 552 553 558
953 5 552 553 559
954 6 557 553 558
955 6 557 553 559
956 7 558 553 559
957 8 933 937 943
958 6 933 937 944
959 6 933 937 945
960 9 943 937 944
961 9 943 937 945
962 7 944 937 945
963 4 172 173 177
964 5 172 173 178
965 5 172 173 179
966 6 177 173 178
967 6 177 173 179
968 7 178 173 179
969 11 1748 1747 1749
970 11 1748 1747 1750
971 12 1749 1747 1750
972 10 937 943 949
973 14 2515 2516 2517
974 4 191 193 199
975 5 191 193 200
976 5 191 193 201
977 6 199 193 200
978 6 199 193 201
979 7 200 193 201
980 1 192 191 193
981 2 192 191 194
982 2 192 191 195
983 2 193 191 194
984 2 193 191 195
985 3 194 191 195
986 4 191 192 196
987 5 191 192 197
988 5 191 192 198
989 6 196 192 197
990 6 196 192 198
991 7 197 192 198
992 14 2446 2447 2448
993 8 192 196 202
994 6 192 196 203
995 6 192 196 204
996 9 202 196 203
997 9 202 196 204
998 7 203 196 204
999 10 196 202 208
1000 8 193 199 205
1001 6 193 199 206
1002 6 193 199 207
1003 9 205 199 206
1004 9 205 199 207
1005 7 206 199 207
1006 14 2104 2105 2106
1007 8 1295 1301 1307
1008 6 1295 1301 1308
1009 6 1295 1301 1309
1010 9 1307 1301 1308
1011 9 1307 1301 1309
1012 7 1308 1301 1309
1013 14 2614 2615 2616
1014 14 2524 2525 2526
1015 14 2236 2237 2238
1016 4 1293 1295 1301
1017 5 1293 1295 1302
1018 5 1293 1295 1303
1019 6 1301 1295 1302
1020 6 1301 1295 1303
1021 7 1302 1295 1303
1022 13 1684 1685 1688
1023 13 1684 1685 1689
1024 13 1684 1685 1690
1025 7 1688 1685 1689
1026 7 1688 1685 1690
1027 7 1689 1685 1690
1028 14 2320 2321 2322
1029 4 1312 1313 1317
1030 5 1312 1313 1318
1031 5 1312 1313 1319
1032 6 1317 1313 1318
1033 6 1317 1313 1319
1034 7 1318 1313 1319
1035 8 1313 1317 1323
1036 6 1313 1317 1324
1037 6 1313 1317 1325
1038 9 1323 1317 1324
1039 9 1323 1317 1325
1040 7 1324 1317 1325
1041 14 2164 2165 2166
1042 10 1317 1323 1329
1043 14 2224 2225 2226
1044 14 2641 2642 2643
1045 13 1635 1636 1639
1046 13 1635 1636 1640
1047 13 1635 1636 1641
1048 7 1639 1636 1640
1049 7 1639 1636 1641
1050 7 1640 1636 1641
1051 11 1636 1635 1637
1052 11 1636 1635 1638
1053 12 1637 1635 1638
1054 14 2542 2543 2544
1055 14 2008 2009 2010
1056 14 2407 2408 2409
1057 8 819 823 829
1058 6 819 823 830
1059 6 819 823 831
1060 9 829 823 830
1061 9 829 823 831
1062 7 830 823 831
1063 4 1027 1029 1035
1064 5 1027 1029 1036
1065 5 1027 1029 1037
1066 6 1035 1029 1036
1067 6 1035 1029 1037
1068 7 1036 1029 1037
1069 4 1027 1028 1032
1070 5 1027 1028 1033
1071 5 1027 1028 1034
1072 6 1032 1028 1033
1073 6 1032 1028 1034
1074 7 1033 1028 1034
1075 4 1046 1048 1054
1076 5 1046 1048 1055
1077 5 1046 1048 1056
1078 6 1054 1048 1055
1079 6 1054 1048 1056
1080 7 1055 1048 1056
1081 8 1048 1054 1060
1082 6 1048 1054 1061
1083 6 1048 1054 1062
1084 9 1060 1054 1061
1085 9 1060 1054 1062
1086 7 1061 1054 1062
1087 1 1047 1046 1048
1088 2 1047 1046 1049
1089 2 1047 1046 1050
1090 2 1048 1046 1049
1091 2 1048 1046 1050
1092 3 1049 1046 1050
1093 10 1054 1060 1064
1094 8 1029 1035 1041
1095 6 1029 1035 1042
1096 6 1029 1035 1043
1097 9 1041 1035 1042
1098 9 1041 1035 1043
1099 7 1042 1035 1043
1100 13 1796 1797 1800
1101 13 1796 1797 1801
1102 13 1796 1797 1802
1103 7 1800 1797 1801
1104 7 1800 1797 1802
1105 7 1801 1797 1802
1106 11 1797 1796 1798
1107 11 1797 1796 1799
1108 12 1798 1796 1799
1109 10 1035 1041 1045
1110 4 1046 1047 1051
1111 5 1046 1047 1052
1112 5 1046 1047 1053
1113 6 1051 1047 1052
1114 6 1051 1047 1053
1115 7 1052 1047 1053
1116 10 1051 1057 1063
1117 8 1047 1051 1057
1118 6 1047 1051 1058
1119 6 1047 1051 1059
1120 9 1057 1051 1058
1121 9 1057 1051 1059
1122 7 1058 1051 1059
1123 1 1028 1027 1029
1124 2 1028 1027 1030
1125 2 1028 1027 1031
1126 2 1029 1027 1030
1127 2 1029 1027 1031
1128 3 1030 1027 1031
1129 10 1222 1228 1234
1130 8 78 82 88
1131 6 78 82 89
1132 6 78 82 90
1133 9 88 82 89
1134 9 88 82 90
1135 7 89 82 90
1136 10 82 88 94
1137 4 77 78 82
1138 5 77 78 83
1139 5 77 78 84
1140 6 82 78 83
1141 6 82 78 84
1142 7 83 78 84
1143 14 2077 2078 2079
1144 14 1879 1880 1881
1145 4 552 554 560
1146 5 552 554 561
1147 5 552 554 562
1148 6 560 554 561
1149 6 560 554 562
1150 7 561 554 562
1151 1 553 552 554
1152 2 553 552 555
1153 2 553 552 556
1154 2 554 552 555
1155 2 554 552 556
1156 3 555 552 556
1157 14 2056 2057 2058
1158 4 989 991 997
1159 5 989 991 998
1160 5 989 991 999
1161 6 997 991 998
1162 6 997 991 999
1163 7 998 991 999
1164 8 991 997 1003
1165 6 991 997 1004
1166 6 991 997 1005
1167 9 1003 997 1004
1168 9 1003 997 1005
1169 7 1004 997 1005
1170 13 1369 1370 1373
1171 13 1369 1370 1374
1172 13 1369 1370 1375
1173 7 1373 1370 1374
1174 7 1373 1370 1375
1175 7 1374 1370 1375
1176 10 997 1003 1007
1177 14 2098 2099 2100
1178 11 1370 1369 1371
1179 11 1370 1369 1372
1180 12 1371 1369 1372
1181 14 2464 2465 2466
1182 14 2359 2360 2361
1183 14 2413 2414 2415
1184 14 2128 2129 2130
1185 10 671 677 683
1186 14 2662 2663 2664
1187 14 2665 2666 2667
1188 10 1301 1307 1311
1189 14 2482 2483 2484
1190 4 856 857 861
1191 5 856 857 862
1192 5 856 857 863
1193 6 861 857 862
1194 6 861 857 863
1195 7 862 857 863
1196 10 370 376 380
1197 8 364 370 376
1198 6 364 370 377
1199 6 364 370 378
1200 9 376 370 377
1201 9 376 370 378
1202 7 377 370 378
1203 10 367 373 379
1204 8 363 367 373
1205 6 363 367 374
1206 6 363 367 375
1207 9 373 367 374
1208 9 373 367 375
1209 7 374 367 375
1210 4 362 363 367
1211 5 362 363 368
1212 5 362 363 369
1213 6 367 363 368
1214 6 367 363 369
1215 7 368 363 369
1216 4 362 364 370
1217 5 362 364 371
1218 5 362 364 372
1219 6 370 364 371
1220 6 370 364 372
1221 7 371 364 372
1222 1 363 362 364
1223 2 363 362 365
1224 2 363 362 366
1225 2 364 362 365
1226 2 364 362 366
1227 3 365 362 366
1228 14 2311 2312 2313
1229 14 2680 2681 2682
1230 11 1664 1663 1665
1231 11 1664 1663 1666
1232 12 1665 1663 1666
1233 10 807 813 817
1234 14 2527 2528 2529
1235 8 516 522 528
1236 6 516 522 529
1237 6 516 522 530
1238 9 528 522 529
1239 9 528 522 530
1240 7 529 522 530
1241 8 857 861 867
1242 6 857 861 868
1243 6 857 861 869
1244 9 867 861 868
1245 9 867 861 869
1246 7 868 861 869
1247 14 2158 2159 2160
1248 11 1867 1866 1868
1249 11 1867 1866 1869
1250 12 1868 1866 1869
1251 14 2278 2279 2280
1252 4 514 516 522
1253 5 514 516 523
1254 5 514 516 524
1255 6 522 516 523
1256 6 522 516 524
1257 7 523 516 524
1258 13 1866 1867 1870
1259 13 1866 1867 1871
1260 13 1866 1867 1872
1261 7 1870 1867 1871
1262 7 1870 1867 1872
1263 7 1871 1867 1872
1264 13 1663 1664 1667
1265 13 1663 1664 1668
1266 13 1663 1664 1669
1267 7 1667 1664 1668
1268 7 1667 1664 1669
1269 7 1668 1664 1669
1270 13 1733 1734 1737
1271 13 1733 1734 1738
1272 13 1733 1734 1739
1273 7 1737 1734 1738
1274 7 1737 1734 1739
1275 7 1738 1734 1739
1276 10 123 129 133
1277 8 117 123 129
1278 6 117 123 130
1279 6 117 123 131
1280 9 129 123 130
1281 9 129 123 131
1282 7 130 123 131
1283 11 1734 1733 1735
1284 11 1734 1733 1736
1285 12 1735 1733 1736
1286 1 515 514 516
1287 2 515 514 517
1288 2 515 514 518
1289 2 516 514 517
1290 2 516 514 518
1291 3 517 514 518
1292 10 443 449 455
1293 10 766 772 778
1294 8 1028 1032 1038
1295 6 1028 1032 1039
1296 6 1028 1032 1040
1297 9 1038 1032 1039
1298 9 1038 1032 1040
1299 7 1039 1032 1040
1300 14 2170 2171 2172
1301 4 514 515 519
1302 5 514 515 520
1303 5 514 515 521
1304 6 519 515 520
1305 6 519 515 521
1306 7 520 515 521
1307 8 763 769 775
1308 6 763 769 776
1309 6 763 769 777
1310 9 775 769 776
1311 9 775 769 777
1312 7 776 769 777
1313 10 769 775 779
1314 10 1032 1038 1044
1315 8 515 519 525
1316 6 515 519 526
1317 6 515 519 527
1318 9 525 519 526
1319 9 525 519 527
1320 7 526 519 527
1321 10 519 525 531
1322 4 761 763 769
1323 5 761 763 770
1324 5 761 763 771
1325 6 769 763 770
1326 6 769 763 771
1327 7 770 763 771
1328 1 762 761 763
1329 2 762 761 764
1330 2 762 761 765
1331 2 763 761 764
1332 2 763 761 765
1333 3 764 761 765
1334 13 1754 1755 1758
1335 13 1754 1755 1759
1336 13 1754 1755 1760
1337 7 1758 1755 1759
1338 7 1758 1755 1760
1339 7 1759 1755 1760
1340 11 1755 1754 1756
1341 11 1755 1754 1757
1342 12 1756 1754 1757
1343 1 78 77 79
1344 2 78 77 80
1345 2 78 77 81
1346 2 79 77 80
1347 2 79 77 81
1348 3 80 77 81
1349 8 801 807 813
1350 6 801 807 814
1351 6 801 807 815
1352 9 813 807 814
1353 9 813 807 815
1354 7 814 807 815
1355 8 800 804 810
1356 6 800 804 811
1357 6 800 804 812
1358 9 810 804 811
1359 9 810 804 812
1360 7 811 804 812
1361 14 2443 2444 2445
1362 4 77 79 85
1363 5 77 79 86
1364 5 77 79 87
1365 6 85 79 86
1366 6 85 79 87
1367 7 86 79 87
1368 1 800 799 801
1369 2 800 799 802
1370 2 800 799 803
1371 2 801 799 802
1372 2 801 799 803
1373 3 802 799 803
1374 10 804 810 816
1375 4 1065 1067 1073
1376 5 1065 1067 1074
1377 5 1065 1067 1075
1378 6 1073 1067 1074
1379 6 1073 1067 1075
1380 7 1074 1067 1075
1381 11 1650 1649 1651
1382 11 1650 1649 1652
1383 12 1651 1649 1652
1384 8 1067 1073 1079
1385 6 1067 1073 1080
1386 6 1067 1073 1081
1387 9 1079 1073 1080
1388 9 1079 1073 1081
1389 7 1080 1073 1081
1390 10 1073 1079 1083
1391 13 1649 1650 1653
1392 13 1649 1650 1654
1393 13 1649 1650 1655
1394 7 1653 1650 1654
1395 7 1653 1650 1655
1396 7 1654 1650 1655
1397 14 2143 2144 2145
1398 14 1999 2000 2001
1399 14 2629 2630 2631
1400 1 1066 1065 1067
1401 2 1066 1065 1068
1402 2 1066 1065 1069
1403 2 1067 1065 1068
1404 2 1067 1065 1069
1405 3 1068 1065 1069
1406 14 2347 2348 2349
1407 8 914 918 924
1408 6 914 918 925
1409 6 914 918 926
1410 9 924 918 925
1411 9 924 918 926
1412 7 925 918 926
1413 13 1572 1573 1576
1414 13 1572 1573 1577
1415 13 1572 1573 1578
1416 7 1576 1573 1577
1417 7 1576 1573 1578
1418 7 1577 1573 1578
1419 14 2371 2372 2373
1420 14 2302 2303 2304
1421 14 2368 2369 2370
1422 11 1615 1614 1616
1423 11 1615 1614 1617
1424 12 1616 1614 1617
1425 13 1614 1615 1618
1426 13 1614 1615 1619
1427 13 1614 1615 1620
1428 7 1618 1615 1619
1429 7 1618 1615 1620
1430 7 1619 1615 1620
1431 4 1008 1009 1013
1432 5 1008 1009 1014
1433 5 1008 1009 1015
1434 6 1013 1009 1014
1435 6 1013 1009 1015
1436 7 1014 1009 1015
1437 8 1009 1013 1019
1438 6 1009 1013 1020
1439 6 1009 1013 1021
1440 9 1019 1013 1020
1441 9 1019 1013 1021
1442 7 1020 1013 1021
1443 10 291 297 303
1444 10 1013 1019 1025
1445 14 2692 2693 2694
1446 10 595 601 607
1447 14 2623 2624 2625
1448 14 2089 2090 2091
1449 4 115 116 120
1450 5 115 116 121
1451 5 115 116 122
1452 6 120 116 121
1453 6 120 116 122
1454 7 121 116 122
1455 1 1009 1008 1010
1456 2 1009 1008 1011
1457 2 1009 1008 1012
1458 2 1010 1008 1011
1459 2 1010 1008 1012
1460 3 1011 1008 1012
1461 4 115 117 123
1462 5 115 117 124
1463 5 115 117 125
1464 6 123 117 124
1465 6 123 117 125
1466 7 124 117 125
1467 8 1010 1016 1022
1468 6 1010 1016 1023
1469 6 1010 1016 1024
1470 9 1022 1016 1023
1471 9 1022 1016 1024
1472 7 1023 1016 1024
1473 10 6 12 18
1474 8 2 6 12
1475 6 2 6 13
1476 6 2 6 14
1477 9 12 6 13
1478 9 12 6 14
1479 7 13 6 14
1480 4 1008 1010 1016
1481 5 1008 1010 1017
1482 5 1008 1010 1018
1483 6 1016 1010 1017
1484 6 1016 1010 1018
1485 7 1017 1010 1018
1486 10 1016 1022 1026
1487 11 1832 1831 1833
1488 11 1832 1831 1834
1489 12 1833 1831 1834
1490 13 1831 1832 1835
1491 13 1831 1832 1836
1492 13 1831 1832 1837
1493 7 1835 1832 1836
1494 7 1835 1832 1837
1495 7 1836 1832 1837
1496 14 2548 2549 2550
1497 14 2596 2597 2598
1498 1 116 115 117
1499 2 116 115 118
1500 2 116 115 119
1501 2 117 115 118
1502 2 117 115 119
1503 3 118 115 119
1504 4 1 2 6
1505 5 1 2 7
1506 5 1 2 8
1507 6 6 2 7
1508 6 6 2 8
1509 7 7 2 8
1510 14 2566 2567 2568
1511 4 761 762 766
1512 5 761 762 767
1513 5 761 762 768
1514 6 766 762 767
1515 6 766 762 768
1516 7 767 762 768
1517 10 956 962 968
1518 14 2284 2285 2286
1519 10 959 965 969
1520 14 2731 2732 2733
1521 4 1 3 9
1522 5 1 3 10
1523 5 1 3 11
1524 6 9 3 10
1525 6 9 3 11
1526 7 10 3 11
1527 14 1981 1982 1983
1528 14 1936 1937 1938
1529 1 2 1 3
1530 2 2 1 4
1531 2 2 1 5
1532 2 3 1 4
1533 2 3 1 5
1534 3 4 1 5
1535 8 3 9 15
1536 6 3 9 16
1537 6 3 9 17
1538 9 15 9 16
1539 9 15 9 17
1540 7 16 9 17
1541 11 1419 1418 1420
1542 11 1419 1418 1421
1543 12 1420 1418 1421
1544 8 952 956 962
1545 6 952 956 963
1546 6 952 956 964
1547 9 962 956 963
1548 9 962 956 964
1549 7 963 956 964
1550 1 952 951 953
1551 2 952 951 954
1552 2 952 951 955
1553 2 953 951 954
1554 2 953 951 955
1555 3 954 951 955
1556 4 951 952 956
1557 5 951 952 957
1558 5 951 952 958
1559 6 956 952 957
1560 6 956 952 958
1561 7 957 952 958
1562 4 951 953 959
1563 5 951 953 960
1564 5 951 953 961
1565 6 959 953 960
1566 6 959 953 961
1567 7 960 953 961
1568 10 9 15 19
1569 8 953 959 965
1570 6 953 959 966
1571 6 953 959 967
1572 9 965 959 966
1573 9 965 959 967
1574 7 966 959 967
1575 14 2725 2726 2727
1576 4 286 288 294
1577 5 286 288 295
1578 5 286 288 296
1579 6 294 288 295
1580 6 294 288 296
1581 7 295 288 296
1582 13 1670 1671 1674
1583 13 1670 1671 1675
1584 13 1670 1671 1676
1585 7 1674 1671 1675
1586 7 1674 1671 1676
1587 7 1675 1671 1676
1588 1 287 286 288
1589 2 287 286 289
1590 2 287 286 290
1591 2 288 286 289
1592 2 288 286 290
1593 3 289 286 290
1594 8 288 294 300
1595 6 288 294 301
1596 6 288 294 302
1597 9 300 294 301
1598 9 300 294 302
1599 7 301 294 302
1600 4 286 287 291
1601 5 286 287 292
1602 5 286 287 293
1603 6 291 287 292
1604 6 291 287 293
1605 7 292 287 293
1606 11 1671 1670 1672
1607 11 1671 1670 1673
1608 12 1672 1670 1673
1609 10 294 300 304
1610 10 861 867 873
1611 8 116 120 126
1612 6 116 120 127
1613 6 116 120 128
1614 9 126 120 127
1615 9 126 120 128
1616 7 127 120 128
1617 4 1198 1200 1206
1618 5 1198 1200 1207
1619 5 1198 1200 1208
1620 6 1206 1200 1207
1621 6 1206 1200 1208
1622 7 1207 1200 1208
1623 14 2461 2462 2463
1624 1 990 989 991
1625 2 990 989 992
1626 2 990 989 993
1627 2 991 989 992
1628 2 991 989 993
1629 3 992 989 993
1630 14 2092 2093 2094
1631 13 1852 1853 1856
1632 13 1852 1853 1857
1633 13 1852 1853 1858
1634 7 1856 1853 1857
1635 7 1856 1853 1858
1636 7 1857 1853 1858
1637 11 1853 1852 1854
1638 11 1853 1852 1855
1639 12 1854 1852 1855
1640 4 742 743 747
1641 5 742 743 748
1642 5 742 743 749
1643 6 747 743 748
1644 6 747 743 749
1645 7 748 743 749
1646 8 743 747 753
1647 6 743 747 754
1648 6 743 747 755
1649 9 753 747 754
1650 9 753 747 755
1651 7 754 747 755
1652 14 2560 2561 2562
1653 14 2656 2657 2658
1654 14 2389 2390 2391
1655 8 345 351 357
1656 6 345 351 358
1657 6 345 351 359
1658 9 357 351 358
1659 9 357 351 359
1660 7 358 351 359
1661 14 2326 2327 2328
1662 14 2497 2498 2499
1663 13 1824 1825 1828
1664 13 1824 1825 1829
1665 13 1824 1825 1830
1666 7 1828 1825 1829
1667 7 1828 1825 1830
1668 7 1829 1825 1830
1669 11 1825 1824 1826
1670 11 1825 1824 1827
1671 12 1826 1824 1827
1672 14 1930 1931 1932
1673 10 351 357 361
1674 10 712 718 722
1675 14 2041 2042 2043
1676 4 343 345 351
1677 5 343 345 352
1678 5 343 345 353
1679 6 351 345 352
1680 6 351 345 353
1681 7 352 345 353
1682 10 709 715 721
1683 14 2332 2333 2334
1684 8 705 709 715
1685 6 705 709 716
1686 6 705 709 717
1687 9 715 709 716
1688 9 715 709 717
1689 7 716 709 717
1690 14 2590 2591 2592
1691 14 2650 2651 2652
1692 14 2701 2702 2703
1693 4 324 325 329
1694 5 324 325 330
1695 5 324 325 331
1696 6 329 325 330
1697 6 329 325 331
1698 7 330 325 331
1699 4 704 705 709
1700 5 704 705 710
1701 5 704 705 711
1702 6 709 705 710
1703 6 709 705 711
1704 7 710 705 711
1705 14 2485 2486 2487
1706 1 705 704 706
1707 2 705 704 707
1708 2 705 704 708
1709 2 706 704 707
1710 2 706 704 708
1711 3 707 704 708
1712 11 1391 1390 1392
1713 11 1391 1390 1393
1714 12 1392 1390 1393
1715 8 325 329 335
1716 6 325 329 336
1717 6 325 329 337
1718 9 335 329 336
1719 9 335 329 337
1720 7 336 329 337
1721 14 1927 1928 1929
1722 14 2563 2564 2565
1723 14 2488 2489 2490
1724 14 1984 1985 1986
1725 14 2713 2714 2715
1726 10 446 452 456
1727 14 2191 2192 2193
1728 14 2671 2672 2673
1729 8 629 633 639
1730 6 629 633 640
1731 6 629 633 641
1732 9 639 633 640
1733 9 639 633 641
1734 7 640 633 641
1735 14 2026 2027 2028
1736 14 2200 2201 2202
1737 10 313 319 323
1738 8 307 313 319
1739 6 307 313 320
1740 6 307 313 321
1741 9 319 313 320
1742 9 319 313 321
1743 7 320 313 321
1744 4 305 307 313
1745 5 305 307 314
1746 5 305 307 315
1747 6 313 307 314
1748 6 313 307 315
1749 7 314 307 315
1750 1 306 305 307
1751 2 306 305 308
1752 2 306 305 309
1753 2 307 305 308
1754 2 307 305 309
1755 3 308 305 309
1756 10 747 753 759
1757 4 305 306 310
1758 5 305 306 311
1759 5 305 306 312
1760 6 310 306 311
1761 6 310 306 312
1762 7 311 306 312
1763 10 310 316 322
1764 13 1726 1727 1730
1765 13 1726 1727 1731
1766 13 1726 1727 1732
1767 7 1730 1727 1731
1768 7 1730 1727 1732
1769 7 1731 1727 1732
1770 8 306 310 316
1771 6 306 310 317
1772 6 306 310 318
1773 9 316 310 317
1774 9 316 310 318
1775 7 317 310 318
1776 14 1987 1988 1989
1777 11 1727 1726 1728
1778 11 1727 1726 1729
1779 12 1728 1726 1729
1780 14 2038 2039 2040
1781 11 1790 1789 1791
1782 11 1790 1789 1792
1783 12 1791 1789 1792
1784 14 2014 2015 2016
1785 8 496 500 506
1786 6 496 500 507
1787 6 496 500 508
1788 9 506 500 507
1789 9 506 500 508
1790 7 507 500 508
1791 14 2344 2345 2346
1792 4 1122 1123 1127
1793 5 1122 1123 1128
1794 5 1122 1123 1129
1795 6 1127 1123 1128
1796 6 1127 1123 1129
1797 7 1128 1123 1129
1798 8 1123 1127 1133
1799 6 1123 1127 1134
1800 6 1123 1127 1135
1801 9 1133 1127 1134
1802 9 1133 1127 1135
1803 7 1134 1127 1135
1804 10 1127 1133 1139
1805 1 1123 1122 1124
1806 2 1123 1122 1125
1807 2 1123 1122 1126
1808 2 1124 1122 1125
1809 2 1124 1122 1126
1810 3 1125 1122 1126
1811 4 1122 1124 1130
1812 5 1122 1124 1131
1813 5 1122 1124 1132
1814 6 1130 1124 1131
1815 6 1130 1124 1132
1816 7 1131 1124 1132
1817 10 256 262 266
1818 8 250 256 262
1819 6 250 256 263
1820 6 250 256 264
1821 9 262 256 263
1822 9 262 256 264
1823 7 263 256 264
1824 10 1130 1136 1140
1825 8 1124 1130 1136
1826 6 1124 1130 1137
1827 6 1124 1130 1138
1828 9 1136 1130 1137
1829 9 1136 1130 1138
1830 7 1137 1130 1138
1831 4 419 420 424
1832 5 419 420 425
1833 5 419 420 426
1834 6 424 420 425
1835 6 424 420 426
1836 7 425 420 426
1837 13 1404 1405 1408
1838 13 1404 1405 1409
1839 13 1404 1405 1410
1840 7 1408 1405 1409
1841 7 1408 1405 1410
1842 7 1409 1405 1410
1843 11 1839 1838 1840
1844 11 1839 1838 1841
1845 12 1840 1838 1841
1846 14 1912 1913 1914
1847 14 2221 2222 2223
1848 10 500 506 512
1849 14 2125 2126 2127
1850 11 1405 1404 1406
1851 11 1405 1404 1407
1852 12 1406 1404 1407
1853 1 325 324 326
1854 2 325 324 327
1855 2 325 324 328
1856 2 326 324 327
1857 2 326 324 328
1858 3 327 324 328
1859 14 2341 2342 2343
1860 14 2029 2030 2031
1861 10 332 338 342
1862 8 326 332 338
1863 6 326 332 339
1864 6 326 332 340
1865 9 338 332 339
1866 9 338 332 340
1867 7 339 332 340
1868 4 324 326 332
1869 5 324 326 333
1870 5 324 326 334
1871 6 332 326 333
1872 6 332 326 334
1873 7 333 326 334
1874 10 880 886 892
1875 14 2449 2450 2451
1876 14 2050 2051 2052
1877 13 1642 1643 1646
1878 13 1642 1643 1647
1879 13 1642 1643 1648
1880 7 1646 1643 1647
1881 7 1646 1643 1648
1882 7 1647 1643 1648
1883 8 1086 1092 1098
1884 6 1086 1092 1099
1885 6 1086 1092 1100
1886 9 1098 1092 1099
1887 9 1098 1092 1100
1888 7 1099 1092 1100
1889 13 1719 1720 1723
1890 13 1719 1720 1724
1891 13 1719 1720 1725
1892 7 1723 1720 1724
1893 7 1723 1720 1725
1894 7 1724 1720 1725
1895 10 1092 1098 1102
1896 13 1390 1391 1394
1897 13 1390 1391 1395
1898 13 1390 1391 1396
1899 7 1394 1391 1395
1900 7 1394 1391 1396
1901 7 1395 1391 1396
1902 8 990 994 1000
1903 6 990 994 1001
1904 6 990 994 1002
1905 9 1000 994 1001
1906 9 1000 994 1002
1907 7 1001 994 1002
1908 11 1643 1642 1644
1909 11 1643 1642 1645
1910 12 1644 1642 1645
1911 14 2551 2552 2553
1912 14 2575 2576 2577
1913 13 1859 1860 1863
1914 13 1859 1860 1864
1915 13 1859 1860 1865
1916 7 1863 1860 1864
1917 7 1863 1860 1865
1918 7 1864 1860 1865
1919 11 1860 1859 1861
1920 11 1860 1859 1862
1921 12 1861 1859 1862
1922 14 1969 1970 1971
1923 14 2107 2108 2109
1924 8 268 272 278
1925 6 268 272 279
1926 6 268 272 280
1927 9 278 272 279
1928 9 278 272 280
1929 7 279 272 280
1930 8 1332 1336 1342
1931 6 1332 1336 1343
1932 6 1332 1336 1344
1933 9 1342 1336 1343
1934 9 1342 1336 1344
1935 7 1343 1336 1344
1936 10 1336 1342 1348
1937 4 1331 1332 1336
1938 5 1331 1332 1337
1939 5 1331 1332 1338
1940 6 1336 1332 1337
1941 6 1336 1332 1338
1942 7 1337 1332 1338
1943 4 989 990 994
1944 5 989 990 995
1945 5 989 990 996
1946 6 994 990 995
1947 6 994 990 996
1948 7 995 990 996
1949 10 994 1000 1006
1950 4 267 268 272
1951 5 267 268 273
1952 5 267 268 274
1953 6 272 268 273
1954 6 272 268 274
1955 7 273 268 274
1956 4 628 629 633
1957 5 628 629 634
1958 5 628 629 635
1959 6 633 629 634
1960 6 633 629 635
1961 7 634 629 635
1962 1 629 628 630
1963 2 629 628 631
1964 2 629 628 632
1965 2 630 628 631
1966 2 630 628 632
1967 3 631 628 632
1968 4 913 914 918
1969 5 913 914 919
1970 5 913 914 920
1971 6 918 914 919
1972 6 918 914 920
1973 7 919 914 920
1974 8 971 975 981
1975 6 971 975 982
1976 6 971 975 983
1977 9 981 975 982
1978 9 981 975 983
1979 7 982 975 983
1980 10 975 981 987
1981 10 864 870 874
1982 8 858 864 870
1983 6 858 864 871
1984 6 858 864 872
1985 9 870 864 871
1986 9 870 864 872
1987 7 871 864 872
1988 4 970 971 975
1989 5 970 971 976
1990 5 970 971 977
1991 6 975 971 976
1992 6 975 971 977
1993 7 976 971 977
1994 1 971 970 972
1995 2 971 970 973
1996 2 971 970 974
1997 2 972 970 973
1998 2 972 970 974
1999 3 973 970 974
2000 14 2314 2315 2316
2001 10 978 984 988
2002 8 972 978 984
2003 6 972 978 985
2004 6 972 978 986
2005 9 984 978 985
2006 9 984 978 986
2007 7 985 978 986
2008 4 970 972 978
2009 5 970 972 979
2010 5 970 972 980
2011 6 978 972 979
2012 6 978 972 980
2013 7 979 972 980
2014 11 1706 1705 1707
2015 11 1706 1705 1708
2016 12 1707 1705 1708
2017 14 2020 2021 2022
2018 13 1789 1790 1793
2019 13 1789 1790 1794
2020 13 1789 1790 1795
2021 7 1793 1790 1794
2022 7 1793 1790 1795
2023 7 1794 1790 1795
2024 10 427 433 437
2025 14 2602 2603 2604
2026 4 495 496 500
2027 5 495 496 501
2028 5 495 496 502
2029 6 500 496 501
2030 6 500 496 502
2031 7 501 496 502
2032 8 420 424 430
2033 6 420 424 431
2034 6 420 424 432
2035 9 430 424 431
2036 9 430 424 432
2037 7 431 424 432
2038 1 420 419 421
2039 2 420 419 422
2040 2 420 419 423
2041 2 421 419 422
2042 2 421 419 423
2043 3 422 419 423
2044 14 1885 1886 1887
2045 14 2668 2669 2670
2046 10 503 509 513
2047 1 496 495 497
2048 2 496 495 498
2049 2 496 495 499
2050 2 497 495 498
2051 2 497 495 499
2052 3 498 495 499
2053 10 424 430 436
2054 8 497 503 509
2055 6 497 503 510
2056 6 497 503 511
2057 9 509 503 510
2058 9 509 503 511
2059 7 510 503 511
2060 4 495 497 503
2061 5 495 497 504
2062 5 495 497 505
2063 6 503 497 504
2064 6 503 497 505
2065 7 504 497 505
2066 14 2017 2018 2019
2067 14 2659 2660 2661
2068 10 389 395 399
2069 8 383 389 395
2070 6 383 389 396
2071 6 383 389 397
2072 9 395 389 396
2073 9 395 389 397
2074 7 396 389 397
2075 14 2716 2717 2718
2076 8 174 180 186
2077 6 174 180 187
2078 6 174 180 188
2079 9 186 180 187
2080 9 186 180 188
2081 7 187 180 188
2082 10 614 620 626
2083 14 2230 2231 2232
2084 13 1453 1454 1457
2085 13 1453 1454 1458
2086 13 1453 1454 1459
2087 7 1457 1454 1458
2088 7 1457 1454 1459
2089 7 1458 1454 1459
2090 13 1516 1517 1520
2091 13 1516 1517 1521
2092 13 1516 1517 1522
2093 7 1520 1517 1521
2094 7 1520 1517 1522
2095 7 1521 1517 1522
2096 11 1454 1453 1455
2097 11 1454 1453 1456
2098 12 1455 1453 1456
2099 14 2182 2183 2184
2100 14 2113 2114 2115
2101 4 267 269 275
2102 5 267 269 276
2103 5 267 269 277
2104 6 275 269 276
2105 6 275 269 277
2106 7 276 269 277
2107 11 1720 1719 1721
2108 11 1720 1719 1722
2109 12 1721 1719 1722
2110 14 2569 2570 2571
2111 11 1517 1516 1518
2112 11 1517 1516 1519
2113 12 1518 1516 1519
2114 4 210 212 218
2115 5 210 212 219
2116 5 210 212 220
2117 6 218 212 219
2118 6 218 212 220
2119 7 219 212 220
2120 1 211 210 212
2121 2 211 210 213
2122 2 211 210 214
2123 2 212 210 213
2124 2 212 210 214
2125 3 213 210 214
2126 4 210 211 215
2127 5 210 211 216
2128 5 210 211 217
2129 6 215 211 216
2130 6 215 211 217
2131 7 216 211 217
2132 8 211 215 221
2133 6 211 215 222
2134 6 211 215 223
2135 9 221 215 222
2136 9 221 215 223
2137 7 222 215 223
2138 10 215 221 227
2139 8 762 766 772
2140 6 762 766 773
2141 6 762 766 774
2142 9 772 766 773
2143 9 772 766 774
2144 7 773 766 774
2145 1 857 856 858
2146 2 857 856 859
2147 2 857 856 860
2148 2 858 856 859
2149 2 858 856 860
2150 3 859 856 860
2151 11 1783 1782 1784
2152 11 1783 1782 1785
2153 12 1784 1782 1785
2154 10 272 278 284
2155 11 1818 1817 1819
2156 11 1818 1817 1820
2157 12 1819 1817 1820
2158 4 1065 1066 1070
2159 5 1065 1066 1071
2160 5 1065 1066 1072
2161 6 1070 1066 1071
2162 6 1070 1066 1072
2163 7 1071 1066 1072
2164 14 2410 2411 2412
2165 14 2035 2036 2037
2166 1 1332 1331 1333
2167 2 1332 1331 1334
2168 2 1332 1331 1335
2169 2 1333 1331 1334
2170 2 1333 1331 1335
2171 3 1334 1331 1335
2172 4 1331 1333 1339
2173 5 1331 1333 1340
2174 5 1331 1333 1341
2175 6 1339 1333 1340
2176 6 1339 1333 1341
2177 7 1340 1333 1341
2178 14 2386 2387 2388
2179 14 2392 2393 2394
2180 8 1333 1339 1345
2181 6 1333 1339 1346
2182 6 1333 1339 1347
2183 9 1345 1339 1346
2184 9 1345 1339 1347
2185 7 1346 1339 1347
2186 10 1339 1345 1349
2187 8 1066 1070 1076
2188 6 1066 1070 1077
2189 6 1066 1070 1078
2190 9 1076 1070 1077
2191 9 1076 1070 1078
2192 7 1077 1070 1078
2193 10 1070 1076 1082
2194 13 1817 1818 1821
2195 13 1817 1818 1822
2196 13 1817 1818 1823
2197 7 1821 1818 1822
2198 7 1821 1818 1823
2199 7 1822 1818 1823
2200 13 1782 1783 1786
2201 13 1782 1783 1787
2202 13 1782 1783 1788
2203 7 1786 1783 1787
2204 7 1786 1783 1788
2205 7 1787 1783 1788
2206 1 268 267 269
2207 2 268 267 270
2208 2 268 267 271
2209 2 269 267 270
2210 2 269 267 271
2211 3 270 267 271
2212 14 2419 2420 2421
2213 13 1705 1706 1709
2214 13 1705 1706 1710
2215 13 1705 1706 1711
2216 7 1709 1706 1710
2217 7 1709 1706 1711
2218 7 1710 1706 1711
2219 1 914 913 915
2220 2 914 913 916
2221 2 914 913 917
2222 2 915 913 916
2223 2 915 913 917
2224 3 916 913 917
2225 10 921 927 931
2226 4 913 915 921
2227 5 913 915 922
2228 5 913 915 923
2229 6 921 915 922
2230 6 921 915 923
2231 7 922 915 923
2232 8 915 921 927
2233 6 915 921 928
2234 6 915 921 929
2235 9 927 921 928
2236 9 927 921 929
2237 7 928 921 929
2238 10 1108 1114 1120
2239 13 1712 1713 1716
2240 13 1712 1713 1717
2241 13 1712 1713 1718
2242 7 1716 1713 1717
2243 7 1716 1713 1718
2244 7 1717 1713 1718
2245 11 1776 1775 1777
2246 11 1776 1775 1778
2247 12 1777 1775 1778
2248 13 1544 1545 1548
2249 13 1544 1545 1549
2250 13 1544 1545 1550
2251 7 1548 1545 1549
2252 7 1548 1545 1550
2253 7 1549 1545 1550
2254 14 2422 2423 2424
2255 8 478 484 490
2256 6 478 484 491
2257 6 478 484 492
2258 9 490 484 491
2259 9 490 484 492
2260 7 491 484 492
2261 8 21 25 31
2262 6 21 25 32
2263 6 21 25 33
2264 9 31 25 32
2265 9 31 25 33
2266 7 32 25 33
2267 14 1903 1904 1905
2268 10 120 126 132
2269 4 476 478 484
2270 5 476 478 485
2271 5 476 478 486
2272 6 484 478 485
2273 6 484 478 486
2274 7 485 478 486
2275 10 484 490 494
2276 1 477 476 478
2277 2 477 476 479
2278 2 477 476 480
2279 2 478 476 479
2280 2 478 476 480
2281 3 479 476 480
2282 14 2080 2081 2082
2283 4 476 477 481
2284 5 476 477 482
2285 5 476 477 483
2286 6 481 477 482
2287 6 481 477 483
2288 7 482 477 483
2289 8 477 481 487
2290 6 477 481 488
2291 6 477 481 489
2292 9 487 481 488
2293 9 487 481 489
2294 7 488 481 489
2295 10 481 487 493
2296 14 2632 2633 2634
2297 13 1411 1412 1415
2298 13 1411 1412 1416
2299 13 1411 1412 1417
2300 7 1415 1412 1416
2301 7 1415 1412 1417
2302 7 1416 1412 1417
2303 11 1412 1411 1413
2304 11 1412 1411 1414
2305 12 1413 1411 1414
2306 8 706 712 718
2307 6 706 712 719
2308 6 706 712 720
2309 9 718 712 719
2310 9 718 712 720
2311 7 719 712 720
2312 8 212 218 224
2313 6 212 218 225
2314 6 212 218 226
2315 9 224 218 225
2316 9 224 218 226
2317 7 225 218 226
2318 14 2530 2531 2532
2319 4 704 706 712
2320 5 704 706 713
2321 5 704 706 714
2322 6 712 706 713
2323 6 712 706 714
2324 7 713 706 714
2325 10 218 224 228
2326 14 2587 2588 2589
2327 14 2620 2621 2622
2328 11 1587 1586 1588
2329 11 1587 1586 1589
2330 12 1588 1586 1589
2331 8 440 446 452
2332 6 440 446 453
2333 6 440 446 454
2334 9 452 446 453
2335 9 452 446 454
2336 7 453 446 454
2337 14 2734 2735 2736
2338 14 2032 2033 2034
2339 10 655 661 665
2340 8 649 655 661
2341 6 649 655 662
2342 6 649 655 663
2343 9 661 655 662
2344 9 661 655 663
2345 7 662 655 663
2346 1 648 647 649
2347 2 648 647 650
2348 2 648 647 651
2349 2 649 647 650
2350 2 649 647 651
2351 3 650 647 651
2352 4 647 649 655
2353 5 647 649 656
2354 5 647 649 657
2355 6 655 649 656
2356 6 655 649 657
2357 7 656 649 657
2358 4 438 440 446
2359 5 438 440 447
2360 5 438 440 448
2361 6 446 440 447
2362 6 446 440 448
2363 7 447 440 448
2364 4 647 648 652
2365 5 647 648 653
2366 5 647 648 654
2367 6 652 648 653
2368 6 652 648 654
2369 7 653 648 654
2370 8 1104 1108 1114
2371 6 1104 1108 1115
2372 6 1104 1108 1116
2373 9 1114 1108 1115
2374 9 1114 1108 1116
2375 7 1115 1108 1116
2376 14 2317 2318 2319
2377 4 1103 1104 1108
2378 5 1103 1104 1109
2379 5 1103 1104 1110
2380 6 1108 1104 1109
2381 6 1108 1104 1110
2382 7 1109 1104 1110
2383 14 2149 2150 2151
2384 1 439 438 440
2385 2 439 438 441
2386 2 439 438 442
2387 2 440 438 441
2388 2 440 438 442
2389 3 441 438 442
2390 8 648 652 658
2391 6 648 652 659
2392 6 648 652 660
2393 9 658 652 659
2394 9 658 652 660
2395 7 659 652 660
2396 13 1768 1769 1772
2397 13 1768 1769 1773
2398 13 1768 1769 1774
2399 7 1772 1769 1773
2400 7 1772 1769 1774
2401 7 1773 1769 1774
2402 14 2068 2069 2070
2403 10 652 658 664
2404 4 438 439 443
2405 5 438 439 444
2406 5 438 439 445
2407 6 443 439 444
2408 6 443 439 445
2409 7 444 439 445
2410 14 2653 2654 2655
2411 11 1769 1768 1770
2412 11 1769 1768 1771
2413 12 1770 1768 1771
2414 14 2188 2189 2190
2415 8 439 443 449
2416 6 439 443 450
2417 6 439 443 451
2418 9 449 443 450
2419 9 449 443 451
2420 7 450 443 451
2421 1 1104 1103 1105
2422 2 1104 1103 1106
2423 2 1104 1103 1107
2424 2 1105 1103 1106
2425 2 1105 1103 1107
2426 3 1106 1103 1107
2427 10 1111 1117 1121
2428 10 750 756 760
2429 4 742 744 750
2430 5 742 744 751
2431 5 742 744 752
2432 6 750 744 751
2433 6 750 744 752
2434 7 751 744 752
2435 8 744 750 756
2436 6 744 750 757
2437 6 744 750 758
2438 9 756 750 757
2439 9 756 750 758
2440 7 757 750 758
2441 14 1894 1895 1896
2442 1 743 742 744
2443 2 743 742 745
2444 2 743 742 746
2445 2 744 742 745
2446 2 744 742 746
2447 3 745 742 746
2448 8 838 842 848
2449 6 838 842 849
2450 6 838 842 850
2451 9 848 842 849
2452 9 848 842 850
2453 7 849 842 850
2454 13 1838 1839 1842
2455 13 1838 1839 1843
2456 13 1838 1839 1844
2457 7 1842 1839 1843
2458 7 1842 1839 1844
2459 7 1843 1839 1844
2460 4 837 838 842
2461 5 837 838 843
2462 5 837 838 844
2463 6 842 838 843
2464 6 842 838 844
2465 7 843 838 844
2466 10 842 848 854
2467 8 154 158 164
2468 6 154 158 165
2469 6 154 158 166
2470 9 164 158 165
2471 9 164 158 166
2472 7 165 158 166
2473 10 1355 1361 1367
2474 13 1530 1531 1534
2475 13 1530 1531 1535
2476 13 1530 1531 1536
2477 7 1534 1531 1535
2478 7 1534 1531 1536
2479 7 1535 1531 1536
2480 11 1531 1530 1532
2481 11 1531 1530 1533
2482 12 1532 1530 1533
2483 1 344 343 345
2484 2 344 343 346
2485 2 344 343 347
2486 2 345 343 346
2487 2 345 343 347
2488 3 346 343 347
2489 1 1351 1350 1352
2490 2 1351 1350 1353
2491 2 1351 1350 1354
2492 2 1352 1350 1353
2493 2 1352 1350 1354
2494 3 1353 1350 1354
2495 14 2245 2246 2247
2496 10 158 164 170
2497 8 1351 1355 1361
2498 6 1351 1355 1362
2499 6 1351 1355 1363
2500 9 1361 1355 1362
2501 9 1361 1355 1363
2502 7 1362 1355 1363
2503 4 1350 1351 1355
2504 5 1350 1351 1356
2505 5 1350 1351 1357
2506 6 1355 1351 1356
2507 6 1355 1351 1357
2508 7 1356 1351 1357
2509 10 1358 1364 1368
2510 4 1350 1352 1358
2511 5 1350 1352 1359
2512 5 1350 1352 1360
2513 6 1358 1352 1359
2514 6 1358 1352 1360
2515 7 1359 1352 1360
2516 4 685 686 690
2517 5 685 686 691
2518 5 685 686 692
2519 6 690 686 691
2520 6 690 686 692
2521 7 691 686 692
2522 4 343 344 348
2523 5 343 344 349
2524 5 343 344 350
2525 6 348 344 349
2526 6 348 344 350
2527 7 349 344 350
2528 8 344 348 354
2529 6 344 348 355
2530 6 344 348 356
2531 9 354 348 355
2532 9 354 348 356
2533 7 355 348 356
2534 8 1352 1358 1364
2535 6 1352 1358 1365
2536 6 1352 1358 1366
2537 9 1364 1358 1365
2538 9 1364 1358 1366
2539 7 1365 1358 1366
2540 10 348 354 360
2541 14 2137 2138 2139
2542 14 2074 2075 2076
2543 11 1475 1474 1476
2544 11 1475 1474 1477
2545 12 1476 1474 1477
2546 13 1474 1475 1478
2547 13 1474 1475 1479
2548 13 1474 1475 1480
2549 7 1478 1475 1479
2550 7 1478 1475 1480
2551 7 1479 1475 1480
2552 13 1460 1461 1464
2553 13 1460 1461 1465
2554 13 1460 1461 1466
2555 7 1464 1461 1465
2556 7 1464 1461 1466
2557 7 1465 1461 1466
2558 11 1461 1460 1462
2559 11 1461 1460 1463
2560 12 1462 1460 1463
2561 8 458 462 468
2562 6 458 462 469
2563 6 458 462 470
2564 9 468 462 469
2565 9 468 462 470
2566 7 469 462 470
2567 10 462 468 474
2568 14 2053 2054 2055
2569 14 2605 2606 2607
2570 4 1103 1105 1111
2571 5 1103 1105 1112
2572 5 1103 1105 1113
2573 6 1111 1105 1112
2574 6 1111 1105 1113
2575 7 1112 1105 1113
2576 8 1105 1111 1117
2577 6 1105 1111 1118
2578 6 1105 1111 1119
2579 9 1117 1111 1118
2580 9 1117 1111 1119
2581 7 1118 1111 1119
2582 4 457 458 462
2583 5 457 458 463
2584 5 457 458 464
2585 6 462 458 463
2586 6 462 458 464
2587 7 463 458 464
2588 14 2710 2711 2712
2589 1 458 457 459
2590 2 458 457 460
2591 2 458 457 461
2592 2 459 457 460
2593 2 459 457 461
2594 3 460 457 461
2595 8 459 465 471
2596 6 459 465 472
2597 6 459 465 473
2598 9 471 465 472
2599 9 471 465 473
2600 7 472 465 473
2601 4 457 459 465
2602 5 457 459 466
2603 5 457 459 467
2604 6 465 459 466
2605 6 465 459 467
2606 7 466 459 467
2607 10 465 471 475
2608 14 2518 2519 2520
2609 14 2578 2579 2580
2610 14 2722 2723 2724
2611 14 2131 2132 2133
2612 14 2176 2177 2178
2613 13 1803 1804 1807
2614 13 1803 1804 1808
2615 13 1803 1804 1809
2616 7 1807 1804 1808
2617 7 1807 1804 1809
2618 7 1808 1804 1809
2619 1 838 837 839
2620 2 838 837 840
2621 2 838 837 841
2622 2 839 837 840
2623 2 839 837 841
2624 3 840 837 841
2625 4 153 154 158
2626 5 153 154 159
2627 5 153 154 160
2628 6 158 154 159
2629 6 158 154 160
2630 7 159 154 160
2631 13 1432 1433 1436
2632 13 1432 1433 1437
2633 13 1432 1433 1438
2634 7 1436 1433 1437
2635 7 1436 1433 1438
2636 7 1437 1433 1438
2637 11 1433 1432 1434
2638 11 1433 1432 1435
2639 12 1434 1432 1435
2640 14 2689 2690 2691
2641 14 1921 1922 1923
2642 14 2122 2123 2124
2643 8 573 579 585
2644 6 573 579 586
2645 6 573 579 587
2646 9 585 579 586
2647 9 585 579 587
2648 7 586 579 587
2649 4 571 573 579
2650 5 571 573 580
2651 5 571 573 581
2652 6 579 573 580
2653 6 579 573 581
2654 7 580 573 581
2655 10 579 585 589
2656 1 572 571 573
2657 2 572 571 574
2658 2 572 571 575
2659 2 573 571 574
2660 2 573 571 575
2661 3 574 571 575
2662 4 571 572 576
2663 5 571 572 577
2664 5 571 572 578
2665 6 576 572 577
2666 6 576 572 578
2667 7 577 572 578
2668 10 576 582 588
2669 8 572 576 582
2670 6 572 576 583
2671 6 572 576 584
2672 9 582 576 583
2673 9 582 576 584
2674 7 583 576 584
2675 14 2395 2396 2397
2676 14 2683 2684 2685
2677 14 1975 1976 1977
2678 4 856 858 864
2679 5 856 858 865
2680 5 856 858 866
2681 6 864 858 865
2682 6 864 858 866
2683 7 865 858 866
2684 14 1909 1910 1911
2685 4 248 250 256
2686 5 248 250 257
2687 5 248 250 258
2688 6 256 250 257
2689 6 256 250 258
2690 7 257 250 258
2691 10 253 259 265
2692 8 249 253 259
2693 6 249 253 260
2694 6 249 253 261
2695 9 259 253 260
2696 9 259 253 261
2697 7 260 253 261
2698 14 1960 1961 1962
2699 14 1942 1943 1944
2700 1 249 248 250
2701 2 249 248 251
2702 2 249 248 252
2703 2 250 248 251
2704 2 250 248 252
2705 3 251 248 252
2706 4 248 249 253
2707 5 248 249 254
2708 5 248 249 255
2709 6 253 249 254
2710 6 253 249 255
2711 7 254 249 255
2712 10 826 832 836
2713 11 1426 1425 1427
2714 11 1426 1425 1428
2715 12 1427 1425 1428
2716 13 1425 1426 1429
2717 13 1425 1426 1430
2718 13 1425 1426 1431
2719 7 1429 1426 1430
2720 7 1429 1426 1431
2721 7 1430 1426 1431
2722 8 820 826 832
2723 6 820 826 833
2724 6 820 826 834
2725 9 832 826 833
2726 9 832 826 834
2727 7 833 826 834
2728 14 2065 2066 2067
2729 13 1775 1776 1779
2730 13 1775 1776 1780
2731 13 1775 1776 1781
2732 7 1779 1776 1780
2733 7 1779 1776 1781
2734 7 1780 1776 1781
2735 11 1468 1467 1469
2736 11 1468 1467 1470
2737 12 1469 1467 1470
2738 8 876 880 886
2739 6 876 880 887
2740 6 876 880 888
2741 9 886 880 887
2742 9 886 880 888
2743 7 887 880 888
2744 13 1439 1440 1443
2745 13 1439 1440 1444
2746 13 1439 1440 1445
2747 7 1443 1440 1444
2748 7 1443 1440 1445
2749 7 1444 1440 1445
2750 14 1945 1946 1947
2751 4 818 820 826
2752 5 818 820 827
2753 5 818 820 828
2754 6 826 820 827
2755 6 826 820 828
2756 7 827 820 828
2757 1 819 818 820
2758 2 819 818 821
2759 2 819 818 822
2760 2 820 818 821
2761 2 820 818 822
2762 3 821 818 822
2763 14 2440 2441 2442
2764 4 875 876 880
2765 5 875 876 881
2766 5 875 876 882
2767 6 880 876 881
2768 6 880 876 882
2769 7 881 876 882
2770 1 876 875 877
2771 2 876 875 878
2772 2 876 875 879
2773 2 877 875 878
2774 2 877 875 879
2775 3 878 875 879
2776 4 875 877 883
2777 5 875 877 884
2778 5 875 877 885
2779 6 883 877 884
2780 6 883 877 885
2781 7 884 877 885
2782 14 2209 2210 2211
2783 10 177 183 189
2784 8 877 883 889
2785 6 877 883 890
2786 6 877 883 891
2787 9 889 883 890
2788 9 889 883 891
2789 7 890 883 891
2790 10 883 889 893
2791 4 1084 1086 1092
2792 5 1084 1086 1093
2793 5 1084 1086 1094
2794 6 1092 1086 1093
2795 6 1092 1086 1094
2796 7 1093 1086 1094
2797 11 1440 1439 1441
2798 11 1440 1439 1442
2799 12 1441 1439 1442
2800 10 633 639 645
2801 14 2593 2594 2595
2802 1 173 172 174
2803 2 173 172 175
2804 2 173 172 176
2805 2 174 172 175
2806 2 174 172 176
2807 3 175 172 176
2808 14 2023 2024 2025
2809 13 1397 1398 1401
2810 13 1397 1398 1402
2811 13 1397 1398 1403
2812 7 1401 1398 1402
2813 7 1401 1398 1403
2814 7 1402 1398 1403
2815 11 1398 1397 1399
2816 11 1398 1397 1400
2817 12 1399 1397 1400
2818 14 2416 2417 2418
2819 4 628 630 636
2820 5 628 630 637
2821 5 628 630 638
2822 6 636 630 637
2823 6 636 630 638
2824 7 637 630 638
2825 8 630 636 642
2826 6 630 636 643
2827 6 630 636 644
2828 9 642 636 643
2829 9 642 636 644
2830 7 643 636 644
2831 10 636 642 646
2832 14 2329 2330 2331
2833 14 2500 2501 2502
2834 11 1622 1621 1623
2835 11 1622 1621 1624
2836 12 1623 1621 1624
2837 13 1621 1622 1625
2838 13 1621 1622 1626
2839 13 1621 1622 1627
2840 7 1625 1622 1626
2841 7 1625 1622 1627
2842 7 1626 1622 1627
2843 8 421 427 433
2844 6 421 427 434
2845 6 421 427 435
2846 9 433 427 434
2847 9 433 427 435
2848 7 434 427 435
2849 13 1523 1524 1527
2850 13 1523 1524 1528
2851 13 1523 1524 1529
2852 7 1527 1524 1528
2853 7 1527 1524 1529
2854 7 1528 1524 1529
2855 14 2509 2510 2511
2856 10 1184 1190 1196
2857 13 1698 1699 1702
2858 13 1698 1699 1703
2859 13 1698 1699 1704
2860 7 1702 1699 1703
2861 7 1702 1699 1704
2862 7 1703 1699 1704
2863 8 382 386 392
2864 6 382 386 393
2865 6 382 386 394
2866 9 392 386 393
2867 9 392 386 394
2868 7 393 386 394
2869 10 386 392 398
2870 14 2467 2468 2469
2871 14 2248 2249 2250
2872 4 381 382 386
2873 5 381 382 387
2874 5 381 382 388
2875 6 386 382 387
2876 6 386 382 388
2877 7 387 382 388
2878 1 382 381 383
2879 2 382 381 384
2880 2 382 381 385
2881 2 383 381 384
2882 2 383 381 385
2883 3 384 381 385
2884 11 1699 1698 1700
2885 11 1699 1698 1701
2886 12 1700 1698 1701
2887 8 1180 1184 1190
2888 6 1180 1184 1191
2889 6 1180 1184 1192
2890 9 1190 1184 1191
2891 9 1190 1184 1192
2892 7 1191 1184 1192
2893 4 419 421 427
2894 5 419 421 428
2895 5 419 421 429
2896 6 427 421 428
2897 6 427 421 429
2898 7 428 421 429
2899 14 2512 2513 2514
2900 14 1891 1892 1893
2901 4 381 383 389
2902 5 381 383 390
2903 5 381 383 391
2904 6 389 383 390
2905 6 389 383 391
2906 7 390 383 391
2907 14 2581 2582 2583
2908 11 1447 1446 1448
2909 11 1447 1446 1449
2910 12 1448 1446 1449
2911 14 2554 2555 2556
2912 13 1446 1447 1450
2913 13 1446 1447 1451
2914 13 1446 1447 1452
2915 7 1450 1447 1451
2916 7 1450 1447 1452
2917 7 1451 1447 1452
2918 1 686 685 687
2919 2 686 685 688
2920 2 686 685 689
2921 2 687 685 688
2922 2 687 685 689
2923 3 688 685 689
2924 14 2296 2297 2298
2925 4 685 687 693
2926 5 685 687 694
2927 5 685 687 695
2928 6 693 687 694
2929 6 693 687 695
2930 7 694 687 695
2931 14 2458 2459 2460
2932 8 687 693 699
2933 6 687 693 700
2934 6 687 693 701
2935 9 699 693 700
2936 9 699 693 701
2937 7 700 693 701
2938 14 1915 1916 1917
2939 14 2290 2291 2292
2940 1 1085 1084 1086
2941 2 1085 1084 1087
2942 2 1085 1084 1088
2943 2 1086 1084 1087
2944 2 1086 1084 1088
2945 3 1087 1084 1088
2946 8 269 275 281
2947 6 269 275 282
2948 6 269 275 283
2949 9 281 275 282
2950 9 281 275 283
2951 7 282 275 283
2952 10 1089 1095 1101
2953 8 1085 1089 1095
2954 6 1085 1089 1096
2955 6 1085 1089 1097
2956 9 1095 1089 1096
2957 9 1095 1089 1097
2958 7 1096 1089 1097
2959 4 1084 1085 1089
2960 5 1084 1085 1090
2961 5 1084 1085 1091
2962 6 1089 1085 1090
2963 6 1089 1085 1091
2964 7 1090 1085 1091
2965 14 2470 2471 2472
2966 10 275 281 285
2967 10 693 699 703
2968 14 2257 2258 2259
2969 14 2362 2363 2364
2970 8 1162 1168 1174
2971 6 1162 1168 1175
2972 6 1162 1168 1176
2973 9 1174 1168 1175
2974 9 1174 1168 1176
2975 7 1175 1168 1176
2976 10 1168 1174 1178
2977 8 839 845 851
2978 6 839 845 852
2979 6 839 845 853
2980 9 851 845 852
2981 9 851 845 853
2982 7 852 845 853
2983 4 1160 1162 1168
2984 5 1160 1162 1169
2985 5 1160 1162 1170
2986 6 1168 1162 1169
2987 6 1168 1162 1170
2988 7 1169 1162 1170
2989 13 1761 1762 1765
2990 13 1761 1762 1766
2991 13 1761 1762 1767
2992 7 1765 1762 1766
2993 7 1765 1762 1767
2994 7 1766 1762 1767
2995 14 2503 2504 2505
2996 11 1762 1761 1763
2997 11 1762 1761 1764
2998 12 1763 1761 1764
2999 1 1161 1160 1162
3000 2 1161 1160 1163
3001 2 1161 1160 1164
3002 2 1162 1160 1163
3003 2 1162 1160 1164
3004 3 1163 1160 1164
3005 4 1160 1161 1165
3006 5 1160 1161 1166
3007 5 1160 1161 1167
3008 6 1165 1161 1166
3009 6 1165 1161 1167
3010 7 1166 1161 1167
3011 10 1165 1171 1177
3012 14 2728 2729 2730
3013 14 2608 2609 2610
3014 8 1161 1165 1171
3015 6 1161 1165 1172
3016 6 1161 1165 1173
3017 9 1171 1165 1172
3018 9 1171 1165 1173
3019 7 1172 1165 1173
3020 14 2704 2705 2706
3021 13 1628 1629 1632
3022 13 1628 1629 1633
3023 13 1628 1629 1634
3024 7 1632 1629 1633
3025 7 1632 1629 1634
3026 7 1633 1629 1634
3027 4 20 21 25
3028 5 20 21 26
3029 5 20 21 27
3030 6 25 21 26
3031 6 25 21 27
3032 7 26 21 27
3033 4 172 174 180
3034 5 172 174 181
3035 5 172 174 182
3036 6 180 174 181
3037 6 180 174 182
3038 7 181 174 182
3039 4 1179 1180 1184
3040 5 1179 1180 1185
3041 5 1179 1180 1186
3042 6 1184 1180 1185
3043 6 1184 1180 1186
3044 7 1185 1180 1186
3045 8 1181 1187 1193
3046 6 1181 1187 1194
3047 6 1181 1187 1195
3048 9 1193 1187 1194
3049 9 1193 1187 1195
3050 7 1194 1187 1195
3051 10 25 31 37
3052 1 1180 1179 1181
3053 2 1180 1179 1182
3054 2 1180 1179 1183
3055 2 1181 1179 1182
3056 2 1181 1179 1183
3057 3 1182 1179 1183
3058 11 1545 1544 1546
3059 11 1545 1544 1547
3060 12 1546 1544 1547
3061 14 1897 1898 1899
3062 14 2203 2204 2205
3063 4 1179 1181 1187
3064 5 1179 1181 1188
3065 5 1179 1181 1189
3066 6 1187 1181 1188
3067 6 1187 1181 1189
3068 7 1188 1181 1189
3069 14 2686 2687 2688
3070 10 28 34 38
3071 1 21 20 22
3072 2 21 20 23
3073 2 21 20 24
3074 2 22 20 23
3075 2 22 20 24
3076 3 23 20 24
3077 8 22 28 34
3078 6 22 28 35
3079 6 22 28 36
3080 9 34 28 35
3081 9 34 28 36
3082 7 35 28 36
3083 11 1489 1488 1490
3084 11 1489 1488 1491
3085 12 1490 1488 1491
3086 14 2374 2375 2376
3087 14 2308 2309 2310
3088 13 1488 1489 1492
3089 13 1488 1489 1493
3090 13 1488 1489 1494
3091 7 1492 1489 1493
3092 7 1492 1489 1494
3093 7 1493 1489 1494
3094 11 1713 1712 1714
3095 11 1713 1712 1715
3096 12 1714 1712 1715
3097 14 1933 1934 1935
3098 1 154 153 155
3099 2 154 153 156
3100 2 154 153 157
3101 2 155 153 156
3102 2 155 153 157
3103 3 156 153 157
3104 14 1882 1883 1884
3105 4 20 22 28
3106 5 20 22 29
3107 5 20 22 30
3108 6 28 22 29
3109 6 28 22 30
3110 7 29 22 30
3111 14 2179 2180 2181
3112 14 2425 2426 2427
3113 10 161 167 171
3114 4 400 402 408
3115 5 400 402 409
3116 5 400 402 410
3117 6 408 402 409
3118 6 408 402 410
3119 7 409 402 410
3120 8 155 161 167
3121 6 155 161 168
3122 6 155 161 169
3123 9 167 161 168
3124 9 167 161 169
3125 7 168 161 169
3126 8 401 405 411
3127 6 401 405 412
3128 6 401 405 413
3129 9 411 405 412
3130 9 411 405 413
3131 7 412 405 413
3132 10 408 414 418
3133 4 400 401 405
3134 5 400 401 406
3135 5 400 401 407
3136 6 405 401 406
3137 6 405 401 407
3138 7 406 401 407
3139 1 401 400 402
3140 2 401 400 403
3141 2 401 400 404
3142 2 402 400 403
3143 2 402 400 404
3144 3 403 400 404
3145 10 405 411 417
3146 8 402 408 414
3147 6 402 408 415
3148 6 402 408 416
3149 9 414 408 415
3150 9 414 408 416
3151 7 415 408 416
3152 14 2428 2429 2430
3153 13 1586 1587 1590
3154 13 1586 1587 1591
3155 13 1586 1587 1592
3156 7 1590 1587 1591
3157 7 1590 1587 1592
3158 7 1591 1587 1592
3159 14 2437 2438 2439
3160 11 1741 1740 1742
3161 11 1741 1740 1743
3162 12 1742 1740 1743
3163 13 1740 1741 1744
3164 13 1740 1741 1745
3165 13 1740 1741 1746
3166 7 1744 1741 1745
3167 7 1744 1741 1746
3168 7 1745 1741 1746
3169 10 66 72 76
3170 8 60 66 72
3171 6 60 66 73
3172 6 60 66 74
3173 9 72 66 73
3174 9 72 66 74
3175 7 73 66 74
3176 8 59 63 69
3177 6 59 63 70
3178 6 59 63 71
3179 9 69 63 70
3180 9 69 63 71
3181 7 70 63 71
3182 4 58 59 63
3183 5 58 59 64
3184 5 58 59 65
3185 6 63 59 64
3186 6 63 59 65
3187 7 64 59 65
3188 14 2116 2117 2118
3189 10 63 69 75
3190 1 59 58 60
3191 2 59 58 61
3192 2 59 58 62
3193 2 60 58 61
3194 2 60 58 62
3195 3 61 58 62
3196 14 2275 2276 2277
3197 4 58 60 66
3198 5 58 60 67
3199 5 58 60 68
3200 6 66 60 67
3201 6 66 60 68
3202 7 67 60 68
3203 14 2185 2186 2187
3204 11 1804 1803 1805
3205 11 1804 1803 1806
3206 12 1805 1803 1806
3207 4 837 839 845
3208 5 837 839 846
3209 5 837 839 847
3210 6 845 839 846
3211 6 845 839 847
3212 7 846 839 847
3213 14 2695 2696 2697
3214 14 2383 2384 2385
3215 14 1957 1958 1959
3216 14 1990 1991 1992
3217 14 1951 1952 1953
3218 14 2140 2141 2142
3219 11 1608 1607 1609
3220 11 1608 1607 1610
3221 12 1609 1607 1610
3222 10 845 851 855
3223 4 818 819 823
3224 5 818 819 824
3225 5 818 819 825
3226 6 823 819 824
3227 6 823 819 825
3228 7 824 819 825
3229 8 173 177 183
3230 6 173 177 184
3231 6 173 177 185
3232 9 183 177 184
3233 9 183 177 185
3234 7 184 177 185
3235 14 2083 2084 2085
3236 14 1993 1994 1995
3237 14 2155 2156 2157
3238 10 199 205 209
3239 14 2476 2477 2478
3240 14 2119 2120 2121

Dihedrals

1 11 1695 1692 1691 1693
2 11 1695 1692 1691 1694
3 11 1696 1692 1691 1693
4 11 1696 1692 1691 1694
5 11 1697 1692 1691 1693
6 11 1697 1692 1691 1694
7 9 113 107 101 97
8 10 113 107 101 108
9 10 113 107 101 109
10 1 1203 1199 1198 1200
11 2 1203 1199 1198 1201
12 2 1203 1199 1198 1202
13 3 1204 1199 1198 1200
14 4 1204 1199 1198 1201
15 4 1204 1199 1198 1202
16 3 1205 1199 1198 1200
17 4 1205 1199 1198 1201
18 4 1205 1199 1198 1202
19 5 107 101 97 96
20 6 107 101 97 102
21 6 107 101 97 103
22 7 108 101 97 96
23 8 108 101 97 102
24 8 108 101 97 103
25 7 109 101 97 96
26 8 109 101 97 102
27 8 109 101 97 103
28 9 114 110 104 98
29 10 114 110 104 111
30 10 114 110 104 112
31 1 101 97 96 98
32 2 101 97 96 99
33 2 101 97 96 100
34 3 102 97 96 98
35 4 102 97 96 99
36 4 102 97 96 100
37 3 103 97 96 98
38 4 103 97 96 99
39 4 103 97 96 100
40 5 110 104 98 96
41 6 110 104 98 105
42 6 110 104 98 106
43 7 111 104 98 96
44 8 111 104 98 105
45 8 111 104 98 106
46 7 112 104 98 96
47 8 112 104 98 105
48 8 112 104 98 106
49 1 598 592 590 591
50 2 598 592 590 593
51 2 598 592 590 594
52 3 599 592 590 591
53 4 599 592 590 593
54 4 599 592 590 594
55 3 600 592 590 591
56 4 600 592 590 593
57 4 600 592 590 594
58 5 604 598 592 590
59 6 604 598 592 599
60 6 604 598 592 600
61 7 605 598 592 590
62 8 605 598 592 599
63 8 605 598 592 600
64 7 606 598 592 590
65 8 606 598 592 599
66 8 606 598 592 600
67 9 835 829 823 819
68 10 835 829 823 830
69 10 835 829 823 831
70 5 908 902 896 894
71 6 908 902 896 903
72 6 908 902 896 904
73 7 909 902 896 894
74 8 909 902 896 903
75 8 909 902 896 904
76 7 910 902 896 894
77 8 910 902 896 903
78 8 910 902 896 904
79 5 623 617 611 609
80 6 623 617 611 618
81 6 623 617 611 619
82 7 624 617 611 609
83 8 624 617 611 618
84 8 624 617 611 619
85 7 625 617 611 609
86 8 625 617 611 618
87 8 625 617 611 619
88 9 627 623 617 611
89 10 627 623 617 624
90 10 627 623 617 625
91 1 617 611 609 610
92 2 617 611 609 612
93 2 617 611 609 613
94 3 618 611 609 610
95 4 618 611 609 612
96 4 618 611 609 613
97 3 619 611 609 610
98 4 619 611 609 612
99 4 619 611 609 613
100 9 912 908 902 896
101 10 912 908 902 909
102 10 912 908 902 910
103 11 1849 1846 1845 1847
104 11 1849 1846 1845 1848
105 11 1850 1846 1845 1847
106 11 1850 1846 1845 1848
107 11 1851 1846 1845 1847
108 11 1851 1846 1845 1848
109 1 614 610 609 611
110 2 614 610 609 612
111 2 614 610 609 613
112 3 615 610 609 611
113 4 615 610 609 612
114 4 615 610 609 613
115 3 616 610 609 611
116 4 616 610 609 612
117 4 616 610 609 613
118 5 620 614 610 609
119 6 620 614 610 615
120 6 620 614 610 616
121 7 621 614 610 609
122 8 621 614 610 615
123 8 621 614 610 616
124 7 622 614 610 609
125 8 622 614 610 615
126 8 622 614 610 616
127 1 902 896 894 895
128 2 902 896 894 897
129 2 902 896 894 898
130 3 903 896 894 895
131 4 903 896 894 897
132 4 903 896 894 898
133 3 904 896 894 895
134 4 904 896 894 897
135 4 904 896 894 898
136 12 1601 1602 1600 1603
137 12 1846 1847 1845 1848
138 1 788 782 780 781
139 2 788 782 780 783
140 2 788 782 780 784
141 3 789 782 780 781
142 4 789 782 780 783
143 4 789 782 780 784
144 3 790 782 780 781
145 4 790 782 780 783
146 4 790 782 780 784
147 12 1692 1693 1691 1694
148 9 247 243 237 231
149 10 247 243 237 244
150 10 247 243 237 245
151 5 243 237 231 229
152 6 243 237 231 238
153 6 243 237 231 239
154 7 244 237 231 229
155 8 244 237 231 238
156 8 244 237 231 239
157 7 245 237 231 229
158 8 245 237 231 238
159 8 245 237 231 239
160 1 937 933 932 934
161 2 937 933 932 935
162 2 937 933 932 936
163 3 938 933 932 934
164 4 938 933 932 935
165 4 938 933 932 936
166 3 939 933 932 934
167 4 939 933 932 935
168 4 939 933 932 936
169 1 940 934 932 933
170 2 940 934 932 935
171 2 940 934 932 936
172 3 941 934 932 933
173 4 941 934 932 935
174 4 941 934 932 936
175 3 942 934 932 933
176 4 942 934 932 935
177 4 942 934 932 936
178 1 234 230 229 231
179 2 234 230 229 232
180 2 234 230 229 233
181 3 235 230 229 231
182 4 235 230 229 232
183 4 235 230 229 233
184 3 236 230 229 231
185 4 236 230 229 232
186 4 236 230 229 233
187 12 1538 1539 1537 1540
188 9 1310 1304 1298 1294
189 10 1310 1304 1298 1305
190 10 1310 1304 1298 1306
191 5 1304 1298 1294 1293
192 6 1304 1298 1294 1299
193 6 1304 1298 1294 1300
194 7 1305 1298 1294 1293
195 8 1305 1298 1294 1299
196 8 1305 1298 1294 1300
197 7 1306 1298 1294 1293
198 8 1306 1298 1294 1299
199 8 1306 1298 1294 1300
200 11 1541 1538 1537 1539
201 11 1541 1538 1537 1540
202 11 1542 1538 1537 1539
203 11 1542 1538 1537 1540
204 11 1543 1538 1537 1539
205 11 1543 1538 1537 1540
206 5 946 940 934 932
207 6 946 940 934 941
208 6 946 940 934 942
209 7 947 940 934 932
210 8 947 940 934 941
211 8 947 940 934 942
212 7 948 940 934 932
213 8 948 940 934 941
214 8 948 940 934 942
215 9 246 240 234 230
216 10 246 240 234 241
217 10 246 240 234 242
218 1 237 231 229 230
219 2 237 231 229 232
220 2 237 231 229 233
221 3 238 231 229 230
222 4 238 231 229 232
223 4 238 231 229 233
224 3 239 231 229 230
225 4 239 231 229 232
226 4 239 231 229 233
227 1 104 98 96 97
228 2 104 98 96 99
229 2 104 98 96 100
230 3 105 98 96 97
231 4 105 98 96 99
232 4 105 98 96 100
233 3 106 98 96 97
234 4 106 98 96 99
235 4 106 98 96 100
236 1 1298 1294 1293 1295
237 2 1298 1294 1293 1296
238 2 1298 1294 1293 1297
239 3 1299 1294 1293 1295
240 4 1299 1294 1293 1296
241 4 1299 1294 1293 1297
242 3 1300 1294 1293 1295
243 4 1300 1294 1293 1296
244 4 1300 1294 1293 1297
245 9 950 946 940 934
246 10 950 946 940 947
247 10 950 946 940 948
248 12 1629 1630 1628 1631
249 12 1685 1686 1684 1687
250 9 151 145 139 135
251 10 151 145 139 146
252 10 151 145 139 147
253 5 145 139 135 134
254 6 145 139 135 140
255 6 145 139 135 141
256 7 146 139 135 134
257 8 146 139 135 140
258 8 146 139 135 141
259 7 147 139 135 134
260 8 147 139 135 140
261 8 147 139 135 141
262 1 139 135 134 136
263 2 139 135 134 137
264 2 139 135 134 138
265 3 140 135 134 136
266 4 140 135 134 137
267 4 140 135 134 138
268 3 141 135 134 136
269 4 141 135 134 137
270 4 141 135 134 138
271 5 148 142 136 134
272 6 148 142 136 143
273 6 148 142 136 144
274 7 149 142 136 134
275 8 149 142 136 143
276 8 149 142 136 144
277 7 150 142 136 134
278 8 150 142 136 143
279 8 150 142 136 144
280 1 142 136 134 135
281 2 142 136 134 137
282 2 142 136 134 138
283 3 143 136 134 135
284 4 143 136 134 137
285 4 143 136 134 138
286 3 144 136 134 135
287 4 144 136 134 137
288 4 144 136 134 138
289 9 152 148 142 136
290 10 152 148 142 149
291 10 152 148 142 150
292 11 1604 1601 1600 1602
293 11 1604 1601 1600 1603
294 11 1605 1601 1600 1602
295 11 1605 1601 1600 1603
296 11 1606 1601 1600 1602
297 11 1606 1601 1600 1603
298 9 95 91 85 79
299 10 95 91 85 92
300 10 95 91 85 93
301 1 1225 1219 1217 1218
302 2 1225 1219 1217 1220
303 2 1225 1219 1217 1221
304 3 1226 1219 1217 1218
305 4 1226 1219 1217 1220
306 4 1226 1219 1217 1221
307 3 1227 1219 1217 1218
308 4 1227 1219 1217 1220
309 4 1227 1219 1217 1221
310 9 1235 1231 1225 1219
311 10 1235 1231 1225 1232
312 10 1235 1231 1225 1233
313 11 1814 1811 1810 1812
314 11 1814 1811 1810 1813
315 11 1815 1811 1810 1812
316 11 1815 1811 1810 1813
317 11 1816 1811 1810 1812
318 11 1816 1811 1810 1813
319 12 1811 1812 1810 1813
320 5 1231 1225 1219 1217
321 6 1231 1225 1219 1226
322 6 1231 1225 1219 1227
323 7 1232 1225 1219 1217
324 8 1232 1225 1219 1226
325 8 1232 1225 1219 1227
326 7 1233 1225 1219 1217
327 8 1233 1225 1219 1226
328 8 1233 1225 1219 1227
329 5 1228 1222 1218 1217
330 6 1228 1222 1218 1223
331 6 1228 1222 1218 1224
332 7 1229 1222 1218 1217
333 8 1229 1222 1218 1223
334 8 1229 1222 1218 1224
335 7 1230 1222 1218 1217
336 8 1230 1222 1218 1223
337 8 1230 1222 1218 1224
338 1 1222 1218 1217 1219
339 2 1222 1218 1217 1220
340 2 1222 1218 1217 1221
341 3 1223 1218 1217 1219
342 4 1223 1218 1217 1220
343 4 1223 1218 1217 1221
344 3 1224 1218 1217 1219
345 4 1224 1218 1217 1220
346 4 1224 1218 1217 1221
347 9 1215 1209 1203 1199
348 10 1215 1209 1203 1210
349 10 1215 1209 1203 1211
350 11 1681 1678 1677 1679
351 11 1681 1678 1677 1680
352 11 1682 1678 1677 1679
353 11 1682 1678 1677 1680
354 11 1683 1678 1677 1679
355 11 1683 1678 1677 1680
356 5 297 291 287 286
357 6 297 291 287 292
358 6 297 291 287 293
359 7 298 291 287 286
360 8 298 291 287 292
361 8 298 291 287 293
362 7 299 291 287 286
363 8 299 291 287 292
364 8 299 291 287 293
365 5 794 788 782 780
366 6 794 788 782 789
367 6 794 788 782 790
368 7 795 788 782 780
369 8 795 788 782 789
370 8 795 788 782 790
371 7 796 788 782 780
372 8 796 788 782 789
373 8 796 788 782 790
374 1 785 781 780 782
375 2 785 781 780 783
376 2 785 781 780 784
377 3 786 781 780 782
378 4 786 781 780 783
379 4 786 781 780 784
380 3 787 781 780 782
381 4 787 781 780 783
382 4 787 781 780 784
383 9 570 566 560 554
384 10 570 566 560 567
385 10 570 566 560 568
386 9 798 794 788 782
387 10 798 794 788 795
388 10 798 794 788 796
389 5 791 785 781 780
390 6 791 785 781 786
391 6 791 785 781 787
392 7 792 785 781 780
393 8 792 785 781 786
394 8 792 785 781 787
395 7 793 785 781 780
396 8 793 785 781 786
397 8 793 785 781 787
398 5 566 560 554 552
399 6 566 560 554 561
400 6 566 560 554 562
401 7 567 560 554 552
402 8 567 560 554 561
403 8 567 560 554 562
404 7 568 560 554 552
405 8 568 560 554 561
406 8 568 560 554 562
407 12 1678 1679 1677 1680
408 9 797 791 785 781
409 10 797 791 785 792
410 10 797 791 785 793
411 5 240 234 230 229
412 6 240 234 230 235
413 6 240 234 230 236
414 7 241 234 230 229
415 8 241 234 230 235
416 8 241 234 230 236
417 7 242 234 230 229
418 8 242 234 230 235
419 8 242 234 230 236
420 11 1583 1580 1579 1581
421 11 1583 1580 1579 1582
422 11 1584 1580 1579 1581
423 11 1584 1580 1579 1582
424 11 1585 1580 1579 1581
425 11 1585 1580 1579 1582
426 9 1159 1155 1149 1143
427 10 1159 1155 1149 1156
428 10 1159 1155 1149 1157
429 5 677 671 667 666
430 6 677 671 667 672
431 6 677 671 667 673
432 7 678 671 667 666
433 8 678 671 667 672
434 8 678 671 667 673
435 7 679 671 667 666
436 8 679 671 667 672
437 8 679 671 667 673
438 12 1580 1581 1579 1582
439 5 1155 1149 1143 1141
440 6 1155 1149 1143 1150
441 6 1155 1149 1143 1151
442 7 1156 1149 1143 1141
443 8 1156 1149 1143 1150
444 8 1156 1149 1143 1151
445 7 1157 1149 1143 1141
446 8 1157 1149 1143 1150
447 8 1157 1149 1143 1151
448 12 1524 1525 1523 1526
449 11 1597 1594 1593 1595
450 11 1597 1594 1593 1596
451 11 1598 1594 1593 1595
452 11 1598 1594 1593 1596
453 11 1599 1594 1593 1595
454 11 1599 1594 1593 1596
455 1 671 667 666 668
456 2 671 667 666 669
457 2 671 667 666 670
458 3 672 667 666 668
459 4 672 667 666 669
460 4 672 667 666 670
461 3 673 667 666 668
462 4 673 667 666 669
463 4 673 667 666 670
464 5 696 690 686 685
465 6 696 690 686 691
466 6 696 690 686 692
467 7 697 690 686 685
468 8 697 690 686 691
469 8 697 690 686 692
470 7 698 690 686 685
471 8 698 690 686 691
472 8 698 690 686 692
473 12 1594 1595 1593 1596
474 5 680 674 668 666
475 6 680 674 668 675
476 6 680 674 668 676
477 7 681 674 668 666
478 8 681 674 668 675
479 8 681 674 668 676
480 7 682 674 668 666
481 8 682 674 668 675
482 8 682 674 668 676
483 9 532 528 522 516
484 10 532 528 522 529
485 10 532 528 522 530
486 1 674 668 666 667
487 2 674 668 666 669
488 2 674 668 666 670
489 3 675 668 666 667
490 4 675 668 666 669
491 4 675 668 666 670
492 3 676 668 666 667
493 4 676 668 666 669
494 4 676 668 666 670
495 9 1253 1247 1241 1237
496 10 1253 1247 1241 1248
497 10 1253 1247 1241 1249
498 5 1247 1241 1237 1236
499 6 1247 1241 1237 1242
500 6 1247 1241 1237 1243
501 7 1248 1241 1237 1236
502 8 1248 1241 1237 1242
503 8 1248 1241 1237 1243
504 7 1249 1241 1237 1236
505 8 1249 1241 1237 1242
506 8 1249 1241 1237 1243
507 12 1559 1560 1558 1561
508 1 1241 1237 1236 1238
509 2 1241 1237 1236 1239
510 2 1241 1237 1236 1240
511 3 1242 1237 1236 1238
512 4 1242 1237 1236 1239
513 4 1242 1237 1236 1240
514 3 1243 1237 1236 1238
515 4 1243 1237 1236 1239
516 4 1243 1237 1236 1240
517 9 684 680 674 668
518 10 684 680 674 681
519 10 684 680 674 682
520 9 702 696 690 686
521 10 702 696 690 697
522 10 702 696 690 698
523 9 1197 1193 1187 1181
524 10 1197 1193 1187 1194
525 10 1197 1193 1187 1195
526 9 341 335 329 325
527 10 341 335 329 336
528 10 341 335 329 337
529 1 161 155 153 154
530 2 161 155 153 156
531 2 161 155 153 157
532 3 162 155 153 154
533 4 162 155 153 156
534 4 162 155 153 157
535 3 163 155 153 154
536 4 163 155 153 156
537 4 163 155 153 157
538 5 1212 1206 1200 1198
539 6 1212 1206 1200 1207
540 6 1212 1206 1200 1208
541 7 1213 1206 1200 1198
542 8 1213 1206 1200 1207
543 8 1213 1206 1200 1208
544 7 1214 1206 1200 1198
545 8 1214 1206 1200 1207
546 8 1214 1206 1200 1208
547 12 1552 1553 1551 1554
548 5 1209 1203 1199 1198
549 6 1209 1203 1199 1204
550 6 1209 1203 1199 1205
551 7 1210 1203 1199 1198
552 8 1210 1203 1199 1204
553 8 1210 1203 1199 1205
554 7 1211 1203 1199 1198
555 8 1211 1203 1199 1204
556 8 1211 1203 1199 1205
557 11 1555 1552 1551 1553
558 11 1555 1552 1551 1554
559 11 1556 1552 1551 1553
560 11 1556 1552 1551 1554
561 11 1557 1552 1551 1553
562 11 1557 1552 1551 1554
563 11 1562 1559 1558 1560
564 11 1562 1559 1558 1561
565 11 1563 1559 1558 1560
566 11 1563 1559 1558 1561
567 11 1564 1559 1558 1560
568 11 1564 1559 1558 1561
569 5 547 541 535 533
570 6 547 541 535 542
571 6 547 541 535 543
572 7 548 541 535 533
573 8 548 541 535 542
574 8 548 541 535 543
575 7 549 541 535 533
576 8 549 541 535 542
577 8 549 541 535 543
578 9 551 547 541 535
579 10 551 547 541 548
580 10 551 547 541 549
581 1 541 535 533 534
582 2 541 535 533 536
583 2 541 535 533 537
584 3 542 535 533 534
585 4 542 535 533 536
586 4 542 535 533 537
587 3 543 535 533 534
588 4 543 535 533 536
589 4 543 535 533 537
590 1 538 534 533 535
591 2 538 534 533 536
592 2 538 534 533 537
593 3 539 534 533 535
594 4 539 534 533 536
595 4 539 534 533 537
596 3 540 534 533 535
597 4 540 534 533 536
598 4 540 534 533 537
599 9 1216 1212 1206 1200
600 10 1216 1212 1206 1213
601 10 1216 1212 1206 1214
602 5 544 538 534 533
603 6 544 538 534 539
604 6 544 538 534 540
605 7 545 538 534 533
606 8 545 538 534 539
607 8 545 538 534 540
608 7 546 538 534 533
609 8 546 538 534 539
610 8 546 538 534 540
611 5 53 47 41 39
612 6 53 47 41 48
613 6 53 47 41 49
614 7 54 47 41 39
615 8 54 47 41 48
616 8 54 47 41 49
617 7 55 47 41 39
618 8 55 47 41 48
619 8 55 47 41 49
620 11 1506 1503 1502 1504
621 11 1506 1503 1502 1505
622 11 1507 1503 1502 1504
623 11 1507 1503 1502 1505
624 11 1508 1503 1502 1504
625 11 1508 1503 1502 1505
626 12 1503 1504 1502 1505
627 1 47 41 39 40
628 2 47 41 39 42
629 2 47 41 39 43
630 3 48 41 39 40
631 4 48 41 39 42
632 4 48 41 39 43
633 3 49 41 39 40
634 4 49 41 39 42
635 4 49 41 39 43
636 9 56 50 44 40
637 10 56 50 44 51
638 10 56 50 44 52
639 1 44 40 39 41
640 2 44 40 39 42
641 2 44 40 39 43
642 3 45 40 39 41
643 4 45 40 39 42
644 4 45 40 39 43
645 3 46 40 39 41
646 4 46 40 39 42
647 4 46 40 39 43
648 5 50 44 40 39
649 6 50 44 40 45
650 6 50 44 40 46
651 7 51 44 40 39
652 8 51 44 40 45
653 8 51 44 40 46
654 7 52 44 40 39
655 8 52 44 40 45
656 8 52 44 40 46
657 9 190 186 180 174
658 10 190 186 180 187
659 10 190 186 180 188
660 9 57 53 47 41
661 10 57 53 47 54
662 10 57 53 47 55
663 1 804 800 799 801
664 2 804 800 799 802
665 2 804 800 799 803
666 3 805 800 799 801
667 4 805 800 799 802
668 4 805 800 799 803
669 3 806 800 799 801
670 4 806 800 799 802
671 4 806 800 799 803
672 1 807 801 799 800
673 2 807 801 799 802
674 2 807 801 799 803
675 3 808 801 799 800
676 4 808 801 799 802
677 4 808 801 799 803
678 3 809 801 799 800
679 4 809 801 799 802
680 4 809 801 799 803
681 1 1149 1143 1141 1142
682 2 1149 1143 1141 1144
683 2 1149 1143 1141 1145
684 3 1150 1143 1141 1142
685 4 1150 1143 1141 1144
686 4 1150 1143 1141 1145
687 3 1151 1143 1141 1142
688 4 1151 1143 1141 1144
689 4 1151 1143 1141 1145
690 1 1146 1142 1141 1143
691 2 1146 1142 1141 1144
692 2 1146 1142 1141 1145
693 3 1147 1142 1141 1143
694 4 1147 1142 1141 1144
695 4 1147 1142 1141 1145
696 3 1148 1142 1141 1143
697 4 1148 1142 1141 1144
698 4 1148 1142 1141 1145
699 5 91 85 79 77
700 6 91 85 79 86
701 6 91 85 79 87
702 7 92 85 79 77
703 8 92 85 79 86
704 8 92 85 79 87
705 7 93 85 79 77
706 8 93 85 79 86
707 8 93 85 79 87
708 12 1517 1518 1516 1519
709 9 930 924 918 914
710 10 930 924 918 925
711 10 930 924 918 926
712 1 1244 1238 1236 1237
713 2 1244 1238 1236 1239
714 2 1244 1238 1236 1240
715 3 1245 1238 1236 1237
716 4 1245 1238 1236 1239
717 4 1245 1238 1236 1240
718 3 1246 1238 1236 1237
719 4 1246 1238 1236 1239
720 4 1246 1238 1236 1240
721 9 1254 1250 1244 1238
722 10 1254 1250 1244 1251
723 10 1254 1250 1244 1252
724 11 1380 1377 1376 1378
725 11 1380 1377 1376 1379
726 11 1381 1377 1376 1378
727 11 1381 1377 1376 1379
728 11 1382 1377 1376 1378
729 11 1382 1377 1376 1379
730 5 1250 1244 1238 1236
731 6 1250 1244 1238 1245
732 6 1250 1244 1238 1246
733 7 1251 1244 1238 1236
734 8 1251 1244 1238 1245
735 8 1251 1244 1238 1246
736 7 1252 1244 1238 1236
737 8 1252 1244 1238 1245
738 8 1252 1244 1238 1246
739 12 1377 1378 1376 1379
740 12 1804 1805 1803 1806
741 9 550 544 538 534
742 10 550 544 538 545
743 10 550 544 538 546
744 12 1566 1567 1565 1568
745 11 1569 1566 1565 1567
746 11 1569 1566 1565 1568
747 11 1570 1566 1565 1567
748 11 1570 1566 1565 1568
749 11 1571 1566 1565 1567
750 11 1571 1566 1565 1568
751 9 1292 1288 1282 1276
752 10 1292 1288 1282 1289
753 10 1292 1288 1282 1290
754 1 1279 1275 1274 1276
755 2 1279 1275 1274 1277
756 2 1279 1275 1274 1278
757 3 1280 1275 1274 1276
758 4 1280 1275 1274 1277
759 4 1280 1275 1274 1278
760 3 1281 1275 1274 1276
761 4 1281 1275 1274 1277
762 4 1281 1275 1274 1278
763 5 1285 1279 1275 1274
764 6 1285 1279 1275 1280
765 6 1285 1279 1275 1281
766 7 1286 1279 1275 1274
767 8 1286 1279 1275 1280
768 8 1286 1279 1275 1281
769 7 1287 1279 1275 1274
770 8 1287 1279 1275 1280
771 8 1287 1279 1275 1281
772 11 1422 1419 1418 1420
773 11 1422 1419 1418 1421
774 11 1423 1419 1418 1420
775 11 1423 1419 1418 1421
776 11 1424 1419 1418 1420
777 11 1424 1419 1418 1421
778 1 899 895 894 896
779 2 899 895 894 897
780 2 899 895 894 898
781 3 900 895 894 896
782 4 900 895 894 897
783 4 900 895 894 898
784 3 901 895 894 896
785 4 901 895 894 897
786 4 901 895 894 898
787 5 1152 1146 1142 1141
788 6 1152 1146 1142 1147
789 6 1152 1146 1142 1148
790 7 1153 1146 1142 1141
791 8 1153 1146 1142 1147
792 8 1153 1146 1142 1148
793 7 1154 1146 1142 1141
794 8 1154 1146 1142 1147
795 8 1154 1146 1142 1148
796 1 1282 1276 1274 1275
797 2 1282 1276 1274 1277
798 2 1282 1276 1274 1278
799 3 1283 1276 1274 1275
800 4 1283 1276 1274 1277
801 4 1283 1276 1274 1278
802 3 1284 1276 1274 1275
803 4 1284 1276 1274 1277
804 4 1284 1276 1274 1278
805 5 1288 1282 1276 1274
806 6 1288 1282 1276 1283
807 6 1288 1282 1276 1284
808 7 1289 1282 1276 1274
809 8 1289 1282 1276 1283
810 8 1289 1282 1276 1284
811 7 1290 1282 1276 1274
812 8 1290 1282 1276 1283
813 8 1290 1282 1276 1284
814 5 905 899 895 894
815 6 905 899 895 900
816 6 905 899 895 901
817 7 906 899 895 894
818 8 906 899 895 900
819 8 906 899 895 901
820 7 907 899 895 894
821 8 907 899 895 900
822 8 907 899 895 901
823 9 1158 1152 1146 1142
824 10 1158 1152 1146 1153
825 10 1158 1152 1146 1154
826 9 911 905 899 895
827 10 911 905 899 906
828 10 911 905 899 907
829 11 1611 1608 1607 1609
830 11 1611 1608 1607 1610
831 11 1612 1608 1607 1609
832 11 1612 1608 1607 1610
833 11 1613 1608 1607 1609
834 11 1613 1608 1607 1610
835 9 1291 1285 1279 1275
836 10 1291 1285 1279 1286
837 10 1291 1285 1279 1287
838 12 1496 1497 1495 1498
839 11 1499 1496 1495 1497
840 11 1499 1496 1495 1498
841 11 1500 1496 1495 1497
842 11 1500 1496 1495 1498
843 11 1501 1496 1495 1497
844 11 1501 1496 1495 1498
845 5 1326 1320 1314 1312
846 6 1326 1320 1314 1321
847 6 1326 1320 1314 1322
848 7 1327 1320 1314 1312
849 8 1327 1320 1314 1321
850 8 1327 1320 1314 1322
851 7 1328 1320 1314 1312
852 8 1328 1320 1314 1321
853 8 1328 1320 1314 1322
854 11 1751 1748 1747 1749
855 11 1751 1748 1747 1750
856 11 1752 1748 1747 1749
857 11 1752 1748 1747 1750
858 11 1753 1748 1747 1749
859 11 1753 1748 1747 1750
860 1 1320 1314 1312 1313
861 2 1320 1314 1312 1315
862 2 1320 1314 1312 1316
863 3 1321 1314 1312 1313
864 4 1321 1314 1312 1315
865 4 1321 1314 1312 1316
866 3 1322 1314 1312 1313
867 4 1322 1314 1312 1315
868 4 1322 1314 1312 1316
869 1 595 591 590 592
870 2 595 591 590 593
871 2 595 591 590 594
872 3 596 591 590 592
873 4 596 591 590 593
874 4 596 591 590 594
875 3 597 591 590 592
876 4 597 591 590 593
877 4 597 591 590 594
878 9 608 604 598 592
879 10 608 604 598 605
880 10 608 604 598 606
881 9 1330 1326 1320 1314
882 10 1330 1326 1320 1327
883 10 1330 1326 1320 1328
884 5 601 595 591 590
885 6 601 595 591 596
886 6 601 595 591 597
887 7 602 595 591 590
888 8 602 595 591 596
889 8 602 595 591 597
890 7 603 595 591 590
891 8 603 595 591 596
892 8 603 595 591 597
893 11 1387 1384 1383 1385
894 11 1387 1384 1383 1386
895 11 1388 1384 1383 1385
896 11 1388 1384 1383 1386
897 11 1389 1384 1383 1385
898 11 1389 1384 1383 1386
899 5 1266 1260 1256 1255
900 6 1266 1260 1256 1261
901 6 1266 1260 1256 1262
902 7 1267 1260 1256 1255
903 8 1267 1260 1256 1261
904 8 1267 1260 1256 1262
905 7 1268 1260 1256 1255
906 8 1268 1260 1256 1261
907 8 1268 1260 1256 1262
908 1 1260 1256 1255 1257
909 2 1260 1256 1255 1258
910 2 1260 1256 1255 1259
911 3 1261 1256 1255 1257
912 4 1261 1256 1255 1258
913 4 1261 1256 1255 1259
914 3 1262 1256 1255 1257
915 4 1262 1256 1255 1258
916 4 1262 1256 1255 1259
917 9 1272 1266 1260 1256
918 10 1272 1266 1260 1267
919 10 1272 1266 1260 1268
920 1 1263 1257 1255 1256
921 2 1263 1257 1255 1258
922 2 1263 1257 1255 1259
923 3 1264 1257 1255 1256
924 4 1264 1257 1255 1258
925 4 1264 1257 1255 1259
926 3 1265 1257 1255 1256
927 4 1265 1257 1255 1258
928 4 1265 1257 1255 1259
929 5 1269 1263 1257 1255
930 6 1269 1263 1257 1264
931 6 1269 1263 1257 1265
932 7 1270 1263 1257 1255
933 8 1270 1263 1257 1264
934 8 1270 1263 1257 1265
935 7 1271 1263 1257 1255
936 8 1271 1263 1257 1264
937 8 1271 1263 1257 1265
938 12 1510 1511 1509 1512
939 12 1384 1385 1383 1386
940 11 1513 1510 1509 1511
941 11 1513 1510 1509 1512
942 11 1514 1510 1509 1511
943 11 1514 1510 1509 1512
944 11 1515 1510 1509 1511
945 11 1515 1510 1509 1512
946 9 1273 1269 1263 1257
947 10 1273 1269 1263 1270
948 10 1273 1269 1263 1271
949 5 737 731 725 723
950 6 737 731 725 732
951 6 737 731 725 733
952 7 738 731 725 723
953 8 738 731 725 732
954 8 738 731 725 733
955 7 739 731 725 723
956 8 739 731 725 732
957 8 739 731 725 733
958 9 741 737 731 725
959 10 741 737 731 738
960 10 741 737 731 739
961 1 731 725 723 724
962 2 731 725 723 726
963 2 731 725 723 727
964 3 732 725 723 724
965 4 732 725 723 726
966 4 732 725 723 727
967 3 733 725 723 724
968 4 733 725 723 726
969 4 733 725 723 727
970 1 728 724 723 725
971 2 728 724 723 726
972 2 728 724 723 727
973 3 729 724 723 725
974 4 729 724 723 726
975 4 729 724 723 727
976 3 730 724 723 725
977 4 730 724 723 726
978 4 730 724 723 727
979 12 1482 1483 1481 1484
980 11 1485 1482 1481 1483
981 11 1485 1482 1481 1484
982 11 1486 1482 1481 1483
983 11 1486 1482 1481 1484
984 11 1487 1482 1481 1483
985 11 1487 1482 1481 1484
986 9 740 734 728 724
987 10 740 734 728 735
988 10 740 734 728 736
989 9 569 563 557 553
990 10 569 563 557 564
991 10 569 563 557 565
992 5 734 728 724 723
993 6 734 728 724 729
994 6 734 728 724 730
995 7 735 728 724 723
996 8 735 728 724 729
997 8 735 728 724 730
998 7 736 728 724 723
999 8 736 728 724 729
1000 8 736 728 724 730
1001 5 563 557 553 552
1002 6 563 557 553 558
1003 6 563 557 553 559
1004 7 564 557 553 552
1005 8 564 557 553 558
1006 8 564 557 553 559
1007 7 565 557 553 552
1008 8 565 557 553 558
1009 8 565 557 553 559
1010 11 1660 1657 1656 1658
1011 11 1660 1657 1656 1659
1012 11 1661 1657 1656 1658
1013 11 1661 1657 1656 1659
1014 11 1662 1657 1656 1658
1015 11 1662 1657 1656 1659
1016 11 1471 1468 1467 1469
1017 11 1471 1468 1467 1470
1018 11 1472 1468 1467 1469
1019 11 1472 1468 1467 1470
1020 11 1473 1468 1467 1469
1021 11 1473 1468 1467 1470
1022 1 557 553 552 554
1023 2 557 553 552 555
1024 2 557 553 552 556
1025 3 558 553 552 554
1026 4 558 553 552 555
1027 4 558 553 552 556
1028 3 559 553 552 554
1029 4 559 553 552 555
1030 4 559 553 552 556
1031 5 943 937 933 932
1032 6 943 937 933 938
1033 6 943 937 933 939
1034 7 944 937 933 932
1035 8 944 937 933 938
1036 8 944 937 933 939
1037 7 945 937 933 932
1038 8 945 937 933 938
1039 8 945 937 933 939
1040 1 177 173 172 174
1041 2 177 173 172 175
1042 2 177 173 172 176
1043 3 178 173 172 174
1044 4 178 173 172 175
1045 4 178 173 172 176
1046 3 179 173 172 174
1047 4 179 173 172 175
1048 4 179 173 172 176
1049 9 949 943 937 933
1050 10 949 943 937 944
1051 10 949 943 937 945
1052 1 199 193 191 192
1053 2 199 193 191 194
1054 2 199 193 191 195
1055 3 200 193 191 192
1056 4 200 193 191 194
1057 4 200 193 191 195
1058 3 201 193 191 192
1059 4 201 193 191 194
1060 4 201 193 191 195
1061 12 1748 1749 1747 1750
1062 1 196 192 191 193
1063 2 196 192 191 194
1064 2 196 192 191 195
1065 3 197 192 191 193
1066 4 197 192 191 194
1067 4 197 192 191 195
1068 3 198 192 191 193
1069 4 198 192 191 194
1070 4 198 192 191 195
1071 5 202 196 192 191
1072 6 202 196 192 197
1073 6 202 196 192 198
1074 7 203 196 192 191
1075 8 203 196 192 197
1076 8 203 196 192 198
1077 7 204 196 192 191
1078 8 204 196 192 197
1079 8 204 196 192 198
1080 9 208 202 196 192
1081 10 208 202 196 203
1082 10 208 202 196 204
1083 5 205 199 193 191
1084 6 205 199 193 200
1085 6 205 199 193 201
1086 7 206 199 193 191
1087 8 206 199 193 200
1088 8 206 199 193 201
1089 7 207 199 193 191
1090 8 207 199 193 200
1091 8 207 199 193 201
1092 5 1307 1301 1295 1293
1093 6 1307 1301 1295 1302
1094 6 1307 1301 1295 1303
1095 7 1308 1301 1295 1293
1096 8 1308 1301 1295 1302
1097 8 1308 1301 1295 1303
1098 7 1309 1301 1295 1293
1099 8 1309 1301 1295 1302
1100 8 1309 1301 1295 1303
1101 1 1301 1295 1293 1294
1102 2 1301 1295 1293 1296
1103 2 1301 1295 1293 1297
1104 3 1302 1295 1293 1294
1105 4 1302 1295 1293 1296
1106 4 1302 1295 1293 1297
1107 3 1303 1295 1293 1294
1108 4 1303 1295 1293 1296
1109 4 1303 1295 1293 1297
1110 11 1688 1685 1684 1686
1111 11 1688 1685 1684 1687
1112 11 1689 1685 1684 1686
1113 11 1689 1685 1684 1687
1114 11 1690 1685 1684 1686
1115 11 1690 1685 1684 1687
1116 1 1317 1313 1312 1314
1117 2 1317 1313 1312 1315
1118 2 1317 1313 1312 1316
1119 3 1318 1313 1312 1314
1120 4 1318 1313 1312 1315
1121 4 1318 1313 1312 1316
1122 3 1319 1313 1312 1314
1123 4 1319 1313 1312 1315
1124 4 1319 1313 1312 1316
1125 5 1323 1317 1313 1312
1126 6 1323 1317 1313 1318
1127 6 1323 1317 1313 1319
1128 7 1324 1317 1313 1312
1129 8 1324 1317 1313 1318
1130 8 1324 1317 1313 1319
1131 7 1325 1317 1313 1312
1132 8 1325 1317 1313 1318
1133 8 1325 1317 1313 1319
1134 9 1329 1323 1317 1313
1135 10 1329 1323 1317 1324
1136 10 1329 1323 1317 1325
1137 11 1639 1636 1635 1637
1138 11 1639 1636 1635 1638
1139 11 1640 1636 1635 1637
1140 11 1640 1636 1635 1638
1141 11 1641 1636 1635 1637
1142 11 1641 1636 1635 1638
1143 5 829 823 819 818
1144 6 829 823 819 824
1145 6 829 823 819 825
1146 7 830 823 819 818
1147 8 830 823 819 824
1148 8 830 823 819 825
1149 7 831 823 819 818
1150 8 831 823 819 824
1151 8 831 823 819 825
1152 1 1035 1029 1027 1028
1153 2 1035 1029 1027 1030
1154 2 1035 1029 1027 1031
1155 3 1036 1029 1027 1028
1156 4 1036 1029 1027 1030
1157 4 1036 1029 1027 1031
1158 3 1037 1029 1027 1028
1159 4 1037 1029 1027 1030
1160 4 1037 1029 1027 1031
1161 1 1032 1028 1027 1029
1162 2 1032 1028 1027 1030
1163 2 1032 1028 1027 1031
1164 3 1033 1028 1027 1029
1165 4 1033 1028 1027 1030
1166 4 1033 1028 1027 1031
1167 3 1034 1028 1027 1029
1168 4 1034 1028 1027 1030
1169 4 1034 1028 1027 1031
1170 12 1636 1637 1635 1638
1171 1 1054 1048 1046 1047
1172 2 1054 1048 1046 1049
1173 2 1054 1048 1046 1050
1174 3 1055 1048 1046 1047
1175 4 1055 1048 1046 1049
1176 4 1055 1048 1046 1050
1177 3 1056 1048 1046 1047
1178 4 1056 1048 1046 1049
1179 4 1056 1048 1046 1050
1180 5 1060 1054 1048 1046
1181 6 1060 1054 1048 1055
1182 6 1060 1054 1048 1056
1183 7 1061 1054 1048 1046
1184 8 1061 1054 1048 1055
1185 8 1061 1054 1048 1056
1186 7 1062 1054 1048 1046
1187 8 1062 1054 1048 1055
1188 8 1062 1054 1048 1056
1189 9 1064 1060 1054 1048
1190 10 1064 1060 1054 1061
1191 10 1064 1060 1054 1062
1192 5 1041 1035 1029 1027
1193 6 1041 1035 1029 1036
1194 6 1041 1035 1029 1037
1195 7 1042 1035 1029 1027
1196 8 1042 1035 1029 1036
1197 8 1042 1035 1029 1037
1198 7 1043 1035 1029 1027
1199 8 1043 1035 1029 1036
1200 8 1043 1035 1029 1037
1201 11 1800 1797 1796 1798
1202 11 1800 1797 1796 1799
1203 11 1801 1797 1796 1798
1204 11 1801 1797 1796 1799
1205 11 1802 1797 1796 1798
1206 11 1802 1797 1796 1799
1207 12 1797 1798 1796 1799
1208 9 1045 1041 1035 1029
1209 10 1045 1041 1035 1042
1210 10 1045 1041 1035 1043
1211 1 1051 1047 1046 1048
1212 2 1051 1047 1046 1049
1213 2 1051 1047 1046 1050
1214 3 1052 1047 1046 1048
1215 4 1052 1047 1046 1049
1216 4 1052 1047 1046 1050
1217 3 1053 1047 1046 1048
1218 4 1053 1047 1046 1049
1219 4 1053 1047 1046 1050
1220 9 1063 1057 1051 1047
1221 10 1063 1057 1051 1058
1222 10 1063 1057 1051 1059
1223 5 1057 1051 1047 1046
1224 6 1057 1051 1047 1052
1225 6 1057 1051 1047 1053
1226 7 1058 1051 1047 1046
1227 8 1058 1051 1047 1052
1228 8 1058 1051 1047 1053
1229 7 1059 1051 1047 1046
1230 8 1059 1051 1047 1052
1231 8 1059 1051 1047 1053
1232 9 1234 1228 1222 1218
1233 10 1234 1228 1222 1229
1234 10 1234 1228 1222 1230
1235 5 88 82 78 77
1236 6 88 82 78 83
1237 6 88 82 78 84
1238 7 89 82 78 77
1239 8 89 82 78 83
1240 8 89 82 78 84
1241 7 90 82 78 77
1242 8 90 82 78 83
1243 8 90 82 78 84
1244 9 94 88 82 78
1245 10 94 88 82 89
1246 10 94 88 82 90
1247 1 82 78 77 79
1248 2 82 78 77 80
1249 2 82 78 77 81
1250 3 83 78 77 79
1251 4 83 78 77 80
1252 4 83 78 77 81
1253 3 84 78 77 79
1254 4 84 78 77 80
1255 4 84 78 77 81
1256 1 560 554 552 553
1257 2 560 554 552 555
1258 2 560 554 552 556
1259 3 561 554 552 553
1260 4 561 554 552 555
1261 4 561 554 552 556
1262 3 562 554 552 553
1263 4 562 554 552 555
1264 4 562 554 552 556
1265 1 997 991 989 990
1266 2 997 991 989 992
1267 2 997 991 989 993
1268 3 998 991 989 990
1269 4 998 991 989 992
1270 4 998 991 989 993
1271 3 999 991 989 990
1272 4 999 991 989 992
1273 4 999 991 989 993
1274 5 1003 997 991 989
1275 6 1003 997 991 998
1276 6 1003 997 991 999
1277 7 1004 997 991 989
1278 8 1004 997 991 998
1279 8 1004 997 991 999
1280 7 1005 997 991 989
1281 8 1005 997 991 998
1282 8 1005 997 991 999
1283 11 1373 1370 1369 1371
1284 11 1373 1370 1369 1372
1285 11 1374 1370 1369 1371
1286 11 1374 1370 1369 1372
1287 11 1375 1370 1369 1371
1288 11 1375 1370 1369 1372
1289 9 1007 1003 997 991
1290 10 1007 1003 997 1004
1291 10 1007 1003 997 1005
1292 12 1370 1371 1369 1372
1293 9 683 677 671 667
1294 10 683 677 671 678
1295 10 683 677 671 679
1296 9 1311 1307 1301 1295
1297 10 1311 1307 1301 1308
1298 10 1311 1307 1301 1309
1299 1 861 857 856 858
1300 2 861 857 856 859
1301 2 861 857 856 860
1302 3 862 857 856 858
1303 4 862 857 856 859
1304 4 862 857 856 860
1305 3 863 857 856 858
1306 4 863 857 856 859
1307 4 863 857 856 860
1308 12 1664 1665 1663 1666
1309 9 380 376 370 364
1310 10 380 376 370 377
1311 10 380 376 370 378
1312 5 376 370 364 362
1313 6 376 370 364 371
1314 6 376 370 364 372
1315 7 377 370 364 362
1316 8 377 370 364 371
1317 8 377 370 364 372
1318 7 378 370 364 362
1319 8 378 370 364 371
1320 8 378 370 364 372
1321 9 379 373 367 363
1322 10 379 373 367 374
1323 10 379 373 367 375
1324 5 373 367 363 362
1325 6 373 367 363 368
1326 6 373 367 363 369
1327 7 374 367 363 362
1328 8 374 367 363 368
1329 8 374 367 363 369
1330 7 375 367 363 362
1331 8 375 367 363 368
1332 8 375 367 363 369
1333 1 367 363 362 364
1334 2 367 363 362 365
1335 2 367 363 362 366
1336 3 368 363 362 364
1337 4 368 363 362 365
1338 4 368 363 362 366
1339 3 369 363 362 364
1340 4 369 363 362 365
1341 4 369 363 362 366
1342 1 370 364 362 363
1343 2 370 364 362 365
1344 2 370 364 362 366
1345 3 371 364 362 363
1346 4 371 364 362 365
1347 4 371 364 362 366
1348 3 372 364 362 363
1349 4 372 364 362 365
1350 4 372 364 362 366
1351 9 817 813 807 801
1352 10 817 813 807 814
1353 10 817 813 807 815
1354 5 528 522 516 514
1355 6 528 522 516 523
1356 6 528 522 516 524
1357 7 529 522 516 514
1358 8 529 522 516 523
1359 8 529 522 516 524
1360 7 530 522 516 514
1361 8 530 522 516 523
1362 8 530 522 516 524
1363 5 867 861 857 856
1364 6 867 861 857 862
1365 6 867 861 857 863
1366 7 868 861 857 856
1367 8 868 861 857 862
1368 8 868 861 857 863
1369 7 869 861 857 856
1370 8 869 861 857 862
1371 8 869 861 857 863
1372 12 1867 1868 1866 1869
1373 1 522 516 514 515
1374 2 522 516 514 517
1375 2 522 516 514 518
1376 3 523 516 514 515
1377 4 523 516 514 517
1378 4 523 516 514 518
1379 3 524 516 514 515
1380 4 524 516 514 517
1381 4 524 516 514 518
1382 11 1870 1867 1866 1868
1383 11 1870 1867 1866 1869
1384 11 1871 1867 1866 1868
1385 11 1871 1867 1866 1869
1386 11 1872 1867 1866 1868
1387 11 1872 1867 1866 1869
1388 11 1667 1664 1663 1665
1389 11 1667 1664 1663 1666
1390 11 1668 1664 1663 1665
1391 11 1668 1664 1663 1666
1392 11 1669 1664 1663 1665
1393 11 1669 1664 1663 1666
1394 11 1737 1734 1733 1735
1395 11 1737 1734 1733 1736
1396 11 1738 1734 1733 1735
1397 11 1738 1734 1733 1736
1398 11 1739 1734 1733 1735
1399 11 1739 1734 1733 1736
1400 9 133 129 123 117
1401 10 133 129 123 130
1402 10 133 129 123 131
1403 5 129 123 117 115
1404 6 129 123 117 124
1405 6 129 123 117 125
1406 7 130 123 117 115
1407 8 130 123 117 124
1408 8 130 123 117 125
1409 7 131 123 117 115
1410 8 131 123 117 124
1411 8 131 123 117 125
1412 12 1734 1735 1733 1736
1413 9 455 449 443 439
1414 10 455 449 443 450
1415 10 455 449 443 451
1416 9 778 772 766 762
1417 10 778 772 766 773
1418 10 778 772 766 774
1419 12 1671 1672 1670 1673
1420 5 1038 1032 1028 1027
1421 6 1038 1032 1028 1033
1422 6 1038 1032 1028 1034
1423 7 1039 1032 1028 1027
1424 8 1039 1032 1028 1033
1425 8 1039 1032 1028 1034
1426 7 1040 1032 1028 1027
1427 8 1040 1032 1028 1033
1428 8 1040 1032 1028 1034
1429 1 519 515 514 516
1430 2 519 515 514 517
1431 2 519 515 514 518
1432 3 520 515 514 516
1433 4 520 515 514 517
1434 4 520 515 514 518
1435 3 521 515 514 516
1436 4 521 515 514 517
1437 4 521 515 514 518
1438 5 775 769 763 761
1439 6 775 769 763 770
1440 6 775 769 763 771
1441 7 776 769 763 761
1442 8 776 769 763 770
1443 8 776 769 763 771
1444 7 777 769 763 761
1445 8 777 769 763 770
1446 8 777 769 763 771
1447 9 779 775 769 763
1448 10 779 775 769 776
1449 10 779 775 769 777
1450 9 1044 1038 1032 1028
1451 10 1044 1038 1032 1039
1452 10 1044 1038 1032 1040
1453 5 525 519 515 514
1454 6 525 519 515 520
1455 6 525 519 515 521
1456 7 526 519 515 514
1457 8 526 519 515 520
1458 8 526 519 515 521
1459 7 527 519 515 514
1460 8 527 519 515 520
1461 8 527 519 515 521
1462 9 531 525 519 515
1463 10 531 525 519 526
1464 10 531 525 519 527
1465 12 1755 1756 1754 1757
1466 1 769 763 761 762
1467 2 769 763 761 764
1468 2 769 763 761 765
1469 3 770 763 761 762
1470 4 770 763 761 764
1471 4 770 763 761 765
1472 3 771 763 761 762
1473 4 771 763 761 764
1474 4 771 763 761 765
1475 11 1758 1755 1754 1756
1476 11 1758 1755 1754 1757
1477 11 1759 1755 1754 1756
1478 11 1759 1755 1754 1757
1479 11 1760 1755 1754 1756
1480 11 1760 1755 1754 1757
1481 5 813 807 801 799
1482 6 813 807 801 808
1483 6 813 807 801 809
1484 7 814 807 801 799
1485 8 814 807 801 808
1486 8 814 807 801 809
1487 7 815 807 801 799
1488 8 815 807 801 808
1489 8 815 807 801 809
1490 5 810 804 800 799
1491 6 810 804 800 805
1492 6 810 804 800 806
1493 7 811 804 800 799
1494 8 811 804 800 805
1495 8 811 804 800 806
1496 7 812 804 800 799
1497 8 812 804 800 805
1498 8 812 804 800 806
1499 1 85 79 77 78
1500 2 85 79 77 80
1501 2 85 79 77 81
1502 3 86 79 77 78
1503 4 86 79 77 80
1504 4 86 79 77 81
1505 3 87 79 77 78
1506 4 87 79 77 80
1507 4 87 79 77 81
1508 9 816 810 804 800
1509 10 816 810 804 811
1510 10 816 810 804 812
1511 1 1073 1067 1065 1066
1512 2 1073 1067 1065 1068
1513 2 1073 1067 1065 1069
1514 3 1074 1067 1065 1066
1515 4 1074 1067 1065 1068
1516 4 1074 1067 1065 1069
1517 3 1075 1067 1065 1066
1518 4 1075 1067 1065 1068
1519 4 1075 1067 1065 1069
1520 12 1650 1651 1649 1652
1521 5 1079 1073 1067 1065
1522 6 1079 1073 1067 1074
1523 6 1079 1073 1067 1075
1524 7 1080 1073 1067 1065
1525 8 1080 1073 1067 1074
1526 8 1080 1073 1067 1075
1527 7 1081 1073 1067 1065
1528 8 1081 1073 1067 1074
1529 8 1081 1073 1067 1075
1530 9 1083 1079 1073 1067
1531 10 1083 1079 1073 1080
1532 10 1083 1079 1073 1081
1533 11 1653 1650 1649 1651
1534 11 1653 1650 1649 1652
1535 11 1654 1650 1649 1651
1536 11 1654 1650 1649 1652
1537 11 1655 1650 1649 1651
1538 11 1655 1650 1649 1652
1539 5 924 918 914 913
1540 6 924 918 914 919
1541 6 924 918 914 920
1542 7 925 918 914 913
1543 8 925 918 914 919
1544 8 925 918 914 920
1545 7 926 918 914 913
1546 8 926 918 914 919
1547 8 926 918 914 920
1548 11 1576 1573 1572 1574
1549 11 1576 1573 1572 1575
1550 11 1577 1573 1572 1574
1551 11 1577 1573 1572 1575
1552 11 1578 1573 1572 1574
1553 11 1578 1573 1572 1575
1554 12 1573 1574 1572 1575
1555 12 1615 1616 1614 1617
1556 11 1618 1615 1614 1616
1557 11 1618 1615 1614 1617
1558 11 1619 1615 1614 1616
1559 11 1619 1615 1614 1617
1560 11 1620 1615 1614 1616
1561 11 1620 1615 1614 1617
1562 1 1013 1009 1008 1010
1563 2 1013 1009 1008 1011
1564 2 1013 1009 1008 1012
1565 3 1014 1009 1008 1010
1566 4 1014 1009 1008 1011
1567 4 1014 1009 1008 1012
1568 3 1015 1009 1008 1010
1569 4 1015 1009 1008 1011
1570 4 1015 1009 1008 1012
1571 5 1019 1013 1009 1008
1572 6 1019 1013 1009 1014
1573 6 1019 1013 1009 1015
1574 7 1020 1013 1009 1008
1575 8 1020 1013 1009 1014
1576 8 1020 1013 1009 1015
1577 7 1021 1013 1009 1008
1578 8 1021 1013 1009 1014
1579 8 1021 1013 1009 1015
1580 9 303 297 291 287
1581 10 303 297 291 298
1582 10 303 297 291 299
1583 9 1025 1019 1013 1009
1584 10 1025 1019 1013 1020
1585 10 1025 1019 1013 1021
1586 9 607 601 595 591
1587 10 607 601 595 602
1588 10 607 601 595 603
1589 1 120 116 115 117
1590 2 120 116 115 118
1591 2 120 116 115 119
1592 3 121 116 115 117
1593 4 121 116 115 118
1594 4 121 116 115 119
1595 3 122 116 115 117
1596 4 122 116 115 118
1597 4 122 116 115 119
1598 1 123 117 115 116
1599 2 123 117 115 118
1600 2 123 117 115 119
1601 3 124 117 115 116
1602 4 124 117 115 118
1603 4 124 117 115 119
1604 3 125 117 115 116
1605 4 125 117 115 118
1606 4 125 117 115 119
1607 5 1022 1016 1010 1008
1608 6 1022 1016 1010 1017
1609 6 1022 1016 1010 1018
1610 7 1023 1016 1010 1008
1611 8 1023 1016 1010 1017
1612 8 1023 1016 1010 1018
1613 7 1024 1016 1010 1008
1614 8 1024 1016 1010 1017
1615 8 1024 1016 1010 1018
1616 9 18 12 6 2
1617 10 18 12 6 13
1618 10 18 12 6 14
1619 5 12 6 2 1
1620 6 12 6 2 7
1621 6 12 6 2 8
1622 7 13 6 2 1
1623 8 13 6 2 7
1624 8 13 6 2 8
1625 7 14 6 2 1
1626 8 14 6 2 7
1627 8 14 6 2 8
1628 1 1016 1010 1008 1009
1629 2 1016 1010 1008 1011
1630 2 1016 1010 1008 1012
1631 3 1017 1010 1008 1009
1632 4 1017 1010 1008 1011
1633 4 1017 1010 1008 1012
1634 3 1018 1010 1008 1009
1635 4 1018 1010 1008 1011
1636 4 1018 1010 1008 1012
1637 9 1026 1022 1016 1010
1638 10 1026 1022 1016 1023
1639 10 1026 1022 1016 1024
1640 12 1832 1833 1831 1834
1641 11 1835 1832 1831 1833
1642 11 1835 1832 1831 1834
1643 11 1836 1832 1831 1833
1644 11 1836 1832 1831 1834
1645 11 1837 1832 1831 1833
1646 11 1837 1832 1831 1834
1647 1 6 2 1 3
1648 2 6 2 1 4
1649 2 6 2 1 5
1650 3 7 2 1 3
1651 4 7 2 1 4
1652 4 7 2 1 5
1653 3 8 2 1 3
1654 4 8 2 1 4
1655 4 8 2 1 5
1656 1 766 762 761 763
1657 2 766 762 761 764
1658 2 766 762 761 765
1659 3 767 762 761 763
1660 4 767 762 761 764
1661 4 767 762 761 765
1662 3 768 762 761 763
1663 4 768 762 761 764
1664 4 768 762 761 765
1665 9 968 962 956 952
1666 10 968 962 956 963
1667 10 968 962 956 964
1668 9 969 965 959 953
1669 10 969 965 959 966
1670 10 969 965 959 967
1671 1 9 3 1 2
1672 2 9 3 1 4
1673 2 9 3 1 5
1674 3 10 3 1 2
1675 4 10 3 1 4
1676 4 10 3 1 5
1677 3 11 3 1 2
1678 4 11 3 1 4
1679 4 11 3 1 5
1680 12 1657 1658 1656 1659
1681 5 15 9 3 1
1682 6 15 9 3 10
1683 6 15 9 3 11
1684 7 16 9 3 1
1685 8 16 9 3 10
1686 8 16 9 3 11
1687 7 17 9 3 1
1688 8 17 9 3 10
1689 8 17 9 3 11
1690 12 1419 1420 1418 1421
1691 5 962 956 952 951
1692 6 962 956 952 957
1693 6 962 956 952 958
1694 7 963 956 952 951
1695 8 963 956 952 957
1696 8 963 956 952 958
1697 7 964 956 952 951
1698 8 964 956 952 957
1699 8 964 956 952 958
1700 1 956 952 951 953
1701 2 956 952 951 954
1702 2 956 952 951 955
1703 3 957 952 951 953
1704 4 957 952 951 954
1705 4 957 952 951 955
1706 3 958 952 951 953
1707 4 958 952 951 954
1708 4 958 952 951 955
1709 1 959 953 951 952
1710 2 959 953 951 954
1711 2 959 953 951 955
1712 3 960 953 951 952
1713 4 960 953 951 954
1714 4 960 953 951 955
1715 3 961 953 951 952
1716 4 961 953 951 954
1717 4 961 953 951 955
1718 9 19 15 9 3
1719 10 19 15 9 16
1720 10 19 15 9 17
1721 5 965 959 953 951
1722 6 965 959 953 960
1723 6 965 959 953 961
1724 7 966 959 953 951
1725 8 966 959 953 960
1726 8 966 959 953 961
1727 7 967 959 953 951
1728 8 967 959 953 960
1729 8 967 959 953 961
1730 1 294 288 286 287
1731 2 294 288 286 289
1732 2 294 288 286 290
1733 3 295 288 286 287
1734 4 295 288 286 289
1735 4 295 288 286 290
1736 3 296 288 286 287
1737 4 296 288 286 289
1738 4 296 288 286 290
1739 11 1674 1671 1670 1672
1740 11 1674 1671 1670 1673
1741 11 1675 1671 1670 1672
1742 11 1675 1671 1670 1673
1743 11 1676 1671 1670 1672
1744 11 1676 1671 1670 1673
1745 5 300 294 288 286
1746 6 300 294 288 295
1747 6 300 294 288 296
1748 7 301 294 288 286
1749 8 301 294 288 295
1750 8 301 294 288 296
1751 7 302 294 288 286
1752 8 302 294 288 295
1753 8 302 294 288 296
1754 1 291 287 286 288
1755 2 291 287 286 289
1756 2 291 287 286 290
1757 3 292 287 286 288
1758 4 292 287 286 289
1759 4 292 287 286 290
1760 3 293 287 286 288
1761 4 293 287 286 289
1762 4 293 287 286 290
1763 9 304 300 294 288
1764 10 304 300 294 301
1765 10 304 300 294 302
1766 9 873 867 861 857
1767 10 873 867 861 868
1768 10 873 867 861 869
1769 5 126 120 116 115
1770 6 126 120 116 121
1771 6 126 120 116 122
1772 7 127 120 116 115
1773 8 127 120 116 121
1774 8 127 120 116 122
1775 7 128 120 116 115
1776 8 128 120 116 121
1777 8 128 120 116 122
1778 1 1206 1200 1198 1199
1779 2 1206 1200 1198 1201
1780 2 1206 1200 1198 1202
1781 3 1207 1200 1198 1199
1782 4 1207 1200 1198 1201
1783 4 1207 1200 1198 1202
1784 3 1208 1200 1198 1199
1785 4 1208 1200 1198 1201
1786 4 1208 1200 1198 1202
1787 11 1856 1853 1852 1854
1788 11 1856 1853 1852 1855
1789 11 1857 1853 1852 1854
1790 11 1857 1853 1852 1855
1791 11 1858 1853 1852 1854
1792 11 1858 1853 1852 1855
1793 1 747 743 742 744
1794 2 747 743 742 745
1795 2 747 743 742 746
1796 3 748 743 742 744
1797 4 748 743 742 745
1798 4 748 743 742 746
1799 3 749 743 742 744
1800 4 749 743 742 745
1801 4 749 743 742 746
1802 12 1853 1854 1852 1855
1803 5 753 747 743 742
1804 6 753 747 743 748
1805 6 753 747 743 749
1806 7 754 747 743 742
1807 8 754 747 743 748
1808 8 754 747 743 749
1809 7 755 747 743 742
1810 8 755 747 743 748
1811 8 755 747 743 749
1812 5 357 351 345 343
1813 6 357 351 345 352
1814 6 357 351 345 353
1815 7 358 351 345 343
1816 8 358 351 345 352
1817 8 358 351 345 353
1818 7 359 351 345 343
1819 8 359 351 345 352
1820 8 359 351 345 353
1821 11 1828 1825 1824 1826
1822 11 1828 1825 1824 1827
1823 11 1829 1825 1824 1826
1824 11 1829 1825 1824 1827
1825 11 1830 1825 1824 1826
1826 11 1830 1825 1824 1827
1827 9 361 357 351 345
1828 10 361 357 351 358
1829 10 361 357 351 359
1830 12 1825 1826 1824 1827
1831 9 722 718 712 706
1832 10 722 718 712 719
1833 10 722 718 712 720
1834 1 351 345 343 344
1835 2 351 345 343 346
1836 2 351 345 343 347
1837 3 352 345 343 344
1838 4 352 345 343 346
1839 4 352 345 343 347
1840 3 353 345 343 344
1841 4 353 345 343 346
1842 4 353 345 343 347
1843 9 721 715 709 705
1844 10 721 715 709 716
1845 10 721 715 709 717
1846 5 715 709 705 704
1847 6 715 709 705 710
1848 6 715 709 705 711
1849 7 716 709 705 704
1850 8 716 709 705 710
1851 8 716 709 705 711
1852 7 717 709 705 704
1853 8 717 709 705 710
1854 8 717 709 705 711
1855 12 1391 1392 1390 1393
1856 1 329 325 324 326
1857 2 329 325 324 327
1858 2 329 325 324 328
1859 3 330 325 324 326
1860 4 330 325 324 327
1861 4 330 325 324 328
1862 3 331 325 324 326
1863 4 331 325 324 327
1864 4 331 325 324 328
1865 1 709 705 704 706
1866 2 709 705 704 707
1867 2 709 705 704 708
1868 3 710 705 704 706
1869 4 710 705 704 707
1870 4 710 705 704 708
1871 3 711 705 704 706
1872 4 711 705 704 707
1873 4 711 705 704 708
1874 5 335 329 325 324
1875 6 335 329 325 330
1876 6 335 329 325 331
1877 7 336 329 325 324
1878 8 336 329 325 330
1879 8 336 329 325 331
1880 7 337 329 325 324
1881 8 337 329 325 330
1882 8 337 329 325 331
1883 9 456 452 446 440
1884 10 456 452 446 453
1885 10 456 452 446 454
1886 5 639 633 629 628
1887 6 639 633 629 634
1888 6 639 633 629 635
1889 7 640 633 629 628
1890 8 640 633 629 634
1891 8 640 633 629 635
1892 7 641 633 629 628
1893 8 641 633 629 634
1894 8 641 633 629 635
1895 9 323 319 313 307
1896 10 323 319 313 320
1897 10 323 319 313 321
1898 5 319 313 307 305
1899 6 319 313 307 314
1900 6 319 313 307 315
1901 7 320 313 307 305
1902 8 320 313 307 314
1903 8 320 313 307 315
1904 7 321 313 307 305
1905 8 321 313 307 314
1906 8 321 313 307 315
1907 1 313 307 305 306
1908 2 313 307 305 308
1909 2 313 307 305 309
1910 3 314 307 305 306
1911 4 314 307 305 308
1912 4 314 307 305 309
1913 3 315 307 305 306
1914 4 315 307 305 308
1915 4 315 307 305 309
1916 9 759 753 747 743
1917 10 759 753 747 754
1918 10 759 753 747 755
1919 1 310 306 305 307
1920 2 310 306 305 308
1921 2 310 306 305 309
1922 3 311 306 305 307
1923 4 311 306 305 308
1924 4 311 306 305 309
1925 3 312 306 305 307
1926 4 312 306 305 308
1927 4 312 306 305 309
1928 9 322 316 310 306
1929 10 322 316 310 317
1930 10 322 316 310 318
1931 11 1730 1727 1726 1728
1932 11 1730 1727 1726 1729
1933 11 1731 1727 1726 1728
1934 11 1731 1727 1726 1729
1935 11 1732 1727 1726 1728
1936 11 1732 1727 1726 1729
1937 5 316 310 306 305
1938 6 316 310 306 311
1939 6 316 310 306 312
1940 7 317 310 306 305
1941 8 317 310 306 311
1942 8 317 310 306 312
1943 7 318 310 306 305
1944 8 318 310 306 311
1945 8 318 310 306 312
1946 12 1790 1791 1789 1792
1947 5 506 500 496 495
1948 6 506 500 496 501
1949 6 506 500 496 502
1950 7 507 500 496 495
1951 8 507 500 496 501
1952 8 507 500 496 502
1953 7 508 500 496 495
1954 8 508 500 496 501
1955 8 508 500 496 502
1956 12 1727 1728 1726 1729
1957 1 1127 1123 1122 1124
1958 2 1127 1123 1122 1125
1959 2 1127 1123 1122 1126
1960 3 1128 1123 1122 1124
1961 4 1128 1123 1122 1125
1962 4 1128 1123 1122 1126
1963 3 1129 1123 1122 1124
1964 4 1129 1123 1122 1125
1965 4 1129 1123 1122 1126
1966 12 1839 1840 1838 1841
1967 5 1133 1127 1123 1122
1968 6 1133 1127 1123 1128
1969 6 1133 1127 1123 1129
1970 7 1134 1127 1123 1122
1971 8 1134 1127 1123 1128
1972 8 1134 1127 1123 1129
1973 7 1135 1127 1123 1122
1974 8 1135 1127 1123 1128
1975 8 1135 1127 1123 1129
1976 9 1139 1133 1127 1123
1977 10 1139 1133 1127 1134
1978 10 1139 1133 1127 1135
1979 1 1130 1124 1122 1123
1980 2 1130 1124 1122 1125
1981 2 1130 1124 1122 1126
1982 3 1131 1124 1122 1123
1983 4 1131 1124 1122 1125
1984 4 1131 1124 1122 1126
1985 3 1132 1124 1122 1123
1986 4 1132 1124 1122 1125
1987 4 1132 1124 1122 1126
1988 9 266 262 256 250
1989 10 266 262 256 263
1990 10 266 262 256 264
1991 5 262 256 250 248
1992 6 262 256 250 257
1993 6 262 256 250 258
1994 7 263 256 250 248
1995 8 263 256 250 257
1996 8 263 256 250 258
1997 7 264 256 250 248
1998 8 264 256 250 257
1999 8 264 256 250 258
2000 9 1140 1136 1130 1124
2001 10 1140 1136 1130 1137
2002 10 1140 1136 1130 1138
2003 5 1136 1130 1124 1122
2004 6 1136 1130 1124 1131
2005 6 1136 1130 1124 1132
2006 7 1137 1130 1124 1122
2007 8 1137 1130 1124 1131
2008 8 1137 1130 1124 1132
2009 7 1138 1130 1124 1122
2010 8 1138 1130 1124 1131
2011 8 1138 1130 1124 1132
2012 1 424 420 419 421
2013 2 424 420 419 422
2014 2 424 420 419 423
2015 3 425 420 419 421
2016 4 425 420 419 422
2017 4 425 420 419 423
2018 3 426 420 419 421
2019 4 426 420 419 422
2020 4 426 420 419 423
2021 11 1408 1405 1404 1406
2022 11 1408 1405 1404 1407
2023 11 1409 1405 1404 1406
2024 11 1409 1405 1404 1407
2025 11 1410 1405 1404 1406
2026 11 1410 1405 1404 1407
2027 9 512 506 500 496
2028 10 512 506 500 507
2029 10 512 506 500 508
2030 9 342 338 332 326
2031 10 342 338 332 339
2032 10 342 338 332 340
2033 5 338 332 326 324
2034 6 338 332 326 333
2035 6 338 332 326 334
2036 7 339 332 326 324
2037 8 339 332 326 333
2038 8 339 332 326 334
2039 7 340 332 326 324
2040 8 340 332 326 333
2041 8 340 332 326 334
2042 1 332 326 324 325
2043 2 332 326 324 327
2044 2 332 326 324 328
2045 3 333 326 324 325
2046 4 333 326 324 327
2047 4 333 326 324 328
2048 3 334 326 324 325
2049 4 334 326 324 327
2050 4 334 326 324 328
2051 9 892 886 880 876
2052 10 892 886 880 887
2053 10 892 886 880 888
2054 12 1405 1406 1404 1407
2055 11 1646 1643 1642 1644
2056 11 1646 1643 1642 1645
2057 11 1647 1643 1642 1644
2058 11 1647 1643 1642 1645
2059 11 1648 1643 1642 1644
2060 11 1648 1643 1642 1645
2061 5 1098 1092 1086 1084
2062 6 1098 1092 1086 1093
2063 6 1098 1092 1086 1094
2064 7 1099 1092 1086 1084
2065 8 1099 1092 1086 1093
2066 8 1099 1092 1086 1094
2067 7 1100 1092 1086 1084
2068 8 1100 1092 1086 1093
2069 8 1100 1092 1086 1094
2070 11 1723 1720 1719 1721
2071 11 1723 1720 1719 1722
2072 11 1724 1720 1719 1721
2073 11 1724 1720 1719 1722
2074 11 1725 1720 1719 1721
2075 11 1725 1720 1719 1722
2076 9 1102 1098 1092 1086
2077 10 1102 1098 1092 1099
2078 10 1102 1098 1092 1100
2079 11 1394 1391 1390 1392
2080 11 1394 1391 1390 1393
2081 11 1395 1391 1390 1392
2082 11 1395 1391 1390 1393
2083 11 1396 1391 1390 1392
2084 11 1396 1391 1390 1393
2085 5 1000 994 990 989
2086 6 1000 994 990 995
2087 6 1000 994 990 996
2088 7 1001 994 990 989
2089 8 1001 994 990 995
2090 8 1001 994 990 996
2091 7 1002 994 990 989
2092 8 1002 994 990 995
2093 8 1002 994 990 996
2094 11 1863 1860 1859 1861
2095 11 1863 1860 1859 1862
2096 11 1864 1860 1859 1861
2097 11 1864 1860 1859 1862
2098 11 1865 1860 1859 1861
2099 11 1865 1860 1859 1862
2100 12 1860 1861 1859 1862
2101 5 278 272 268 267
2102 6 278 272 268 273
2103 6 278 272 268 274
2104 7 279 272 268 267
2105 8 279 272 268 273
2106 8 279 272 268 274
2107 7 280 272 268 267
2108 8 280 272 268 273
2109 8 280 272 268 274
2110 5 1342 1336 1332 1331
2111 6 1342 1336 1332 1337
2112 6 1342 1336 1332 1338
2113 7 1343 1336 1332 1331
2114 8 1343 1336 1332 1337
2115 8 1343 1336 1332 1338
2116 7 1344 1336 1332 1331
2117 8 1344 1336 1332 1337
2118 8 1344 1336 1332 1338
2119 9 1348 1342 1336 1332
2120 10 1348 1342 1336 1343
2121 10 1348 1342 1336 1344
2122 1 1336 1332 1331 1333
2123 2 1336 1332 1331 1334
2124 2 1336 1332 1331 1335
2125 3 1337 1332 1331 1333
2126 4 1337 1332 1331 1334
2127 4 1337 1332 1331 1335
2128 3 1338 1332 1331 1333
2129 4 1338 1332 1331 1334
2130 4 1338 1332 1331 1335
2131 12 1643 1644 1642 1645
2132 1 994 990 989 991
2133 2 994 990 989 992
2134 2 994 990 989 993
2135 3 995 990 989 991
2136 4 995 990 989 992
2137 4 995 990 989 993
2138 3 996 990 989 991
2139 4 996 990 989 992
2140 4 996 990 989 993
2141 9 1006 1000 994 990
2142 10 1006 1000 994 1001
2143 10 1006 1000 994 1002
2144 1 272 268 267 269
2145 2 272 268 267 270
2146 2 272 268 267 271
2147 3 273 268 267 269
2148 4 273 268 267 270
2149 4 273 268 267 271
2150 3 274 268 267 269
2151 4 274 268 267 270
2152 4 274 268 267 271
2153 1 633 629 628 630
2154 2 633 629 628 631
2155 2 633 629 628 632
2156 3 634 629 628 630
2157 4 634 629 628 631
2158 4 634 629 628 632
2159 3 635 629 628 630
2160 4 635 629 628 631
2161 4 635 629 628 632
2162 1 918 914 913 915
2163 2 918 914 913 916
2164 2 918 914 913 917
2165 3 919 914 913 915
2166 4 919 914 913 916
2167 4 919 914 913 917
2168 3 920 914 913 915
2169 4 920 914 913 916
2170 4 920 914 913 917
2171 5 981 975 971 970
2172 6 981 975 971 976
2173 6 981 975 971 977
2174 7 982 975 971 970
2175 8 982 975 971 976
2176 8 982 975 971 977
2177 7 983 975 971 970
2178 8 983 975 971 976
2179 8 983 975 971 977
2180 9 987 981 975 971
2181 10 987 981 975 982
2182 10 987 981 975 983
2183 9 874 870 864 858
2184 10 874 870 864 871
2185 10 874 870 864 872
2186 5 870 864 858 856
2187 6 870 864 858 865
2188 6 870 864 858 866
2189 7 871 864 858 856
2190 8 871 864 858 865
2191 8 871 864 858 866
2192 7 872 864 858 856
2193 8 872 864 858 865
2194 8 872 864 858 866
2195 1 975 971 970 972
2196 2 975 971 970 973
2197 2 975 971 970 974
2198 3 976 971 970 972
2199 4 976 971 970 973
2200 4 976 971 970 974
2201 3 977 971 970 972
2202 4 977 971 970 973
2203 4 977 971 970 974
2204 9 988 984 978 972
2205 10 988 984 978 985
2206 10 988 984 978 986
2207 5 984 978 972 970
2208 6 984 978 972 979
2209 6 984 978 972 980
2210 7 985 978 972 970
2211 8 985 978 972 979
2212 8 985 978 972 980
2213 7 986 978 972 970
2214 8 986 978 972 979
2215 8 986 978 972 980
2216 1 978 972 970 971
2217 2 978 972 970 973
2218 2 978 972 970 974
2219 3 979 972 970 971
2220 4 979 972 970 973
2221 4 979 972 970 974
2222 3 980 972 970 971
2223 4 980 972 970 973
2224 4 980 972 970 974
2225 12 1706 1707 1705 1708
2226 11 1793 1790 1789 1791
2227 11 1793 1790 1789 1792
2228 11 1794 1790 1789 1791
2229 11 1794 1790 1789 1792
2230 11 1795 1790 1789 1791
2231 11 1795 1790 1789 1792
2232 9 437 433 427 421
2233 10 437 433 427 434
2234 10 437 433 427 435
2235 12 1783 1784 1782 1785
2236 1 500 496 495 497
2237 2 500 496 495 498
2238 2 500 496 495 499
2239 3 501 496 495 497
2240 4 501 496 495 498
2241 4 501 496 495 499
2242 3 502 496 495 497
2243 4 502 496 495 498
2244 4 502 496 495 499
2245 5 430 424 420 419
2246 6 430 424 420 425
2247 6 430 424 420 426
2248 7 431 424 420 419
2249 8 431 424 420 425
2250 8 431 424 420 426
2251 7 432 424 420 419
2252 8 432 424 420 425
2253 8 432 424 420 426
2254 9 513 509 503 497
2255 10 513 509 503 510
2256 10 513 509 503 511
2257 9 436 430 424 420
2258 10 436 430 424 431
2259 10 436 430 424 432
2260 5 509 503 497 495
2261 6 509 503 497 504
2262 6 509 503 497 505
2263 7 510 503 497 495
2264 8 510 503 497 504
2265 8 510 503 497 505
2266 7 511 503 497 495
2267 8 511 503 497 504
2268 8 511 503 497 505
2269 1 503 497 495 496
2270 2 503 497 495 498
2271 2 503 497 495 499
2272 3 504 497 495 496
2273 4 504 497 495 498
2274 4 504 497 495 499
2275 3 505 497 495 496
2276 4 505 497 495 498
2277 4 505 497 495 499
2278 9 399 395 389 383
2279 10 399 395 389 396
2280 10 399 395 389 397
2281 5 395 389 383 381
2282 6 395 389 383 390
2283 6 395 389 383 391
2284 7 396 389 383 381
2285 8 396 389 383 390
2286 8 396 389 383 391
2287 7 397 389 383 381
2288 8 397 389 383 390
2289 8 397 389 383 391
2290 5 186 180 174 172
2291 6 186 180 174 181
2292 6 186 180 174 182
2293 7 187 180 174 172
2294 8 187 180 174 181
2295 8 187 180 174 182
2296 7 188 180 174 172
2297 8 188 180 174 181
2298 8 188 180 174 182
2299 9 626 620 614 610
2300 10 626 620 614 621
2301 10 626 620 614 622
2302 11 1457 1454 1453 1455
2303 11 1457 1454 1453 1456
2304 11 1458 1454 1453 1455
2305 11 1458 1454 1453 1456
2306 11 1459 1454 1453 1455
2307 11 1459 1454 1453 1456
2308 11 1520 1517 1516 1518
2309 11 1520 1517 1516 1519
2310 11 1521 1517 1516 1518
2311 11 1521 1517 1516 1519
2312 11 1522 1517 1516 1518
2313 11 1522 1517 1516 1519
2314 12 1720 1721 1719 1722
2315 1 275 269 267 268
2316 2 275 269 267 270
2317 2 275 269 267 271
2318 3 276 269 267 268
2319 4 276 269 267 270
2320 4 276 269 267 271
2321 3 277 269 267 268
2322 4 277 269 267 270
2323 4 277 269 267 271
2324 12 1454 1455 1453 1456
2325 1 218 212 210 211
2326 2 218 212 210 213
2327 2 218 212 210 214
2328 3 219 212 210 211
2329 4 219 212 210 213
2330 4 219 212 210 214
2331 3 220 212 210 211
2332 4 220 212 210 213
2333 4 220 212 210 214
2334 1 215 211 210 212
2335 2 215 211 210 213
2336 2 215 211 210 214
2337 3 216 211 210 212
2338 4 216 211 210 213
2339 4 216 211 210 214
2340 3 217 211 210 212
2341 4 217 211 210 213
2342 4 217 211 210 214
2343 5 221 215 211 210
2344 6 221 215 211 216
2345 6 221 215 211 217
2346 7 222 215 211 210
2347 8 222 215 211 216
2348 8 222 215 211 217
2349 7 223 215 211 210
2350 8 223 215 211 216
2351 8 223 215 211 217
2352 9 227 221 215 211
2353 10 227 221 215 222
2354 10 227 221 215 223
2355 5 772 766 762 761
2356 6 772 766 762 767
2357 6 772 766 762 768
2358 7 773 766 762 761
2359 8 773 766 762 767
2360 8 773 766 762 768
2361 7 774 766 762 761
2362 8 774 766 762 767
2363 8 774 766 762 768
2364 12 1818 1819 1817 1820
2365 9 284 278 272 268
2366 10 284 278 272 279
2367 10 284 278 272 280
2368 1 1070 1066 1065 1067
2369 2 1070 1066 1065 1068
2370 2 1070 1066 1065 1069
2371 3 1071 1066 1065 1067
2372 4 1071 1066 1065 1068
2373 4 1071 1066 1065 1069
2374 3 1072 1066 1065 1067
2375 4 1072 1066 1065 1068
2376 4 1072 1066 1065 1069
2377 1 1339 1333 1331 1332
2378 2 1339 1333 1331 1334
2379 2 1339 1333 1331 1335
2380 3 1340 1333 1331 1332
2381 4 1340 1333 1331 1334
2382 4 1340 1333 1331 1335
2383 3 1341 1333 1331 1332
2384 4 1341 1333 1331 1334
2385 4 1341 1333 1331 1335
2386 5 1345 1339 1333 1331
2387 6 1345 1339 1333 1340
2388 6 1345 1339 1333 1341
2389 7 1346 1339 1333 1331
2390 8 1346 1339 1333 1340
2391 8 1346 1339 1333 1341
2392 7 1347 1339 1333 1331
2393 8 1347 1339 1333 1340
2394 8 1347 1339 1333 1341
2395 9 1349 1345 1339 1333
2396 10 1349 1345 1339 1346
2397 10 1349 1345 1339 1347
2398 5 1076 1070 1066 1065
2399 6 1076 1070 1066 1071
2400 6 1076 1070 1066 1072
2401 7 1077 1070 1066 1065
2402 8 1077 1070 1066 1071
2403 8 1077 1070 1066 1072
2404 7 1078 1070 1066 1065
2405 8 1078 1070 1066 1071
2406 8 1078 1070 1066 1072
2407 9 1082 1076 1070 1066
2408 10 1082 1076 1070 1077
2409 10 1082 1076 1070 1078
2410 11 1821 1818 1817 1819
2411 11 1821 1818 1817 1820
2412 11 1822 1818 1817 1819
2413 11 1822 1818 1817 1820
2414 11 1823 1818 1817 1819
2415 11 1823 1818 1817 1820
2416 11 1786 1783 1782 1784
2417 11 1786 1783 1782 1785
2418 11 1787 1783 1782 1784
2419 11 1787 1783 1782 1785
2420 11 1788 1783 1782 1784
2421 11 1788 1783 1782 1785
2422 11 1709 1706 1705 1707
2423 11 1709 1706 1705 1708
2424 11 1710 1706 1705 1707
2425 11 1710 1706 1705 1708
2426 11 1711 1706 1705 1707
2427 11 1711 1706 1705 1708
2428 9 931 927 921 915
2429 10 931 927 921 928
2430 10 931 927 921 929
2431 1 921 915 913 914
2432 2 921 915 913 916
2433 2 921 915 913 917
2434 3 922 915 913 914
2435 4 922 915 913 916
2436 4 922 915 913 917
2437 3 923 915 913 914
2438 4 923 915 913 916
2439 4 923 915 913 917
2440 5 927 921 915 913
2441 6 927 921 915 922
2442 6 927 921 915 923
2443 7 928 921 915 913
2444 8 928 921 915 922
2445 8 928 921 915 923
2446 7 929 921 915 913
2447 8 929 921 915 922
2448 8 929 921 915 923
2449 9 1120 1114 1108 1104
2450 10 1120 1114 1108 1115
2451 10 1120 1114 1108 1116
2452 11 1716 1713 1712 1714
2453 11 1716 1713 1712 1715
2454 11 1717 1713 1712 1714
2455 11 1717 1713 1712 1715
2456 11 1718 1713 1712 1714
2457 11 1718 1713 1712 1715
2458 11 1548 1545 1544 1546
2459 11 1548 1545 1544 1547
2460 11 1549 1545 1544 1546
2461 11 1549 1545 1544 1547
2462 11 1550 1545 1544 1546
2463 11 1550 1545 1544 1547
2464 12 1776 1777 1775 1778
2465 5 490 484 478 476
2466 6 490 484 478 485
2467 6 490 484 478 486
2468 7 491 484 478 476
2469 8 491 484 478 485
2470 8 491 484 478 486
2471 7 492 484 478 476
2472 8 492 484 478 485
2473 8 492 484 478 486
2474 5 31 25 21 20
2475 6 31 25 21 26
2476 6 31 25 21 27
2477 7 32 25 21 20
2478 8 32 25 21 26
2479 8 32 25 21 27
2480 7 33 25 21 20
2481 8 33 25 21 26
2482 8 33 25 21 27
2483 9 132 126 120 116
2484 10 132 126 120 127
2485 10 132 126 120 128
2486 1 484 478 476 477
2487 2 484 478 476 479
2488 2 484 478 476 480
2489 3 485 478 476 477
2490 4 485 478 476 479
2491 4 485 478 476 480
2492 3 486 478 476 477
2493 4 486 478 476 479
2494 4 486 478 476 480
2495 9 494 490 484 478
2496 10 494 490 484 491
2497 10 494 490 484 492
2498 1 481 477 476 478
2499 2 481 477 476 479
2500 2 481 477 476 480
2501 3 482 477 476 478
2502 4 482 477 476 479
2503 4 482 477 476 480
2504 3 483 477 476 478
2505 4 483 477 476 479
2506 4 483 477 476 480
2507 5 487 481 477 476
2508 6 487 481 477 482
2509 6 487 481 477 483
2510 7 488 481 477 476
2511 8 488 481 477 482
2512 8 488 481 477 483
2513 7 489 481 477 476
2514 8 489 481 477 482
2515 8 489 481 477 483
2516 9 493 487 481 477
2517 10 493 487 481 488
2518 10 493 487 481 489
2519 12 1412 1413 1411 1414
2520 11 1415 1412 1411 1413
2521 11 1415 1412 1411 1414
2522 11 1416 1412 1411 1413
2523 11 1416 1412 1411 1414
2524 11 1417 1412 1411 1413
2525 11 1417 1412 1411 1414
2526 5 718 712 706 704
2527 6 718 712 706 713
2528 6 718 712 706 714
2529 7 719 712 706 704
2530 8 719 712 706 713
2531 8 719 712 706 714
2532 7 720 712 706 704
2533 8 720 712 706 713
2534 8 720 712 706 714
2535 5 224 218 212 210
2536 6 224 218 212 219
2537 6 224 218 212 220
2538 7 225 218 212 210
2539 8 225 218 212 219
2540 8 225 218 212 220
2541 7 226 218 212 210
2542 8 226 218 212 219
2543 8 226 218 212 220
2544 1 712 706 704 705
2545 2 712 706 704 707
2546 2 712 706 704 708
2547 3 713 706 704 705
2548 4 713 706 704 707
2549 4 713 706 704 708
2550 3 714 706 704 705
2551 4 714 706 704 707
2552 4 714 706 704 708
2553 9 228 224 218 212
2554 10 228 224 218 225
2555 10 228 224 218 226
2556 5 452 446 440 438
2557 6 452 446 440 447
2558 6 452 446 440 448
2559 7 453 446 440 438
2560 8 453 446 440 447
2561 8 453 446 440 448
2562 7 454 446 440 438
2563 8 454 446 440 447
2564 8 454 446 440 448
2565 9 665 661 655 649
2566 10 665 661 655 662
2567 10 665 661 655 663
2568 5 661 655 649 647
2569 6 661 655 649 656
2570 6 661 655 649 657
2571 7 662 655 649 647
2572 8 662 655 649 656
2573 8 662 655 649 657
2574 7 663 655 649 647
2575 8 663 655 649 656
2576 8 663 655 649 657
2577 12 1587 1588 1586 1589
2578 1 655 649 647 648
2579 2 655 649 647 650
2580 2 655 649 647 651
2581 3 656 649 647 648
2582 4 656 649 647 650
2583 4 656 649 647 651
2584 3 657 649 647 648
2585 4 657 649 647 650
2586 4 657 649 647 651
2587 1 446 440 438 439
2588 2 446 440 438 441
2589 2 446 440 438 442
2590 3 447 440 438 439
2591 4 447 440 438 441
2592 4 447 440 438 442
2593 3 448 440 438 439
2594 4 448 440 438 441
2595 4 448 440 438 442
2596 1 652 648 647 649
2597 2 652 648 647 650
2598 2 652 648 647 651
2599 3 653 648 647 649
2600 4 653 648 647 650
2601 4 653 648 647 651
2602 3 654 648 647 649
2603 4 654 648 647 650
2604 4 654 648 647 651
2605 5 1114 1108 1104 1103
2606 6 1114 1108 1104 1109
2607 6 1114 1108 1104 1110
2608 7 1115 1108 1104 1103
2609 8 1115 1108 1104 1109
2610 8 1115 1108 1104 1110
2611 7 1116 1108 1104 1103
2612 8 1116 1108 1104 1109
2613 8 1116 1108 1104 1110
2614 1 1108 1104 1103 1105
2615 2 1108 1104 1103 1106
2616 2 1108 1104 1103 1107
2617 3 1109 1104 1103 1105
2618 4 1109 1104 1103 1106
2619 4 1109 1104 1103 1107
2620 3 1110 1104 1103 1105
2621 4 1110 1104 1103 1106
2622 4 1110 1104 1103 1107
2623 5 658 652 648 647
2624 6 658 652 648 653
2625 6 658 652 648 654
2626 7 659 652 648 647
2627 8 659 652 648 653
2628 8 659 652 648 654
2629 7 660 652 648 647
2630 8 660 652 648 653
2631 8 660 652 648 654
2632 11 1772 1769 1768 1770
2633 11 1772 1769 1768 1771
2634 11 1773 1769 1768 1770
2635 11 1773 1769 1768 1771
2636 11 1774 1769 1768 1770
2637 11 1774 1769 1768 1771
2638 9 664 658 652 648
2639 10 664 658 652 659
2640 10 664 658 652 660
2641 1 443 439 438 440
2642 2 443 439 438 441
2643 2 443 439 438 442
2644 3 444 439 438 440
2645 4 444 439 438 441
2646 4 444 439 438 442
2647 3 445 439 438 440
2648 4 445 439 438 441
2649 4 445 439 438 442
2650 12 1769 1770 1768 1771
2651 5 449 443 439 438
2652 6 449 443 439 444
2653 6 449 443 439 445
2654 7 450 443 439 438
2655 8 450 443 439 444
2656 8 450 443 439 445
2657 7 451 443 439 438
2658 8 451 443 439 444
2659 8 451 443 439 445
2660 9 1121 1117 1111 1105
2661 10 1121 1117 1111 1118
2662 10 1121 1117 1111 1119
2663 9 760 756 750 744
2664 10 760 756 750 757
2665 10 760 756 750 758
2666 1 750 744 742 743
2667 2 750 744 742 745
2668 2 750 744 742 746
2669 3 751 744 742 743
2670 4 751 744 742 745
2671 4 751 744 742 746
2672 3 752 744 742 743
2673 4 752 744 742 745
2674 4 752 744 742 746
2675 5 756 750 744 742
2676 6 756 750 744 751
2677 6 756 750 744 752
2678 7 757 750 744 742
2679 8 757 750 744 751
2680 8 757 750 744 752
2681 7 758 750 744 742
2682 8 758 750 744 751
2683 8 758 750 744 752
2684 5 848 842 838 837
2685 6 848 842 838 843
2686 6 848 842 838 844
2687 7 849 842 838 837
2688 8 849 842 838 843
2689 8 849 842 838 844
2690 7 850 842 838 837
2691 8 850 842 838 843
2692 8 850 842 838 844
2693 11 1842 1839 1838 1840
2694 11 1842 1839 1838 1841
2695 11 1843 1839 1838 1840
2696 11 1843 1839 1838 1841
2697 11 1844 1839 1838 1840
2698 11 1844 1839 1838 1841
2699 1 842 838 837 839
2700 2 842 838 837 840
2701 2 842 838 837 841
2702 3 843 838 837 839
2703 4 843 838 837 840
2704 4 843 838 837 841
2705 3 844 838 837 839
2706 4 844 838 837 840
2707 4 844 838 837 841
2708 9 854 848 842 838
2709 10 854 848 842 849
2710 10 854 848 842 850
2711 5 164 158 154 153
2712 6 164 158 154 159
2713 6 164 158 154 160
2714 7 165 158 154 153
2715 8 165 158 154 159
2716 8 165 158 154 160
2717 7 166 158 154 153
2718 8 166 158 154 159
2719 8 166 158 154 160
2720 9 1367 1361 1355 1351
2721 10 1367 1361 1355 1362
2722 10 1367 1361 1355 1363
2723 11 1534 1531 1530 1532
2724 11 1534 1531 1530 1533
2725 11 1535 1531 1530 1532
2726 11 1535 1531 1530 1533
2727 11 1536 1531 1530 1532
2728 11 1536 1531 1530 1533
2729 12 1531 1532 1530 1533
2730 9 170 164 158 154
2731 10 170 164 158 165
2732 10 170 164 158 166
2733 5 1361 1355 1351 1350
2734 6 1361 1355 1351 1356
2735 6 1361 1355 1351 1357
2736 7 1362 1355 1351 1350
2737 8 1362 1355 1351 1356
2738 8 1362 1355 1351 1357
2739 7 1363 1355 1351 1350
2740 8 1363 1355 1351 1356
2741 8 1363 1355 1351 1357
2742 1 1355 1351 1350 1352
2743 2 1355 1351 1350 1353
2744 2 1355 1351 1350 1354
2745 3 1356 1351 1350 1352
2746 4 1356 1351 1350 1353
2747 4 1356 1351 1350 1354
2748 3 1357 1351 1350 1352
2749 4 1357 1351 1350 1353
2750 4 1357 1351 1350 1354
2751 9 1368 1364 1358 1352
2752 10 1368 1364 1358 1365
2753 10 1368 1364 1358 1366
2754 1 1358 1352 1350 1351
2755 2 1358 1352 1350 1353
2756 2 1358 1352 1350 1354
2757 3 1359 1352 1350 1351
2758 4 1359 1352 1350 1353
2759 4 1359 1352 1350 1354
2760 3 1360 1352 1350 1351
2761 4 1360 1352 1350 1353
2762 4 1360 1352 1350 1354
2763 1 690 686 685 687
2764 2 690 686 685 688
2765 2 690 686 685 689
2766 3 691 686 685 687
2767 4 691 686 685 688
2768 4 691 686 685 689
2769 3 692 686 685 687
2770 4 692 686 685 688
2771 4 692 686 685 689
2772 1 348 344 343 345
2773 2 348 344 343 346
2774 2 348 344 343 347
2775 3 349 344 343 345
2776 4 349 344 343 346
2777 4 349 344 343 347
2778 3 350 344 343 345
2779 4 350 344 343 346
2780 4 350 344 343 347
2781 5 354 348 344 343
2782 6 354 348 344 349
2783 6 354 348 344 350
2784 7 355 348 344 343
2785 8 355 348 344 349
2786 8 355 348 344 350
2787 7 356 348 344 343
2788 8 356 348 344 349
2789 8 356 348 344 350
2790 12 1475 1476 1474 1477
2791 5 1364 1358 1352 1350
2792 6 1364 1358 1352 1359
2793 6 1364 1358 1352 1360
2794 7 1365 1358 1352 1350
2795 8 1365 1358 1352 1359
2796 8 1365 1358 1352 1360
2797 7 1366 1358 1352 1350
2798 8 1366 1358 1352 1359
2799 8 1366 1358 1352 1360
2800 9 360 354 348 344
2801 10 360 354 348 355
2802 10 360 354 348 356
2803 11 1478 1475 1474 1476
2804 11 1478 1475 1474 1477
2805 11 1479 1475 1474 1476
2806 11 1479 1475 1474 1477
2807 11 1480 1475 1474 1476
2808 11 1480 1475 1474 1477
2809 11 1464 1461 1460 1462
2810 11 1464 1461 1460 1463
2811 11 1465 1461 1460 1462
2812 11 1465 1461 1460 1463
2813 11 1466 1461 1460 1462
2814 11 1466 1461 1460 1463
2815 12 1461 1462 1460 1463
2816 5 468 462 458 457
2817 6 468 462 458 463
2818 6 468 462 458 464
2819 7 469 462 458 457
2820 8 469 462 458 463
2821 8 469 462 458 464
2822 7 470 462 458 457
2823 8 470 462 458 463
2824 8 470 462 458 464
2825 9 474 468 462 458
2826 10 474 468 462 469
2827 10 474 468 462 470
2828 1 1111 1105 1103 1104
2829 2 1111 1105 1103 1106
2830 2 1111 1105 1103 1107
2831 3 1112 1105 1103 1104
2832 4 1112 1105 1103 1106
2833 4 1112 1105 1103 1107
2834 3 1113 1105 1103 1104
2835 4 1113 1105 1103 1106
2836 4 1113 1105 1103 1107
2837 5 1117 1111 1105 1103
2838 6 1117 1111 1105 1112
2839 6 1117 1111 1105 1113
2840 7 1118 1111 1105 1103
2841 8 1118 1111 1105 1112
2842 8 1118 1111 1105 1113
2843 7 1119 1111 1105 1103
2844 8 1119 1111 1105 1112
2845 8 1119 1111 1105 1113
2846 1 462 458 457 459
2847 2 462 458 457 460
2848 2 462 458 457 461
2849 3 463 458 457 459
2850 4 463 458 457 460
2851 4 463 458 457 461
2852 3 464 458 457 459
2853 4 464 458 457 460
2854 4 464 458 457 461
2855 5 471 465 459 457
2856 6 471 465 459 466
2857 6 471 465 459 467
2858 7 472 465 459 457
2859 8 472 465 459 466
2860 8 472 465 459 467
2861 7 473 465 459 457
2862 8 473 465 459 466
2863 8 473 465 459 467
2864 1 465 459 457 458
2865 2 465 459 457 460
2866 2 465 459 457 461
2867 3 466 459 457 458
2868 4 466 459 457 460
2869 4 466 459 457 461
2870 3 467 459 457 458
2871 4 467 459 457 460
2872 4 467 459 457 461
2873 9 475 471 465 459
2874 10 475 471 465 472
2875 10 475 471 465 473
2876 11 1807 1804 1803 1805
2877 11 1807 1804 1803 1806
2878 11 1808 1804 1803 1805
2879 11 1808 1804 1803 1806
2880 11 1809 1804 1803 1805
2881 11 1809 1804 1803 1806
2882 1 158 154 153 155
2883 2 158 154 153 156
2884 2 158 154 153 157
2885 3 159 154 153 155
2886 4 159 154 153 156
2887 4 159 154 153 157
2888 3 160 154 153 155
2889 4 160 154 153 156
2890 4 160 154 153 157
2891 12 1433 1434 1432 1435
2892 11 1436 1433 1432 1434
2893 11 1436 1433 1432 1435
2894 11 1437 1433 1432 1434
2895 11 1437 1433 1432 1435
2896 11 1438 1433 1432 1434
2897 11 1438 1433 1432 1435
2898 5 585 579 573 571
2899 6 585 579 573 580
2900 6 585 579 573 581
2901 7 586 579 573 571
2902 8 586 579 573 580
2903 8 586 579 573 581
2904 7 587 579 573 571
2905 8 587 579 573 580
2906 8 587 579 573 581
2907 1 579 573 571 572
2908 2 579 573 571 574
2909 2 579 573 571 575
2910 3 580 573 571 572
2911 4 580 573 571 574
2912 4 580 573 571 575
2913 3 581 573 571 572
2914 4 581 573 571 574
2915 4 581 573 571 575
2916 9 589 585 579 573
2917 10 589 585 579 586
2918 10 589 585 579 587
2919 1 576 572 571 573
2920 2 576 572 571 574
2921 2 576 572 571 575
2922 3 577 572 571 573
2923 4 577 572 571 574
2924 4 577 572 571 575
2925 3 578 572 571 573
2926 4 578 572 571 574
2927 4 578 572 571 575
2928 9 588 582 576 572
2929 10 588 582 576 583
2930 10 588 582 576 584
2931 5 582 576 572 571
2932 6 582 576 572 577
2933 6 582 576 572 578
2934 7 583 576 572 571
2935 8 583 576 572 577
2936 8 583 576 572 578
2937 7 584 576 572 571
2938 8 584 576 572 577
2939 8 584 576 572 578
2940 1 864 858 856 857
2941 2 864 858 856 859
2942 2 864 858 856 860
2943 3 865 858 856 857
2944 4 865 858 856 859
2945 4 865 858 856 860
2946 3 866 858 856 857
2947 4 866 858 856 859
2948 4 866 858 856 860
2949 1 256 250 248 249
2950 2 256 250 248 251
2951 2 256 250 248 252
2952 3 257 250 248 249
2953 4 257 250 248 251
2954 4 257 250 248 252
2955 3 258 250 248 249
2956 4 258 250 248 251
2957 4 258 250 248 252
2958 9 265 259 253 249
2959 10 265 259 253 260
2960 10 265 259 253 261
2961 5 259 253 249 248
2962 6 259 253 249 254
2963 6 259 253 249 255
2964 7 260 253 249 248
2965 8 260 253 249 254
2966 8 260 253 249 255
2967 7 261 253 249 248
2968 8 261 253 249 254
2969 8 261 253 249 255
2970 1 253 249 248 250
2971 2 253 249 248 251
2972 2 253 249 248 252
2973 3 254 249 248 250
2974 4 254 249 248 251
2975 4 254 249 248 252
2976 3 255 249 248 250
2977 4 255 249 248 251
2978 4 255 249 248 252
2979 9 836 832 826 820
2980 10 836 832 826 833
2981 10 836 832 826 834
2982 11 1429 1426 1425 1427
2983 11 1429 1426 1425 1428
2984 11 1430 1426 1425 1427
2985 11 1430 1426 1425 1428
2986 11 1431 1426 1425 1427
2987 11 1431 1426 1425 1428
2988 12 1426 1427 1425 1428
2989 5 832 826 820 818
2990 6 832 826 820 827
2991 6 832 826 820 828
2992 7 833 826 820 818
2993 8 833 826 820 827
2994 8 833 826 820 828
2995 7 834 826 820 818
2996 8 834 826 820 827
2997 8 834 826 820 828
2998 11 1779 1776 1775 1777
2999 11 1779 1776 1775 1778
3000 11 1780 1776 1775 1777
3001 11 1780 1776 1775 1778
3002 11 1781 1776 1775 1777
3003 11 1781 1776 1775 1778
3004 5 886 880 876 875
3005 6 886 880 876 881
3006 6 886 880 876 882
3007 7 887 880 876 875
3008 8 887 880 876 881
3009 8 887 880 876 882
3010 7 888 880 876 875
3011 8 888 880 876 881
3012 8 888 880 876 882
3013 11 1443 1440 1439 1441
3014 11 1443 1440 1439 1442
3015 11 1444 1440 1439 1441
3016 11 1444 1440 1439 1442
3017 11 1445 1440 1439 1441
3018 11 1445 1440 1439 1442
3019 1 826 820 818 819
3020 2 826 820 818 821
3021 2 826 820 818 822
3022 3 827 820 818 819
3023 4 827 820 818 821
3024 4 827 820 818 822
3025 3 828 820 818 819
3026 4 828 820 818 821
3027 4 828 820 818 822
3028 1 880 876 875 877
3029 2 880 876 875 878
3030 2 880 876 875 879
3031 3 881 876 875 877
3032 4 881 876 875 878
3033 4 881 876 875 879
3034 3 882 876 875 877
3035 4 882 876 875 878
3036 4 882 876 875 879
3037 1 883 877 875 876
3038 2 883 877 875 878
3039 2 883 877 875 879
3040 3 884 877 875 876
3041 4 884 877 875 878
3042 4 884 877 875 879
3043 3 885 877 875 876
3044 4 885 877 875 878
3045 4 885 877 875 879
3046 9 189 183 177 173
3047 10 189 183 177 184
3048 10 189 183 177 185
3049 5 889 883 877 875
3050 6 889 883 877 884
3051 6 889 883 877 885
3052 7 890 883 877 875
3053 8 890 883 877 884
3054 8 890 883 877 885
3055 7 891 883 877 875
3056 8 891 883 877 884
3057 8 891 883 877 885
3058 9 893 889 883 877
3059 10 893 889 883 890
3060 10 893 889 883 891
3061 1 1092 1086 1084 1085
3062 2 1092 1086 1084 1087
3063 2 1092 1086 1084 1088
3064 3 1093 1086 1084 1085
3065 4 1093 1086 1084 1087
3066 4 1093 1086 1084 1088
3067 3 1094 1086 1084 1085
3068 4 1094 1086 1084 1087
3069 4 1094 1086 1084 1088
3070 12 1440 1441 1439 1442
3071 9 645 639 633 629
3072 10 645 639 633 640
3073 10 645 639 633 641
3074 12 1398 1399 1397 1400
3075 11 1401 1398 1397 1399
3076 11 1401 1398 1397 1400
3077 11 1402 1398 1397 1399
3078 11 1402 1398 1397 1400
3079 11 1403 1398 1397 1399
3080 11 1403 1398 1397 1400
3081 1 636 630 628 629
3082 2 636 630 628 631
3083 2 636 630 628 632
3084 3 637 630 628 629
3085 4 637 630 628 631
3086 4 637 630 628 632
3087 3 638 630 628 629
3088 4 638 630 628 631
3089 4 638 630 628 632
3090 5 642 636 630 628
3091 6 642 636 630 637
3092 6 642 636 630 638
3093 7 643 636 630 628
3094 8 643 636 630 637
3095 8 643 636 630 638
3096 7 644 636 630 628
3097 8 644 636 630 637
3098 8 644 636 630 638
3099 9 646 642 636 630
3100 10 646 642 636 643
3101 10 646 642 636 644
3102 11 1625 1622 1621 1623
3103 11 1625 1622 1621 1624
3104 11 1626 1622 1621 1623
3105 11 1626 1622 1621 1624
3106 11 1627 1622 1621 1623
3107 11 1627 1622 1621 1624
3108 12 1622 1623 1621 1624
3109 5 433 427 421 419
3110 6 433 427 421 428
3111 6 433 427 421 429
3112 7 434 427 421 419
3113 8 434 427 421 428
3114 8 434 427 421 429
3115 7 435 427 421 419
3116 8 435 427 421 428
3117 8 435 427 421 429
3118 11 1527 1524 1523 1525
3119 11 1527 1524 1523 1526
3120 11 1528 1524 1523 1525
3121 11 1528 1524 1523 1526
3122 11 1529 1524 1523 1525
3123 11 1529 1524 1523 1526
3124 9 1196 1190 1184 1180
3125 10 1196 1190 1184 1191
3126 10 1196 1190 1184 1192
3127 11 1702 1699 1698 1700
3128 11 1702 1699 1698 1701
3129 11 1703 1699 1698 1700
3130 11 1703 1699 1698 1701
3131 11 1704 1699 1698 1700
3132 11 1704 1699 1698 1701
3133 5 392 386 382 381
3134 6 392 386 382 387
3135 6 392 386 382 388
3136 7 393 386 382 381
3137 8 393 386 382 387
3138 8 393 386 382 388
3139 7 394 386 382 381
3140 8 394 386 382 387
3141 8 394 386 382 388
3142 9 398 392 386 382
3143 10 398 392 386 393
3144 10 398 392 386 394
3145 1 386 382 381 383
3146 2 386 382 381 384
3147 2 386 382 381 385
3148 3 387 382 381 383
3149 4 387 382 381 384
3150 4 387 382 381 385
3151 3 388 382 381 383
3152 4 388 382 381 384
3153 4 388 382 381 385
3154 5 1190 1184 1180 1179
3155 6 1190 1184 1180 1185
3156 6 1190 1184 1180 1186
3157 7 1191 1184 1180 1179
3158 8 1191 1184 1180 1185
3159 8 1191 1184 1180 1186
3160 7 1192 1184 1180 1179
3161 8 1192 1184 1180 1185
3162 8 1192 1184 1180 1186
3163 12 1489 1490 1488 1491
3164 12 1699 1700 1698 1701
3165 1 427 421 419 420
3166 2 427 421 419 422
3167 2 427 421 419 423
3168 3 428 421 419 420
3169 4 428 421 419 422
3170 4 428 421 419 423
3171 3 429 421 419 420
3172 4 429 421 419 422
3173 4 429 421 419 423
3174 1 389 383 381 382
3175 2 389 383 381 384
3176 2 389 383 381 385
3177 3 390 383 381 382
3178 4 390 383 381 384
3179 4 390 383 381 385
3180 3 391 383 381 382
3181 4 391 383 381 384
3182 4 391 383 381 385
3183 11 1450 1447 1446 1448
3184 11 1450 1447 1446 1449
3185 11 1451 1447 1446 1448
3186 11 1451 1447 1446 1449
3187 11 1452 1447 1446 1448
3188 11 1452 1447 1446 1449
3189 12 1447 1448 1446 1449
3190 1 693 687 685 686
3191 2 693 687 685 688
3192 2 693 687 685 689
3193 3 694 687 685 686
3194 4 694 687 685 688
3195 4 694 687 685 689
3196 3 695 687 685 686
3197 4 695 687 685 688
3198 4 695 687 685 689
3199 5 699 693 687 685
3200 6 699 693 687 694
3201 6 699 693 687 695
3202 7 700 693 687 685
3203 8 700 693 687 694
3204 8 700 693 687 695
3205 7 701 693 687 685
3206 8 701 693 687 694
3207 8 701 693 687 695
3208 5 281 275 269 267
3209 6 281 275 269 276
3210 6 281 275 269 277
3211 7 282 275 269 267
3212 8 282 275 269 276
3213 8 282 275 269 277
3214 7 283 275 269 267
3215 8 283 275 269 276
3216 8 283 275 269 277
3217 9 1101 1095 1089 1085
3218 10 1101 1095 1089 1096
3219 10 1101 1095 1089 1097
3220 5 1095 1089 1085 1084
3221 6 1095 1089 1085 1090
3222 6 1095 1089 1085 1091
3223 7 1096 1089 1085 1084
3224 8 1096 1089 1085 1090
3225 8 1096 1089 1085 1091
3226 7 1097 1089 1085 1084
3227 8 1097 1089 1085 1090
3228 8 1097 1089 1085 1091
3229 1 1089 1085 1084 1086
3230 2 1089 1085 1084 1087
3231 2 1089 1085 1084 1088
3232 3 1090 1085 1084 1086
3233 4 1090 1085 1084 1087
3234 4 1090 1085 1084 1088
3235 3 1091 1085 1084 1086
3236 4 1091 1085 1084 1087
3237 4 1091 1085 1084 1088
3238 9 285 281 275 269
3239 10 285 281 275 282
3240 10 285 281 275 283
3241 9 703 699 693 687
3242 10 703 699 693 700
3243 10 703 699 693 701
3244 5 1174 1168 1162 1160
3245 6 1174 1168 1162 1169
3246 6 1174 1168 1162 1170
3247 7 1175 1168 1162 1160
3248 8 1175 1168 1162 1169
3249 8 1175 1168 1162 1170
3250 7 1176 1168 1162 1160
3251 8 1176 1168 1162 1169
3252 8 1176 1168 1162 1170
3253 9 1178 1174 1168 1162
3254 10 1178 1174 1168 1175
3255 10 1178 1174 1168 1176
3256 12 1468 1469 1467 1470
3257 5 851 845 839 837
3258 6 851 845 839 846
3259 6 851 845 839 847
3260 7 852 845 839 837
3261 8 852 845 839 846
3262 8 852 845 839 847
3263 7 853 845 839 837
3264 8 853 845 839 846
3265 8 853 845 839 847
3266 1 1168 1162 1160 1161
3267 2 1168 1162 1160 1163
3268 2 1168 1162 1160 1164
3269 3 1169 1162 1160 1161
3270 4 1169 1162 1160 1163
3271 4 1169 1162 1160 1164
3272 3 1170 1162 1160 1161
3273 4 1170 1162 1160 1163
3274 4 1170 1162 1160 1164
3275 11 1765 1762 1761 1763
3276 11 1765 1762 1761 1764
3277 11 1766 1762 1761 1763
3278 11 1766 1762 1761 1764
3279 11 1767 1762 1761 1763
3280 11 1767 1762 1761 1764
3281 1 1165 1161 1160 1162
3282 2 1165 1161 1160 1163
3283 2 1165 1161 1160 1164
3284 3 1166 1161 1160 1162
3285 4 1166 1161 1160 1163
3286 4 1166 1161 1160 1164
3287 3 1167 1161 1160 1162
3288 4 1167 1161 1160 1163
3289 4 1167 1161 1160 1164
3290 9 1177 1171 1165 1161
3291 10 1177 1171 1165 1172
3292 10 1177 1171 1165 1173
3293 12 1762 1763 1761 1764
3294 5 1171 1165 1161 1160
3295 6 1171 1165 1161 1166
3296 6 1171 1165 1161 1167
3297 7 1172 1165 1161 1160
3298 8 1172 1165 1161 1166
3299 8 1172 1165 1161 1167
3300 7 1173 1165 1161 1160
3301 8 1173 1165 1161 1166
3302 8 1173 1165 1161 1167
3303 12 1608 1609 1607 1610
3304 11 1632 1629 1628 1630
3305 11 1632 1629 1628 1631
3306 11 1633 1629 1628 1630
3307 11 1633 1629 1628 1631
3308 11 1634 1629 1628 1630
3309 11 1634 1629 1628 1631
3310 1 25 21 20 22
3311 2 25 21 20 23
3312 2 25 21 20 24
3313 3 26 21 20 22
3314 4 26 21 20 23
3315 4 26 21 20 24
3316 3 27 21 20 22
3317 4 27 21 20 23
3318 4 27 21 20 24
3319 1 180 174 172 173
3320 2 180 174 172 175
3321 2 180 174 172 176
3322 3 181 174 172 173
3323 4 181 174 172 175
3324 4 181 174 172 176
3325 3 182 174 172 173
3326 4 182 174 172 175
3327 4 182 174 172 176
3328 1 1184 1180 1179 1181
3329 2 1184 1180 1179 1182
3330 2 1184 1180 1179 1183
3331 3 1185 1180 1179 1181
3332 4 1185 1180 1179 1182
3333 4 1185 1180 1179 1183
3334 3 1186 1180 1179 1181
3335 4 1186 1180 1179 1182
3336 4 1186 1180 1179 1183
3337 5 1193 1187 1181 1179
3338 6 1193 1187 1181 1188
3339 6 1193 1187 1181 1189
3340 7 1194 1187 1181 1179
3341 8 1194 1187 1181 1188
3342 8 1194 1187 1181 1189
3343 7 1195 1187 1181 1179
3344 8 1195 1187 1181 1188
3345 8 1195 1187 1181 1189
3346 9 37 31 25 21
3347 10 37 31 25 32
3348 10 37 31 25 33
3349 1 1187 1181 1179 1180
3350 2 1187 1181 1179 1182
3351 2 1187 1181 1179 1183
3352 3 1188 1181 1179 1180
3353 4 1188 1181 1179 1182
3354 4 1188 1181 1179 1183
3355 3 1189 1181 1179 1180
3356 4 1189 1181 1179 1182
3357 4 1189 1181 1179 1183
3358 9 38 34 28 22
3359 10 38 34 28 35
3360 10 38 34 28 36
3361 5 34 28 22 20
3362 6 34 28 22 29
3363 6 34 28 22 30
3364 7 35 28 22 20
3365 8 35 28 22 29
3366 8 35 28 22 30
3367 7 36 28 22 20
3368 8 36 28 22 29
3369 8 36 28 22 30
3370 11 1492 1489 1488 1490
3371 11 1492 1489 1488 1491
3372 11 1493 1489 1488 1490
3373 11 1493 1489 1488 1491
3374 11 1494 1489 1488 1490
3375 11 1494 1489 1488 1491
3376 12 1713 1714 1712 1715
3377 1 28 22 20 21
3378 2 28 22 20 23
3379 2 28 22 20 24
3380 3 29 22 20 21
3381 4 29 22 20 23
3382 4 29 22 20 24
3383 3 30 22 20 21
3384 4 30 22 20 23
3385 4 30 22 20 24
3386 9 171 167 161 155
3387 10 171 167 161 168
3388 10 171 167 161 169
3389 1 408 402 400 401
3390 2 408 402 400 403
3391 2 408 402 400 404
3392 3 409 402 400 401
3393 4 409 402 400 403
3394 4 409 402 400 404
3395 3 410 402 400 401
3396 4 410 402 400 403
3397 4 410 402 400 404
3398 5 167 161 155 153
3399 6 167 161 155 162
3400 6 167 161 155 163
3401 7 168 161 155 153
3402 8 168 161 155 162
3403 8 168 161 155 163
3404 7 169 161 155 153
3405 8 169 161 155 162
3406 8 169 161 155 163
3407 5 411 405 401 400
3408 6 411 405 401 406
3409 6 411 405 401 407
3410 7 412 405 401 400
3411 8 412 405 401 406
3412 8 412 405 401 407
3413 7 413 405 401 400
3414 8 413 405 401 406
3415 8 413 405 401 407
3416 9 418 414 408 402
3417 10 418 414 408 415
3418 10 418 414 408 416
3419 1 405 401 400 402
3420 2 405 401 400 403
3421 2 405 401 400 404
3422 3 406 401 400 402
3423 4 406 401 400 403
3424 4 406 401 400 404
3425 3 407 401 400 402
3426 4 407 401 400 403
3427 4 407 401 400 404
3428 9 417 411 405 401
3429 10 417 411 405 412
3430 10 417 411 405 413
3431 5 414 408 402 400
3432 6 414 408 402 409
3433 6 414 408 402 410
3434 7 415 408 402 400
3435 8 415 408 402 409
3436 8 415 408 402 410
3437 7 416 408 402 400
3438 8 416 408 402 409
3439 8 416 408 402 410
3440 12 1545 1546 1544 1547
3441 11 1590 1587 1586 1588
3442 11 1590 1587 1586 1589
3443 11 1591 1587 1586 1588
3444 11 1591 1587 1586 1589
3445 11 1592 1587 1586 1588
3446 11 1592 1587 1586 1589
3447 12 1741 1742 1740 1743
3448 11 1744 1741 1740 1742
3449 11 1744 1741 1740 1743
3450 11 1745 1741 1740 1742
3451 11 1745 1741 1740 1743
3452 11 1746 1741 1740 1742
3453 11 1746 1741 1740 1743
3454 9 76 72 66 60
3455 10 76 72 66 73
3456 10 76 72 66 74
3457 5 72 66 60 58
3458 6 72 66 60 67
3459 6 72 66 60 68
3460 7 73 66 60 58
3461 8 73 66 60 67
3462 8 73 66 60 68
3463 7 74 66 60 58
3464 8 74 66 60 67
3465 8 74 66 60 68
3466 5 69 63 59 58
3467 6 69 63 59 64
3468 6 69 63 59 65
3469 7 70 63 59 58
3470 8 70 63 59 64
3471 8 70 63 59 65
3472 7 71 63 59 58
3473 8 71 63 59 64
3474 8 71 63 59 65
3475 1 63 59 58 60
3476 2 63 59 58 61
3477 2 63 59 58 62
3478 3 64 59 58 60
3479 4 64 59 58 61
3480 4 64 59 58 62
3481 3 65 59 58 60
3482 4 65 59 58 61
3483 4 65 59 58 62
3484 9 75 69 63 59
3485 10 75 69 63 70
3486 10 75 69 63 71
3487 1 66 60 58 59
3488 2 66 60 58 61
3489 2 66 60 58 62
3490 3 67 60 58 59
3491 4 67 60 58 61
3492 4 67 60 58 62
3493 3 68 60 58 59
3494 4 68 60 58 61
3495 4 68 60 58 62
3496 1 845 839 837 838
3497 2 845 839 837 840
3498 2 845 839 837 841
3499 3 846 839 837 838
3500 4 846 839 837 840
3501 4 846 839 837 841
3502 3 847 839 837 838
3503 4 847 839 837 840
3504 4 847 839 837 841
3505 9 855 851 845 839
3506 10 855 851 845 852
3507 10 855 851 845 853
3508 1 823 819 818 820
3509 2 823 819 818 821
3510 2 823 819 818 822
3511 3 824 819 818 820
3512 4 824 819 818 821
3513 4 824 819 818 822
3514 3 825 819 818 820
3515 4 825 819 818 821
3516 4 825 819 818 822
3517 5 183 177 173 172
3518 6 183 177 173 178
3519 6 183 177 173 179
3520 7 184 177 173 172
3521 8 184 177 173 178
3522 8 184 177 173 179
3523 7 185 177 173 172
3524 8 185 177 173 178
3525 8 185 177 173 179
3526 9 209 205 199 193
3527 10 209 205 199 206
3528 10 209 205 199 207
