LAMMPS (10 Dec 2025)
OMP_NUM_THREADS environment is not set. Defaulting to 1 thread.
  using 1 OpenMP thread(s) per MPI task
# created by fftool

units real
boundary p p p

atom_style full
bond_style harmonic
angle_style harmonic
dihedral_style opls

special_bonds lj/coul 0.0 0.0 0.5

# remove hybrid if not necessary
pair_style hybrid lj/cut/coul/long 10.0 10.0
pair_modify mix geometric tail yes
read_data data.lmp
Reading data file ...
  orthogonal box = (0 0 0) to (36.16 36.16 36.16)
  1 by 1 by 2 MPI processor grid
  reading atoms ...
  2736 atoms
  scanning bonds ...
  1 = max bonds/atom
  scanning angles ...
  6 = max angles/atom
  scanning dihedrals ...
  9 = max dihedrals/atom
  orthogonal box = (0 0 0) to (36.16 36.16 36.16)
  1 by 1 by 2 MPI processor grid
  reading bonds ...
  2304 bonds
  reading angles ...
  3240 angles
  reading dihedrals ...
  3528 dihedrals
Finding 1-2 1-3 1-4 neighbors ...
  special bond factors lj:    0        0        0.5     
  special bond factors coul:  0        0        0.5     
     4 = max # of 1-2 neighbors
     6 = max # of 1-3 neighbors
    12 = max # of 1-4 neighbors
    16 = max # of special neighbors
  special bonds CPU = 0.003 seconds
  read_data CPU = 0.348 seconds
# read_restart restart1.lmp

kspace_style pppm 1.0e-5

# remove pair style if not using hybrid
pair_coeff    1    1 lj/cut/coul/long     0.170000     3.250000  # N1 N1
pair_coeff    2    2 lj/cut/coul/long     0.065999     3.500000  # C1ND C1ND
pair_coeff    3    3 lj/cut/coul/long     0.000000     0.000000  # HN HN
pair_coeff    4    4 lj/cut/coul/long     0.065999     3.500000  # CTOD CTOD
pair_coeff    5    5 lj/cut/coul/long     0.030000     2.500000  # H1N H1N
pair_coeff    6    6 lj/cut/coul/long     0.170000     3.120000  # OH OH
pair_coeff    7    7 lj/cut/coul/long     0.030000     2.500000  # H1O H1O
pair_coeff    8    8 lj/cut/coul/long     0.000000     1.000000  # HO HO
pair_coeff    9    9 lj/cut/coul/long     0.105000     3.750000  # CO2 CO2
pair_coeff   10   10 lj/cut/coul/long     0.065999     3.500000  # CTA CTA
pair_coeff   11   11 lj/cut/coul/long     0.210000     2.960000  # O2 O2
pair_coeff   12   12 lj/cut/coul/long     0.030000     2.500000  # HC HC
pair_coeff   13   13 lj/cut/coul/long     0.000000     1.000000  # Hw Hw
pair_coeff   14   14 lj/cut/coul/long     0.155425     3.165500  # Ow Ow

# minimize 1.0e-4 1.0e-6 100 1000
# reset_timestep 0

fix SHAKE all shake 0.0001 20 0 b 2 4 6 9
Finding SHAKE clusters ...
     144 = # of size 2 clusters
     648 = # of size 3 clusters
      72 = # of size 4 clusters
       0 = # of frozen angles
  find clusters CPU = 0.015 seconds

neighbor 2.0 bin
neigh_modify delay 0 every 1 check yes








#fix VAVG all ave/time 10 1000 50000 v_vinst

# ---------------------------------------------------------------------------
# RENEU 2026 simulation protocol (stage2 M5 diethanolammonium acetate)
# 1 minimise  2 NVT relaxation  3 NPT equilibration  4 NPT production
# ---------------------------------------------------------------------------
timestep 1.0

variable TK      equal 300.0
variable PBAR    equal 1.0
variable NVTRUN  equal 20000
variable EQRUN   equal 100000
variable PRODRUN equal 200000

variable dens equal density
variable vol  equal vol

thermo 1000
thermo_style custom step temp press vol v_dens pe etotal

# --- 1. energy minimisation ------------------------------------------------
print "RENEU >>> stage 1 of 4: energy minimisation"
RENEU >>> stage 1 of 4: energy minimisation
minimize 1.0e-4 1.0e-6 10000 100000
PPPM initialization ...
  using 12-bit tables for long-range coulomb
  G vector (1/distance) = 0.29351621
  grid = 27 27 27
  stencil order = 5
  estimated absolute RMS force accuracy = 0.0027693832
  estimated relative force accuracy = 8.3399153e-06
  using double precision FFTW3
  3d grid and FFT values/proc = 23120 10206
Generated 91 of 91 mixed pair_coeff terms from geometric mixing rule
WARNING: Using fix shake with minimization.
  Substituting constraints with harmonic restraint forces using kbond=1987206.7 (src/RIGID/fix_shake.cpp:397)
Neighbor list info ...
  update: every = 1 steps, delay = 0 steps, check = yes
  max neighbors/atom: 2000, page size: 100000
  master list distance cutoff = 12
  ghost atom cutoff = 12
  binsize = 6, bins = 7 7 7
  1 neighbor lists, perpetual/occasional/extra = 1 0 0
  (1) pair lj/cut/coul/long, perpetual
      attributes: half, newton on
      pair build: half/bin/newton
      stencil: half/bin/3d
      bin: standard
Per MPI rank memory allocation (min/avg/max) = 17.33 | 17.36 | 17.39 Mbytes
   Step          Temp          Press          Volume         v_dens         PotEng         TotEng    
         0   0             -11892311       47280.849      0.59993014     529265.55      529265.55    
        11   0             -142769.41      47280.849      0.59993014    -2651.3557     -2651.3557    
Loop time of 2.3886 on 2 procs for 11 steps with 2736 atoms

86.5% CPU use with 2 MPI tasks x 1 OpenMP threads

Minimization stats:
  Stopping criterion = energy tolerance
  Energy initial, next-to-last, final = 
       529265.54734704   -2651.3227073091  -2651.35571221817
  Force two-norm initial, final = 2834199.6 26999.746
  Force max component initial, final = 133533.76 1271.3855
  Final line search alpha, max atom move = 9.829392e-06 0.012496946
  Iterations, force evaluations = 11 51

MPI task timing breakdown:
Section |  min time  |  avg time  |  max time  |%varavg| %total
---------------------------------------------------------------
Pair    | 1.2207     | 1.31       | 1.3993     |   7.8 | 54.84
Bond    | 0.060523   | 0.067015   | 0.073507   |   2.5 |  2.81
Kspace  | 0.88039    | 0.95972    | 1.0391     |   8.1 | 40.18
Neigh   | 0          | 0          | 0          |   0.0 |  0.00
Comm    | 0.019969   | 0.023246   | 0.026523   |   2.1 |  0.97
Output  | 0          | 0          | 0          |   0.0 |  0.00
Modify  | 0.017561   | 0.018369   | 0.019177   |   0.6 |  0.77
Other   |            | 0.01025    |            |       |  0.43

Nlocal:           1368 ave        1444 max        1292 min
Histogram: 1 0 0 0 0 0 0 0 0 1
Nghost:         6912.5 ave        6987 max        6838 min
Histogram: 1 0 0 0 0 0 0 0 0 1
Neighs:         312405 ave      317994 max      306816 min
Histogram: 1 0 0 0 0 0 0 0 0 1

Total # of neighbors = 624810
Ave neighs/atom = 228.36623
Ave special neighs/atom = 6.5789474
Neighbor list builds = 0
Dangerous builds = 0
reset_timestep 0

# --- 2. NVT relaxation (lets the packed box relax before the barostat) ------
print "RENEU >>> stage 2 of 4: NVT relaxation"
RENEU >>> stage 2 of 4: NVT relaxation
velocity all create ${TK} 12345 mom yes rot yes dist gaussian
velocity all create 300 12345 mom yes rot yes dist gaussian
fix NVTRELAX all nvt temp ${TK} ${TK} 100
fix NVTRELAX all nvt temp 300 ${TK} 100
fix NVTRELAX all nvt temp 300 300 100
run ${NVTRUN}
run 20000
PPPM initialization ...
  using 12-bit tables for long-range coulomb
  G vector (1/distance) = 0.29351621
  grid = 27 27 27
  stencil order = 5
  estimated absolute RMS force accuracy = 0.0027693832
  estimated relative force accuracy = 8.3399153e-06
  using double precision FFTW3
  3d grid and FFT values/proc = 23120 10206
Generated 91 of 91 mixed pair_coeff terms from geometric mixing rule
Per MPI rank memory allocation (min/avg/max) = 16.2 | 16.23 | 16.27 Mbytes
   Step          Temp          Press          Volume         v_dens         PotEng         TotEng    
         0   300            15281.507      47280.849      0.59993014    -2713.6424     -761.50993    
      1000   286.18298     -1291.9147      47280.849      0.59993014    -15238.717     -13376.494    
      2000   300.99176     -558.01064      47280.849      0.59993014    -15954.937     -13996.352    
      3000   299.96007     -962.95623      47280.849      0.59993014    -16072.47      -14120.598    
      4000   312.04632     -1774.7391      47280.849      0.59993014    -16262.895     -14232.376    
      5000   298.8413      -796.40613      47280.849      0.59993014    -16301.013     -14356.42     
      6000   302.74484     -1118.948       47280.849      0.59993014    -16454.051     -14484.058    
      7000   294.66779     -600.75854      47280.849      0.59993014    -16470.344     -14552.908    
      8000   305.75833     -874.00522      47280.849      0.59993014    -16482.254     -14492.652    
      9000   300.97939     -801.83744      47280.849      0.59993014    -16597.747     -14639.242    
     10000   296.038       -649.36622      47280.849      0.59993014    -16617.53      -14691.179    
     11000   295.39685     -623.55308      47280.849      0.59993014    -16649.741     -14727.562    
     12000   306.75678     -796.99354      47280.849      0.59993014    -16584.528     -14588.428    
     13000   301.96208     -1505.3576      47280.849      0.59993014    -16709.191     -14744.291    
     14000   302.51407     -476.02629      47280.849      0.59993014    -16676.365     -14707.873    
     15000   300.50213      34.095014      47280.849      0.59993014    -16670.892     -14715.492    
     16000   296.66023     -455.35909      47280.849      0.59993014    -16682.637     -14752.237    
     17000   308.11321      37.624321      47280.849      0.59993014    -16786.319     -14781.393    
     18000   302.26122     -1028.5729      47280.849      0.59993014    -16776.512     -14809.666    
     19000   296.78954      633.54289      47280.849      0.59993014    -16755.298     -14824.057    
     20000   293.71219     -262.16663      47280.849      0.59993014    -16755.253     -14844.036    
Loop time of 763.414 on 2 procs for 20000 steps with 2736 atoms

Performance: 2.264 ns/day, 10.603 hours/ns, 26.198 timesteps/s, 71.678 katom-step/s
97.4% CPU use with 2 MPI tasks x 1 OpenMP threads

MPI task timing breakdown:
Section |  min time  |  avg time  |  max time  |%varavg| %total
---------------------------------------------------------------
Pair    | 298.65     | 339.71     | 380.77     | 222.8 | 44.50
Bond    | 25.988     | 27.057     | 28.125     |  20.5 |  3.54
Kspace  | 271.08     | 310.24     | 349.4      | 222.3 | 40.64
Neigh   | 38.457     | 38.62      | 38.782     |   2.6 |  5.06
Comm    | 24.379     | 25.127     | 25.875     |  14.9 |  3.29
Output  | 0.0053628  | 0.012935   | 0.020507   |   6.7 |  0.00
Modify  | 19.202     | 19.269     | 19.336     |   1.5 |  2.52
Other   |            | 3.38       |            |       |  0.44

Nlocal:           1368 ave        1396 max        1340 min
Histogram: 1 0 0 0 0 0 0 0 0 1
Nghost:         6030.5 ave        6045 max        6016 min
Histogram: 1 0 0 0 0 0 0 0 0 1
Neighs:         370618 ave      419610 max      321625 min
Histogram: 1 0 0 0 0 0 0 0 0 1

Total # of neighbors = 741235
Ave neighs/atom = 270.91923
Ave special neighs/atom = 6.5789474
Neighbor list builds = 917
Dangerous builds = 0
unfix NVTRELAX

# --- 3. NPT equilibration (this is where the density finds its own value) ---
# restart files are written every 25000 steps. If the run stops for any
# reason you can pick up from the last one instead of starting over:
#     read_restart rst_a.lmp      (or rst_b.lmp, whichever is newer)
print "RENEU >>> stage 3 of 4: NPT equilibration - watch the density column"
RENEU >>> stage 3 of 4: NPT equilibration - watch the density column
restart 25000 rst_a.lmp rst_b.lmp
fix NPTEQ all npt temp ${TK} ${TK} 100 iso ${PBAR} ${PBAR} 1000
fix NPTEQ all npt temp 300 ${TK} 100 iso ${PBAR} ${PBAR} 1000
fix NPTEQ all npt temp 300 300 100 iso ${PBAR} ${PBAR} 1000
fix NPTEQ all npt temp 300 300 100 iso 1 ${PBAR} 1000
fix NPTEQ all npt temp 300 300 100 iso 1 1 1000
run ${EQRUN}
run 100000
PPPM initialization ...
  using 12-bit tables for long-range coulomb
  G vector (1/distance) = 0.29351621
  grid = 27 27 27
  stencil order = 5
  estimated absolute RMS force accuracy = 0.0027693832
  estimated relative force accuracy = 8.3399153e-06
  using double precision FFTW3
  3d grid and FFT values/proc = 23120 10206
Generated 91 of 91 mixed pair_coeff terms from geometric mixing rule
Per MPI rank memory allocation (min/avg/max) = 16.27 | 16.43 | 16.58 Mbytes
   Step          Temp          Press          Volume         v_dens         PotEng         TotEng    
     20000   293.71219     -261.98209      47280.849      0.59993014    -16755.253     -14844.036    
     21000   294.28008      697.41854      43213.297      0.65639996    -16884.265     -14969.352    
     22000   296.40414     -1111.5064      42124.042      0.67337333    -16895.29      -14966.556    
     23000   306.15005     -2.2790675      40787.867      0.69543245    -16861.845     -14869.693    
     24000   304.25365     -413.49209      40009.568      0.70896058    -16946.491     -14966.679    
     25000   298.26506     -616.46932      39077.655      0.72586768    -16933.368     -14992.525    
     26000   294.48675     -953.34449      38610.182      0.73465612    -16930.834     -15014.577    
     27000   295.91793      365.98237      37250.558      0.76147065    -16980.672     -15055.102    
     28000   303.1333      -430.214        37895.828      0.74850472    -16950.503     -14977.981    
     29000   299.45005      357.64018      36411.204      0.77902411    -17001.951     -15053.397    
     30000   302.02541      169.07818      36131.526      0.7850542     -16960.03      -14994.718    
     31000   291.01403     -553.57986      36159.029      0.78445707    -16994.315     -15100.655    
     32000   303.45486     -545.31178      35274.881      0.80411912    -16996.997     -15022.383    
     33000   299.27228     -841.39502      34606.363      0.81965291    -17078.325     -15130.928    
     34000   299.16062      124.5475       35201.781      0.80578895    -17083.989     -15137.319    
     35000   295.04704      284.88903      34245.482      0.82829046    -17021.782     -15101.879    
     36000   300.80812      156.10459      34574.064      0.82041864    -17083.77      -15126.379    
     37000   295.49553     -583.65868      34045.937      0.83314512    -17070.354     -15147.532    
     38000   293.92078      205.72426      33452.966      0.84791306    -17079.893     -15167.318    
     39000   297.45018     -1517.0763      33931.975      0.83594326    -17063.585     -15128.044    
     40000   301.40187     -645.60968      33643.556      0.84310964    -17071.003     -15109.748    
     41000   300.59909     -40.525614      33387.141      0.84958475    -17152.268     -15196.237    
     42000   296.47296     -218.91682      33006.574      0.8593805     -17145.362     -15216.18     
     43000   309.38248     -29.181423      32972.946      0.86025697    -17129.754     -15116.569    
     44000   290.45425     -311.15667      32346.883      0.87690694    -17153.514     -15263.497    
     45000   299.2129      -976.10914      32558.114      0.87121772    -17139.75      -15192.739    
     46000   295.14577      303.26496      32751.884      0.86606336    -17121.05      -15200.505    
     47000   300.87652     -888.58583      32369.416      0.87629652    -17170.024     -15212.188    
     48000   301.87948     -309.33659      31842.133      0.89080736    -17160.392     -15196.03     
     49000   301.45903      47.979168      31524.077      0.89979498    -17205.546     -15243.92     
     50000   301.89839     -1114.8625      32097.316      0.88372519    -17264.051     -15299.565    
     51000   296.28081     -55.127449      31904.511      0.8890657     -17054.998     -15127.066    
     52000   298.63321     -496.73802      31760.836      0.89308753    -17195.414     -15252.175    
     53000   295.61424     -171.05763      31342.022      0.90502159    -17181.772     -15258.178    
     54000   301.92679      327.21721      30691.792      0.92419518    -17181.419     -15216.749    
     55000   300.38893     -541.17306      30491.485      0.93026647    -17177.091     -15222.427    
     56000   297.9029       452.98601      30507.227      0.92978645    -17311.078     -15372.591    
     57000   299.17286      869.42848      30636.2        0.9258722     -17186.444     -15239.694    
     58000   296.73568     -1185.4361      30657.658      0.92522417    -17252.024     -15321.132    
     59000   302.76439      1682.4023      30047.099      0.94402478    -17217.066     -15246.945    
     60000   300.82513      1337.5534      29997.799      0.94557625    -17219.827     -15262.325    
     61000   301.27965     -90.961526      30030.552      0.94454495    -17192.505     -15232.046    
     62000   300.20981     -121.23421      29741.546      0.95372331    -17210.935     -15257.437    
     63000   298.86499     -356.35238      29776.95       0.95258937    -17248.33      -15303.583    
     64000   300.89926     -677.45203      29457.117      0.96293219    -17257.359     -15299.375    
     65000   290.47872     -140.18314      29431.605      0.96376687    -17248.44      -15358.263    
     66000   305.3406      -1065.7409      29535.873      0.96036458    -17271.483     -15284.599    
     67000   304.09026      1044.5231      29230.964      0.97038216    -17295.618     -15316.87     
     68000   297.46186     -256.72125      29039.166      0.97679134    -17304.759     -15369.142    
     69000   294.98317     -301.89603      28777.27       0.98568094    -17314.745     -15395.258    
     70000   297.25227      227.13847      28974.195      0.97898167    -17248.043     -15313.791    
     71000   301.37092      1345.8941      28557.228      0.9932759     -17268.1       -15307.047    
     72000   292.89302     -166.04522      29096.617      0.97486269    -17276.304     -15370.417    
     73000   298.30996      799.34404      28577.827      0.99255993    -17393.912     -15452.777    
     74000   293.36313     -87.494756      28563.436      0.99306003    -17334.499     -15425.553    
     75000   301.43083      1233.2149      28471.921      0.99625195    -17347.497     -15386.054    
     76000   301.05014     -1251.0412      28551.883      0.99346184    -17283.105     -15324.139    
     77000   300.59941     -218.598        28437.409      0.997461      -17352.283     -15396.25     
     78000   312.44261     -109.99203      28398.7        0.99882061    -17316.779     -15283.681    
     79000   308.51004      303.1853       28338.089      1.0009569     -17326.495     -15318.986    
     80000   301.05377     -111.61434      28367.235      0.99992847    -17385.32      -15426.331    
     81000   296.1403       675.09782      28095.074      1.0096149     -17304.148     -15377.131    
     82000   292.73119      951.32454      28148.379      1.007703      -17339.058     -15434.225    
     83000   299.47933      559.41206      28096.386      1.0095678     -17286.949     -15338.205    
     84000   303.78323     -801.75484      27984.247      1.0136134     -17360.703     -15383.953    
     85000   301.29146     -383.04667      28019.998      1.0123201     -17247.369     -15286.833    
     86000   291.72867     -306.7246       27865.885      1.0179187     -17285.586     -15387.276    
     87000   308.56334     -6.5355905      27507.907      1.0311656     -17379.826     -15371.971    
     88000   305.51363      837.1744       27686.657      1.0245082     -17303.745     -15315.735    
     89000   299.52361     -42.06264       27329.384      1.0379014     -17314.389     -15365.356    
     90000   301.04102      232.64344      27436.991      1.0338308     -17316.244     -15357.338    
     91000   301.88103     -412.48128      27446.815      1.0334608     -17293.37      -15328.997    
     92000   300.40867     -201.46528      27484.748      1.0320344     -17336.787     -15381.995    
     93000   290.56866     -817.66015      27514.164      1.0309311     -17408.019     -15517.257    
     94000   307.21324     -679.12478      27387.859      1.0356854     -17439.95      -15440.881    
     95000   294.28064     -722.372        27335.302      1.0376767     -17326.159     -15411.243    
     96000   297.00427     -212.98367      27110.492      1.0462815     -17383.336     -15450.697    
     97000   298.40189     -1743.5506      27375.198      1.0361644     -17346.243     -15404.509    
     98000   292.16743     -734.687        27089.587      1.0470889     -17376.083     -15474.918    
     99000   300.25246     -774.55567      26992.417      1.0508583     -17361.462     -15407.687    
    100000   292.38294      1106.6832      26741.839      1.0607052     -17384.302     -15481.735    
    101000   294.75978      234.92442      26967.545      1.0518275     -17340.564     -15422.53     
    102000   286.7447      -1631.2185      26834.928      1.0570256     -17372.998     -15507.119    
    103000   313.96359     -1044.6194      27132.83       1.0454201     -17448.371     -15405.376    
    104000   301.01875      803.26094      26475.646      1.0713698     -17364.949     -15406.187    
    105000   304.70698     -604.36657      26707.737      1.0620595     -17436.772     -15454.011    
    106000   298.27272      73.999888      26495.618      1.0705622     -17389.488     -15448.595    
    107000   290.07569      150.95649      26594.271      1.0665909     -17413.173     -15525.619    
    108000   299.11124      162.51635      26438.825      1.0728618     -17358.664     -15412.315    
    109000   297.9034       1117.0961      26522.673      1.0694701     -17379.757     -15441.267    
    110000   299.49689      974.24409      26822.401      1.0575193     -17410.83      -15461.971    
    111000   306.34744     -1329.029       26255.336      1.0803597     -17324.285     -15330.849    
    112000   300.48459      607.41365      26384.805      1.0750584     -17428.578     -15473.292    
    113000   296.47922      1073.4598      26416.101      1.0737847     -17372.337     -15443.115    
    114000   305.17043      275.43454      26450.194      1.0724007     -17385.038     -15399.261    
    115000   297.86788      153.26499      26183.193      1.0833364     -17413.494     -15475.235    
    116000   307.55779      95.96478       26399.436      1.0744626     -17437.959     -15436.648    
    117000   290.49599     -1906.1527      26360.645      1.0760437     -17398.786     -15508.498    
    118000   302.92058     -621.33243      26339.303      1.0769156     -17470.06      -15498.923    
    119000   297.24775     -542.52692      26229.315      1.0814315     -17372.597     -15438.374    
    120000   300.39088      701.4712       25934.404      1.0937289     -17468.723     -15514.047    
Loop time of 5156.86 on 2 procs for 100000 steps with 2736 atoms

Performance: 1.675 ns/day, 14.325 hours/ns, 19.392 timesteps/s, 53.056 katom-step/s
97.7% CPU use with 2 MPI tasks x 1 OpenMP threads

MPI task timing breakdown:
Section |  min time  |  avg time  |  max time  |%varavg| %total
---------------------------------------------------------------
Pair    | 2426.8     | 2429.7     | 2432.5     |   5.9 | 47.12
Bond    | 154.07     | 155.42     | 156.78     |  10.9 |  3.01
Kspace  | 1578.6     | 1580.4     | 1582.2     |   4.4 | 30.65
Neigh   | 255.89     | 256.11     | 256.33     |   1.4 |  4.97
Comm    | 144.54     | 145.67     | 146.81     |   9.4 |  2.82
Output  | 1.3494     | 1.4218     | 1.4942     |   6.1 |  0.03
Modify  | 502.53     | 517.09     | 531.64     |  64.0 | 10.03
Other   |            | 71.09      |            |       |  1.38

Nlocal:           1368 ave        1384 max        1352 min
Histogram: 1 0 0 0 0 0 0 0 0 1
Nghost:        10157.5 ave       10304 max       10011 min
Histogram: 1 0 0 0 0 0 0 0 0 1
Neighs:         527321 ave      538404 max      516238 min
Histogram: 1 0 0 0 0 0 0 0 0 1

Total # of neighbors = 1054642
Ave neighs/atom = 385.46857
Ave special neighs/atom = 6.5789474
Neighbor list builds = 4012
Dangerous builds = 0
unfix NPTEQ
write_data data.after_equilibration.lmp
System init for write_data ...
PPPM initialization ...
  using 12-bit tables for long-range coulomb
  G vector (1/distance) = 0.29974626
  grid = 24 24 24
  stencil order = 5
  estimated absolute RMS force accuracy = 0.0025809606
  estimated relative force accuracy = 7.7724862e-06
  using double precision FFTW3
  3d grid and FFT values/proc = 18259 6912
Generated 91 of 91 mixed pair_coeff terms from geometric mixing rule

# --- 4. NPT production - this is the trajectory you analyse ----------------
print "RENEU >>> stage 4 of 4: NPT production"
RENEU >>> stage 4 of 4: NPT production
reset_timestep 0
fix NPTPROD all npt temp ${TK} ${TK} 100 iso ${PBAR} ${PBAR} 1000
fix NPTPROD all npt temp 300 ${TK} 100 iso ${PBAR} ${PBAR} 1000
fix NPTPROD all npt temp 300 300 100 iso ${PBAR} ${PBAR} 1000
fix NPTPROD all npt temp 300 300 100 iso 1 ${PBAR} 1000
fix NPTPROD all npt temp 300 300 100 iso 1 1 1000
fix DENSAVG all ave/time 10 100 1000 v_dens v_vol file density.dat

dump TRAJ all custom 500 dump.lammpstrj id mol type element q xu yu zu
dump_modify TRAJ element N C H C H O H H C C O H H O

run ${PRODRUN}
run 200000
PPPM initialization ...
  using 12-bit tables for long-range coulomb
  G vector (1/distance) = 0.29974626
  grid = 24 24 24
  stencil order = 5
  estimated absolute RMS force accuracy = 0.0025809606
  estimated relative force accuracy = 7.7724862e-06
  using double precision FFTW3
  3d grid and FFT values/proc = 18259 6912
Generated 91 of 91 mixed pair_coeff terms from geometric mixing rule
Per MPI rank memory allocation (min/avg/max) = 16.7 | 16.7 | 16.7 Mbytes
   Step          Temp          Press          Volume         v_dens         PotEng         TotEng    
         0   300.39088      561.17983      25934.404      1.0937289     -17468.725     -15514.049    
      1000   308.99885     -1171.1602      26002.032      1.0908842     -17390.588     -15379.899    
      2000   297.50798      987.17943      25526.624      1.1112009     -17459.556     -15523.64     
      3000   296.62719     -1059.9794      25656.477      1.1055768     -17497.862     -15567.676    
      4000   302.93906      480.43316      25795.565      1.0996156     -17397.278     -15426.021    
      5000   295.09969     -1032.054       25534.857      1.1108426     -17436.237     -15515.991    
      6000   297.38422     -8.7694311      25681.342      1.1045064     -17402.012     -15466.901    
      7000   298.28017      1435.4759      25511.659      1.1118527     -17513.222     -15572.281    
      8000   294.40135      964.64923      25484.953      1.1130178     -17510.162     -15594.46     
      9000   303.47694     -732.28843      25540.991      1.1105758     -17383.285     -15408.528    
     10000   300.86619     -331.38489      25535.686      1.1108065     -17465.008     -15507.24     
     11000   301.5371      -908.16616      25332.883      1.1196991     -17449.672     -15487.537    
     12000   302.74762     -889.84002      25325.027      1.1200464     -17418.606     -15448.594    
     13000   297.04836     -153.67969      25145.048      1.1280633     -17550.523     -15617.598    
     14000   296.28513     -404.30564      25507.505      1.1120337     -17419.821     -15491.862    
     15000   302.08262      159.84841      25173.473      1.1267896     -17417.822     -15452.137    
     16000   301.68771      1094.1818      25098.397      1.1301601     -17422.148     -15459.034    
     17000   300.56718      1191.2622      24896.56       1.1393223     -17428.464     -15472.641    
     18000   293.13079      203.67779      24833.441      1.1422181     -17420.641     -15513.207    
     19000   301.87774     -214.09334      24865.164      1.1407609     -17440.756     -15476.404    
     20000   301.57119     -802.77941      25144.931      1.1280686     -17544.851     -15582.495    
     21000   303.698       -53.199812      24912.081      1.1386125     -17487.325     -15511.13     
     22000   308.82854      857.6567       25247.979      1.1234644     -17446.559     -15436.979    
     23000   309.07318     -1866.918       25264.899      1.122712      -17472.894     -15461.721    
     24000   294.18593      484.49162      25012.405      1.1340455     -17548.915     -15634.615    
     25000   297.12769      413.21308      24972.251      1.135869      -17401.882     -15468.44     
     26000   298.41542     -505.41067      24917.811      1.1383507     -17506.759     -15564.937    
     27000   305.88675      101.63803      24901.031      1.1391177     -17520.646     -15530.208    
     28000   288.86469     -2139.6775      24894.887      1.1393989     -17465.155     -15585.481    
     29000   311.81781     -956.67489      24709.604      1.1479426     -17545.796     -15516.764    
     30000   304.26892      319.95151      24664.386      1.1500471     -17498.9       -15518.989    
     31000   302.26297      747.65768      24914.611      1.1384968     -17525.14      -15558.282    
     32000   308.92618      1074.1208      24796.769      1.1439074     -17560.584     -15550.368    
     33000   296.18058     -327.70208      24658.13       1.1503389     -17512.976     -15585.697    
     34000   307.17002      881.09495      24804.638      1.1435445     -17447.599     -15448.811    
     35000   302.43037      1474.9191      24653.03       1.1505769     -17510.54      -15542.593    
     36000   296.42336      514.34987      24657.043      1.1503896     -17545.759     -15616.9      
     37000   298.87069     -385.44036      25070.808      1.1314037     -17516.426     -15571.642    
     38000   302.19548      1626.0526      24488.014      1.1583302     -17537.279     -15570.86     
     39000   302.10571      807.775        24604.55       1.152844      -17554.239     -15588.405    
     40000   298.24301      164.74836      24593.379      1.1533676     -17518.285     -15577.585    
     41000   304.21578      709.49832      24449.728      1.1601441     -17497.947     -15518.382    
     42000   305.02352      596.79756      24509.932      1.1572944     -17522.37      -15537.549    
     43000   301.83041     -165.21081      24520.232      1.1568082     -17535.133     -15571.09     
     44000   293.53741      1871.6422      24214.007      1.171438      -17586.342     -15676.262    
     45000   305.2321       1242.0031      24606.501      1.1527525     -17477.314     -15491.136    
     46000   301.59438     -1379.1089      24615.855      1.1523145     -17504.152     -15541.645    
     47000   301.05812      865.47895      24463.069      1.1595114     -17565.358     -15606.341    
     48000   307.36983      1118.7612      24016.545      1.1810694     -17501.17      -15501.081    
     49000   302.95698     -596.90569      24328.979      1.165902      -17622.913     -15651.539    
     50000   290.76868      1560.3232      24203.935      1.1719254     -17612.103     -15720.04     
     51000   301.0071       151.31111      24468.118      1.1592721     -17561.419     -15602.733    
     52000   303.76463     -1577.9187      24577.862      1.1540958     -17489.861     -15513.231    
     53000   299.80514     -1762.2517      24596.15       1.1532377     -17637.915     -15687.051    
     54000   306.06508     -658.44529      24603.805      1.1528789     -17604.624     -15613.025    
     55000   298.74409      946.72008      24117.171      1.1761415     -17578.617     -15634.656    
     56000   300.14566     -724.00184      24278.882      1.1683077     -17635.566     -15682.485    
     57000   304.40924     -1659.1441      24224.743      1.1709187     -17575.34      -15594.516    
     58000   297.63677      81.943611      24315.328      1.1665566     -17606.194     -15669.439    
     59000   303.318        214.58348      24161.61       1.1739783     -17582.864     -15609.141    
     60000   300.35552     -1801.0568      24365.837      1.1641384     -17499.142     -15544.697    
     61000   298.19201     -1028.4034      24298.376      1.1673705     -17599.769     -15659.401    
     62000   309.66514     -516.82905      24420.683      1.1615239     -17491.763     -15476.738    
     63000   300.67616     -746.08642      24532.473      1.156231      -17495.22      -15538.688    
     64000   306.93215      219.78971      24236.373      1.1703569     -17649.302     -15652.061    
     65000   304.39711      904.63097      24333.169      1.1657013     -17506.38      -15525.635    
     66000   294.72914     -466.78407      24351.385      1.1648293     -17613.893     -15696.058    
     67000   294.45428      133.02647      24138.962      1.1750798     -17656.318     -15740.272    
     68000   297.14537     -47.130362      24156.279      1.1742374     -17637.627     -15704.07     
     69000   300.81762      115.00315      24209.725      1.1716451     -17590.084     -15632.631    
     70000   293.15428      297.09193      24087.223      1.1776038     -17599.221     -15691.634    
     71000   299.43586     -896.89019      24321.905      1.1662411     -17645.154     -15696.693    
     72000   298.34432     -75.336862      24344.002      1.1651825     -17579.42      -15638.061    
     73000   295.44019      1785.4949      24219.764      1.1711595     -17644.629     -15722.168    
     74000   303.59614     -257.32438      24184.797      1.1728528     -17639.529     -15663.996    
     75000   296.99913      2379.7562      23930.9        1.1852962     -17654.381     -15721.775    
     76000   306.39192     -416.9082       24367.037      1.1640811     -17669.694     -15675.969    
     77000   302.41055     -1170.5741      24133.613      1.1753403     -17647.31      -15679.492    
     78000   300.8787      -47.168357      24216.801      1.1713028     -17511.808     -15553.958    
     79000   291.23737      366.73278      24083.726      1.1777748     -17579.536     -15684.423    
     80000   300.12397      2212.3173      24032.109      1.1803045     -17646.376     -15693.437    
     81000   297.96733      1212.0363      24116.9        1.1761547     -17677.158     -15738.252    
     82000   304.23502     -426.47567      24267.465      1.1688574     -17535.324     -15555.633    
     83000   300.22645     -1364.0494      24312.606      1.1666872     -17580.506     -15626.9      
     84000   298.50299     -521.54717      24139.097      1.1750732     -17608.085     -15665.694    
     85000   291.06562     -1377.5115      24268.355      1.1688145     -17553.348     -15659.353    
     86000   297.49537      338.80715      24292.866      1.1676353     -17542.287     -15606.453    
     87000   304.23755      597.56258      24189.797      1.1726103     -17580.712     -15601.005    
     88000   308.11876      586.34257      23998.514      1.1819568     -17633.647     -15628.685    
     89000   292.94403      1808.7812      23974.669      1.1831323     -17604.057     -15697.839    
     90000   299.71378      153.37139      23994.191      1.1821697     -17641.518     -15691.248    
     91000   302.4714       1037.4117      23970.62       1.1833322     -17579.558     -15611.344    
     92000   298.21063     -35.131061      24010.337      1.1813748     -17581.373     -15640.884    
     93000   300.0423      -967.77031      24193.833      1.1724147     -17616.626     -15664.218    
     94000   293.30483      636.59099      24294.725      1.1675459     -17587.307     -15678.74     
     95000   295.79168     -1529.4353      24291.016      1.1677241     -17537.775     -15613.027    
     96000   290.76244      270.83103      24107.965      1.1765906     -17667.049     -15775.026    
     97000   302.31211     -175.6629       24191.877      1.1725095     -17553.689     -15586.511    
     98000   296.45968      2193.3144      24031.223      1.180348      -17588.516     -15659.421    
     99000   295.72633     -816.99703      24190.27       1.1725874     -17630.066     -15705.743    
    100000   305.55029     -1106.8223      24187.726      1.1727107     -17618.967     -15630.718    
    101000   297.18217      2005.04        24108.816      1.1765491     -17662.223     -15728.426    
    102000   298.33082      1454.8716      24039.451      1.179944      -17612.758     -15671.487    
    103000   298.82093     -815.8923       24066.41       1.1786223     -17571.343     -15626.883    
    104000   301.53308     -874.50499      24246.762      1.1698555     -17652.489     -15690.381    
    105000   303.41834      223.80483      24315.924      1.166528      -17611.922     -15637.546    
    106000   299.34291     -920.3431       24123.591      1.1758285     -17607.808     -15659.951    
    107000   296.79472     -179.55839      24001.391      1.1818151     -17635.475     -15704.199    
    108000   300.91197      1139.6896      23975.588      1.183087      -17703.771     -15745.705    
    109000   302.05284      489.69811      24103.977      1.1767853     -17602.566     -15637.075    
    110000   305.05358     -409.90092      24133.255      1.1753577     -17579.586     -15594.569    
    111000   300.57699     -123.47325      24284.062      1.1680586     -17595.848     -15639.961    
    112000   303.29526      609.29103      24170.851      1.1735295     -17576.502     -15602.927    
    113000   306.14783      633.90514      24084.836      1.1777205     -17662.578     -15670.44     
    114000   296.423        692.66984      23978.665      1.1829352     -17643.773     -15714.916    
    115000   292.83484      1867.976       23996.053      1.182078      -17694.945     -15789.437    
    116000   298.59538     -1772.5618      24151.931      1.1744488     -17607.789     -15664.796    
    117000   302.07335     -1308.645       24385.522      1.1631987     -17587.604     -15621.98     
    118000   303.28251      134.15723      24224.46       1.1709324     -17685.131     -15711.639    
    119000   308.42668     -1287.2472      24191.302      1.1725374     -17559.829     -15552.863    
    120000   296.02969     -1941.2822      24396.012      1.1626985     -17617.018     -15690.721    
    121000   302.18288     -1692.2697      24261.426      1.1691484     -17643.69      -15677.353    
    122000   299.75623      419.86107      24125.268      1.1757468     -17641.114     -15690.568    
    123000   289.5822       2097.2716      23966.396      1.1835407     -17687.316     -15802.974    
    124000   300.84303     -2365.5194      24323.63       1.1661584     -17606.544     -15648.925    
    125000   306.91093     -1294.928       24263.418      1.1690524     -17584.915     -15587.813    
    126000   287.23946      752.69788      24236.792      1.1703367     -17617.909     -15748.81     
    127000   289.93718      115.07865      24249.737      1.1697119     -17632.066     -15745.413    
    128000   300.40198     -1644.5138      24348.723      1.1649566     -17605.182     -15650.434    
    129000   301.23401     -985.95649      24179.618      1.173104      -17627.014     -15666.852    
    130000   290.42087     -971.36719      24126.97       1.1756639     -17656.263     -15766.463    
    131000   297.16187     -708.58796      24313.625      1.1666383     -17622.639     -15688.975    
    132000   309.02919     -2268.0437      24471.14       1.159129      -17515.264     -15504.378    
    133000   290.8615      -244.87302      24119.44       1.1760309     -17651.149     -15758.482    
    134000   295.28389      475.39873      24178.295      1.1731682     -17620.195     -15698.751    
    135000   300.71856     -380.36521      24343.873      1.1651887     -17608.286     -15651.478    
    136000   300.19638      558.11583      24038.455      1.1799929     -17701.756     -15748.346    
    137000   289.16908      153.67182      24132.335      1.1754025     -17702.176     -15820.522    
    138000   298.73113     -272.18976      24331.484      1.165782      -17616.13      -15672.254    
    139000   300.89877     -115.48515      24258.638      1.1692827     -17655.243     -15697.262    
    140000   295.20993     -476.01737      24155.307      1.1742846     -17577.437     -15656.474    
    141000   301.01932      1281.7202      24160.205      1.1740466     -17580.626     -15621.86     
    142000   305.87618      80.645905      24187.513      1.1727211     -17592.411     -15602.041    
    143000   294.36949     -1572.0946      24004.456      1.1816642     -17603.097     -15687.603    
    144000   294.16042     -2132.6892      24006.217      1.1815775     -17662.748     -15748.614    
    145000   301.93663      757.49756      23706.069      1.1965377     -17702.575     -15737.84     
    146000   306.03232      1840.0639      23898.833      1.1868867     -17640.503     -15649.118    
    147000   294.90417      923.21655      23705.967      1.1965429     -17703.561     -15784.588    
    148000   302.93826      1723.0342      24042.047      1.1798166     -17639.244     -15667.992    
    149000   296.21175     -911.70963      24158.726      1.1741185     -17704.765     -15777.283    
    150000   297.6047      -1728.464       23994.529      1.1821531     -17675.456     -15738.91     
    151000   311.0846      -73.893141      24010.429      1.1813702     -17671.602     -15647.341    
    152000   300.68747      424.80902      24127.877      1.1756197     -17653.996     -15697.39     
    153000   301.35377      596.91776      24022.876      1.1807581     -17649.937     -15688.995    
    154000   297.46248     -276.08366      23993.019      1.1822275     -17669.263     -15733.642    
    155000   296.63539     -1792.6933      24021.091      1.1808459     -17688.891     -15758.653    
    156000   296.98948     -203.07074      24203.312      1.1719556     -17658.725     -15726.183    
    157000   304.72016     -679.40718      23978.68       1.1829344     -17637.316     -15654.469    
    158000   296.06832      1450.6093      24060.508      1.1789114     -17629.713     -15703.164    
    159000   305.03024      1450.1818      23928.069      1.1854365     -17596.422     -15611.557    
    160000   298.09444     -242.90106      23850.618      1.189286      -17613.171     -15673.439    
    161000   300.21131     -80.268374      24124.369      1.1757906     -17608.589     -15655.082    
    162000   299.83718     -1321.4889      24186.088      1.1727902     -17644.436     -15693.363    
    163000   299.26847     -46.470263      24088.91       1.1775214     -17626.703     -15679.331    
    164000   299.00657      2164.8481      24163.39       1.1738918     -17648.474     -15702.806    
    165000   301.71493      847.52082      24011.38       1.1813234     -17591.498     -15628.206    
    166000   304.44165     -1742.3317      24092.457      1.177348      -17683.167     -15702.132    
    167000   301.46623     -908.95299      23768.659      1.1933869     -17669.358     -15707.685    
    168000   289.46098     -274.3065       23946.686      1.1845149     -17699.445     -15815.891    
    169000   309.70595      2307.5666      23922.728      1.1857012     -17675.136     -15659.846    
    170000   296.03153     -493.9182       23983.783      1.1826828     -17668.825     -15742.516    
    171000   293.5029      -302.8003       23938.202      1.1849347     -17671.87      -15762.015    
    172000   302.10896     -987.02838      23971.4        1.1832937     -17647.727     -15681.871    
    173000   301.56247      1481.1876      24253.127      1.1695484     -17577.6       -15615.3      
    174000   298.14495     -1115.3141      24250.11       1.1696939     -17672.643     -15732.582    
    175000   297.7672       1432.1835      24040.991      1.1798684     -17587.705     -15650.101    
    176000   304.37876      912.80833      23865.726      1.1885331     -17612.869     -15632.243    
    177000   289.97599      1358.3591      24022.264      1.1807882     -17559.487     -15672.582    
    178000   299.41359     -467.11935      24159.32       1.1740896     -17626.387     -15678.07     
    179000   302.92153     -978.55824      24067.328      1.1785773     -17610.381     -15639.238    
    180000   307.61542      537.76341      23875.937      1.1880248     -17692.371     -15690.684    
    181000   302.67008     -685.24977      23888.049      1.1874225     -17656.11      -15686.603    
    182000   290.2063      -161.4244       24010.926      1.1813458     -17642.349     -15753.945    
    183000   303.13295      641.96452      24041.639      1.1798366     -17655.89      -15683.371    
    184000   294.28318      1584.7457      23910.082      1.1863283     -17671.226     -15756.293    
    185000   308.41105     -239.91691      23726.396      1.1955126     -17694.594     -15687.73     
    186000   309.0777      -197.50021      23962.19       1.1837485     -17613.244     -15602.042    
    187000   295.9533      -1397.1182      24037.823      1.1800239     -17627.059     -15701.259    
    188000   295.32664     -744.56693      24009.69       1.1814066     -17628.306     -15706.583    
    189000   307.12975     -937.40792      24164.194      1.1738528     -17699.32      -15700.794    
    190000   300.06671      692.07524      24035.957      1.1801155     -17630.417     -15677.85     
    191000   308.40982     -54.27928       23947.091      1.1844948     -17677.84      -15670.984    
    192000   281.59665     -1790.2337      24075.44       1.1781802     -17682.371     -15849.991    
    193000   296.67253      2786.2311      23805.928      1.1915186     -17602.743     -15672.262    
    194000   299.63335      564.59112      23880.364      1.1878046     -17636.002     -15686.255    
    195000   302.0074      -207.18292      23898.62       1.1868972     -17643.496     -15678.301    
    196000   300.65503     -350.29053      24004.729      1.1816508     -17657.901     -15701.507    
    197000   297.94308      610.7168       23960.642      1.183825      -17679.83      -15741.082    
    198000   305.14159     -6.0189296      23809.119      1.1913589     -17644.67      -15659.081    
    199000   294.75741     -324.12288      23919.684      1.185852      -17706.788     -15788.769    
    200000   304.39074     -306.552        23886.424      1.1875033     -17698.32      -15717.616    
Loop time of 10936.3 on 2 procs for 200000 steps with 2736 atoms

Performance: 1.580 ns/day, 15.189 hours/ns, 18.288 timesteps/s, 50.035 katom-step/s
98.1% CPU use with 2 MPI tasks x 1 OpenMP threads

MPI task timing breakdown:
Section |  min time  |  avg time  |  max time  |%varavg| %total
---------------------------------------------------------------
Pair    | 5852.9     | 5869.8     | 5886.8     |  22.1 | 53.67
Bond    | 315.33     | 316.29     | 317.26     |   5.4 |  2.89
Kspace  | 2813.2     | 2831.6     | 2850       |  34.6 | 25.89
Neigh   | 640.76     | 640.8      | 640.84     |   0.1 |  5.86
Comm    | 306.06     | 308.02     | 309.98     |  11.2 |  2.82
Output  | 3.4811     | 4.4515     | 5.4218     |  46.0 |  0.04
Modify  | 843.27     | 846.56     | 849.85     |  11.3 |  7.74
Other   |            | 118.8      |            |       |  1.09

Nlocal:           1368 ave        1371 max        1365 min
Histogram: 1 0 0 0 0 0 0 0 0 1
Nghost:        10833.5 ave       10865 max       10802 min
Histogram: 1 0 0 0 0 0 0 0 0 1
Neighs:         566434 ave      566450 max      566419 min
Histogram: 1 0 0 0 0 0 0 0 0 1

Total # of neighbors = 1132869
Ave neighs/atom = 414.06031
Ave special neighs/atom = 6.5789474
Neighbor list builds = 7740
Dangerous builds = 0

write_data data.final.lmp
System init for write_data ...
PPPM initialization ...
  using 12-bit tables for long-range coulomb
  G vector (1/distance) = 0.30186056
  grid = 24 24 24
  stencil order = 5
  estimated absolute RMS force accuracy = 0.0023742937
  estimated relative force accuracy = 7.150115e-06
  using double precision FFTW3
  3d grid and FFT values/proc = 18259 6912
Generated 91 of 91 mixed pair_coeff terms from geometric mixing rule
print "RENEU >>> finished. trajectory = dump.lammpstrj, density log = density.dat"
RENEU >>> finished. trajectory = dump.lammpstrj, density log = density.dat
Total wall time: 4:41:00
